Si cubic diamond                        
   5.50000000000000     
    -0.0001282818745547    0.4969264800328995    0.4969355301538050
     0.4969264800328995   -0.0001282818745547    0.4969355301538050
     0.4969208012007876    0.4969208012007876   -0.0001228658885008
   Si
     2
Direct
  0.8750261534935884  0.8750261534935884  0.8772260861167936
  0.1249738465064116  0.1249738465064116  0.1277739138832089
 
  0.00000000E+00  0.00000000E+00  0.00000000E+00
  0.00000000E+00  0.00000000E+00  0.00000000E+00
