System = perturbed cd Si

ISTART = 0 # Бинарный флаг, читать ли WAVECAR
ICHARG = 2 # Перекрытие независимых плотностей заряда. 11 - считать CHGCAR

ISMEAR = 0 # Гауссовский смиринг. -5 - тераэдрный метод Блоха (точный DOS)
SIGMA  = 0.1 # Стд пакета
 
ENCUT  = 360 # Порог энергии, ~1.3 EMAX из POSCAR

IBRION = 2 # Оптимизация методом сопряженных градиентов
ISIF   = 2 # Менять только позиции атомов. Степени свободы релаксации
NSW    = 10 # Число ионических шагов
EDIFFG = -0.0001 # Минимальное изменение сил

EDIFF  = 1E-06 # Минимально изменений энергий
