<?xml version="1.0" encoding="ISO-8859-1"?>
<modeling>
 <generator>
  <i name="program" type="string">vasp </i>
  <i name="version" type="string">5.4.4.18Apr17-6-g9f103f2a35  </i>
  <i name="subversion" type="string">(build Mar 07 2019 17:46:06) complex            parallel </i>
  <i name="platform" type="string">Magnus_Intel_PSXE_2016U4 </i>
  <i name="date" type="string">2025 10 01 </i>
  <i name="time" type="string">07:15:02 </i>
 </generator>
 <incar>
  <i type="string" name="SYSTEM"> cd Si DOS</i>
  <i type="string" name="PREC">normal</i>
  <i name="ENCUT">    400.00000000</i>
  <i type="int" name="ISMEAR">    -5</i>
  <i type="int" name="LORBIT">    11</i>
  <v type="int" name="KPOINT_BSE">    -1     0     0     0</v>
 </incar>
 <structure name="primitive_cell" >
  <crystal>
   <varray name="basis" >
    <v>       0.00000000       2.73450000       2.73450000 </v>
    <v>       2.73450000       0.00000000       2.73450000 </v>
    <v>       2.73450000       2.73450000       0.00000000 </v>
   </varray>
   <i name="volume">     40.89439418 </i>
   <varray name="rec_basis" >
    <v>      -0.18284878       0.18284878       0.18284878 </v>
    <v>       0.18284878      -0.18284878       0.18284878 </v>
    <v>       0.18284878       0.18284878      -0.18284878 </v>
   </varray>
  </crystal>
  <varray name="positions" >
   <v>      -0.12500000      -0.12500000      -0.12500000 </v>
   <v>       0.12500000       0.12500000       0.12500000 </v>
  </varray>
 </structure>
 <varray name="primitive_index" >
  <v type="int" >        1 </v>
  <v type="int" >        2 </v>
 </varray>
 <kpoints>
  <generation param="Monkhorst-Pack">
   <v type="int" name="divisions">      15       15       15 </v>
   <v name="usershift">      0.00000000       0.00000000       0.00000000 </v>
   <v name="genvec1">      0.06666667       0.00000000       0.00000000 </v>
   <v name="genvec2">      0.00000000       0.06666667       0.00000000 </v>
   <v name="genvec3">      0.00000000       0.00000000       0.06666667 </v>
   <v name="shift">      0.00000000       0.00000000       0.00000000 </v>
  </generation>
  <varray name="kpointlist" >
   <v>       0.00000000       0.00000000       0.00000000 </v>
   <v>       0.06666667       0.00000000       0.00000000 </v>
   <v>       0.13333333       0.00000000       0.00000000 </v>
   <v>       0.20000000       0.00000000       0.00000000 </v>
   <v>       0.26666667       0.00000000       0.00000000 </v>
   <v>       0.33333333       0.00000000       0.00000000 </v>
   <v>       0.40000000       0.00000000       0.00000000 </v>
   <v>       0.46666667       0.00000000       0.00000000 </v>
   <v>       0.06666667       0.06666667       0.00000000 </v>
   <v>       0.13333333       0.06666667       0.00000000 </v>
   <v>       0.20000000       0.06666667       0.00000000 </v>
   <v>       0.26666667       0.06666667       0.00000000 </v>
   <v>       0.33333333       0.06666667       0.00000000 </v>
   <v>       0.40000000       0.06666667       0.00000000 </v>
   <v>       0.46666667       0.06666667       0.00000000 </v>
   <v>      -0.46666667       0.06666667       0.00000000 </v>
   <v>      -0.40000000       0.06666667       0.00000000 </v>
   <v>      -0.33333333       0.06666667       0.00000000 </v>
   <v>      -0.26666667       0.06666667       0.00000000 </v>
   <v>      -0.20000000       0.06666667       0.00000000 </v>
   <v>      -0.13333333       0.06666667       0.00000000 </v>
   <v>      -0.06666667       0.06666667       0.00000000 </v>
   <v>       0.13333333       0.13333333       0.00000000 </v>
   <v>       0.20000000       0.13333333       0.00000000 </v>
   <v>       0.26666667       0.13333333       0.00000000 </v>
   <v>       0.33333333       0.13333333       0.00000000 </v>
   <v>       0.40000000       0.13333333       0.00000000 </v>
   <v>       0.46666667       0.13333333       0.00000000 </v>
   <v>      -0.46666667       0.13333333       0.00000000 </v>
   <v>      -0.40000000       0.13333333       0.00000000 </v>
   <v>      -0.33333333       0.13333333       0.00000000 </v>
   <v>      -0.26666667       0.13333333       0.00000000 </v>
   <v>      -0.20000000       0.13333333       0.00000000 </v>
   <v>      -0.13333333       0.13333333       0.00000000 </v>
   <v>       0.20000000       0.20000000       0.00000000 </v>
   <v>       0.26666667       0.20000000       0.00000000 </v>
   <v>       0.33333333       0.20000000       0.00000000 </v>
   <v>       0.40000000       0.20000000       0.00000000 </v>
   <v>       0.46666667       0.20000000       0.00000000 </v>
   <v>      -0.46666667       0.20000000       0.00000000 </v>
   <v>      -0.40000000       0.20000000       0.00000000 </v>
   <v>      -0.33333333       0.20000000       0.00000000 </v>
   <v>      -0.26666667       0.20000000       0.00000000 </v>
   <v>      -0.20000000       0.20000000       0.00000000 </v>
   <v>       0.26666667       0.26666667       0.00000000 </v>
   <v>       0.33333333       0.26666667       0.00000000 </v>
   <v>       0.40000000       0.26666667       0.00000000 </v>
   <v>       0.46666667       0.26666667       0.00000000 </v>
   <v>      -0.46666667       0.26666667       0.00000000 </v>
   <v>      -0.40000000       0.26666667       0.00000000 </v>
   <v>      -0.33333333       0.26666667       0.00000000 </v>
   <v>      -0.26666667       0.26666667       0.00000000 </v>
   <v>       0.33333333       0.33333333       0.00000000 </v>
   <v>       0.40000000       0.33333333       0.00000000 </v>
   <v>       0.46666667       0.33333333       0.00000000 </v>
   <v>      -0.46666667       0.33333333       0.00000000 </v>
   <v>      -0.40000000       0.33333333       0.00000000 </v>
   <v>      -0.33333333       0.33333333       0.00000000 </v>
   <v>       0.40000000       0.40000000       0.00000000 </v>
   <v>       0.46666667       0.40000000       0.00000000 </v>
   <v>      -0.46666667       0.40000000       0.00000000 </v>
   <v>      -0.40000000       0.40000000       0.00000000 </v>
   <v>       0.46666667       0.46666667       0.00000000 </v>
   <v>      -0.46666667       0.46666667       0.00000000 </v>
   <v>       0.20000000       0.13333333       0.06666667 </v>
   <v>       0.26666667       0.13333333       0.06666667 </v>
   <v>       0.33333333       0.13333333       0.06666667 </v>
   <v>       0.40000000       0.13333333       0.06666667 </v>
   <v>       0.46666667       0.13333333       0.06666667 </v>
   <v>      -0.46666667       0.13333333       0.06666667 </v>
   <v>       0.26666667       0.20000000       0.06666667 </v>
   <v>       0.33333333       0.20000000       0.06666667 </v>
   <v>       0.40000000       0.20000000       0.06666667 </v>
   <v>       0.46666667       0.20000000       0.06666667 </v>
   <v>      -0.46666667       0.20000000       0.06666667 </v>
   <v>      -0.40000000       0.20000000       0.06666667 </v>
   <v>      -0.33333333       0.20000000       0.06666667 </v>
   <v>      -0.26666667       0.20000000       0.06666667 </v>
   <v>      -0.20000000       0.20000000       0.06666667 </v>
   <v>      -0.13333333       0.20000000       0.06666667 </v>
   <v>       0.33333333       0.26666667       0.06666667 </v>
   <v>       0.40000000       0.26666667       0.06666667 </v>
   <v>       0.46666667       0.26666667       0.06666667 </v>
   <v>      -0.46666667       0.26666667       0.06666667 </v>
   <v>      -0.40000000       0.26666667       0.06666667 </v>
   <v>      -0.33333333       0.26666667       0.06666667 </v>
   <v>      -0.26666667       0.26666667       0.06666667 </v>
   <v>      -0.20000000       0.26666667       0.06666667 </v>
   <v>       0.40000000       0.33333333       0.06666667 </v>
   <v>       0.46666667       0.33333333       0.06666667 </v>
   <v>      -0.46666667       0.33333333       0.06666667 </v>
   <v>      -0.40000000       0.33333333       0.06666667 </v>
   <v>      -0.33333333       0.33333333       0.06666667 </v>
   <v>      -0.26666667       0.33333333       0.06666667 </v>
   <v>       0.46666667       0.40000000       0.06666667 </v>
   <v>      -0.46666667       0.40000000       0.06666667 </v>
   <v>      -0.40000000       0.40000000       0.06666667 </v>
   <v>      -0.33333333       0.40000000       0.06666667 </v>
   <v>      -0.46666667       0.46666667       0.06666667 </v>
   <v>      -0.40000000       0.46666667       0.06666667 </v>
   <v>       0.40000000       0.26666667       0.13333333 </v>
   <v>       0.46666667       0.26666667       0.13333333 </v>
   <v>      -0.46666667       0.26666667       0.13333333 </v>
   <v>      -0.40000000       0.26666667       0.13333333 </v>
   <v>       0.46666667       0.33333333       0.13333333 </v>
   <v>      -0.46666667       0.33333333       0.13333333 </v>
   <v>      -0.40000000       0.33333333       0.13333333 </v>
   <v>      -0.33333333       0.33333333       0.13333333 </v>
   <v>      -0.26666667       0.33333333       0.13333333 </v>
   <v>      -0.20000000       0.33333333       0.13333333 </v>
   <v>      -0.46666667       0.40000000       0.13333333 </v>
   <v>      -0.40000000       0.40000000       0.13333333 </v>
   <v>      -0.33333333       0.40000000       0.13333333 </v>
   <v>      -0.26666667       0.40000000       0.13333333 </v>
   <v>      -0.40000000       0.46666667       0.13333333 </v>
   <v>      -0.33333333       0.46666667       0.13333333 </v>
   <v>      -0.40000000       0.40000000       0.20000000 </v>
   <v>      -0.33333333       0.40000000       0.20000000 </v>
   <v>      -0.33333333       0.46666667       0.20000000 </v>
   <v>      -0.26666667       0.46666667       0.20000000 </v>
  </varray>
  <varray name="weights" >
   <v>       0.00029630 </v>
   <v>       0.00237037 </v>
   <v>       0.00237037 </v>
   <v>       0.00237037 </v>
   <v>       0.00237037 </v>
   <v>       0.00237037 </v>
   <v>       0.00237037 </v>
   <v>       0.00237037 </v>
   <v>       0.00177778 </v>
   <v>       0.00711111 </v>
   <v>       0.00711111 </v>
   <v>       0.00711111 </v>
   <v>       0.00711111 </v>
   <v>       0.00711111 </v>
   <v>       0.00711111 </v>
   <v>       0.00711111 </v>
   <v>       0.00711111 </v>
   <v>       0.00711111 </v>
   <v>       0.00711111 </v>
   <v>       0.00711111 </v>
   <v>       0.00711111 </v>
   <v>       0.00355556 </v>
   <v>       0.00177778 </v>
   <v>       0.00711111 </v>
   <v>       0.00711111 </v>
   <v>       0.00711111 </v>
   <v>       0.00711111 </v>
   <v>       0.00711111 </v>
   <v>       0.00711111 </v>
   <v>       0.00711111 </v>
   <v>       0.00711111 </v>
   <v>       0.00711111 </v>
   <v>       0.00711111 </v>
   <v>       0.00355556 </v>
   <v>       0.00177778 </v>
   <v>       0.00711111 </v>
   <v>       0.00711111 </v>
   <v>       0.00711111 </v>
   <v>       0.00711111 </v>
   <v>       0.00711111 </v>
   <v>       0.00711111 </v>
   <v>       0.00711111 </v>
   <v>       0.00711111 </v>
   <v>       0.00355556 </v>
   <v>       0.00177778 </v>
   <v>       0.00711111 </v>
   <v>       0.00711111 </v>
   <v>       0.00711111 </v>
   <v>       0.00711111 </v>
   <v>       0.00711111 </v>
   <v>       0.00711111 </v>
   <v>       0.00355556 </v>
   <v>       0.00177778 </v>
   <v>       0.00711111 </v>
   <v>       0.00711111 </v>
   <v>       0.00711111 </v>
   <v>       0.00711111 </v>
   <v>       0.00355556 </v>
   <v>       0.00177778 </v>
   <v>       0.00711111 </v>
   <v>       0.00711111 </v>
   <v>       0.00355556 </v>
   <v>       0.00177778 </v>
   <v>       0.00355556 </v>
   <v>       0.00711111 </v>
   <v>       0.01422222 </v>
   <v>       0.01422222 </v>
   <v>       0.01422222 </v>
   <v>       0.01422222 </v>
   <v>       0.01422222 </v>
   <v>       0.00711111 </v>
   <v>       0.01422222 </v>
   <v>       0.01422222 </v>
   <v>       0.01422222 </v>
   <v>       0.01422222 </v>
   <v>       0.01422222 </v>
   <v>       0.01422222 </v>
   <v>       0.01422222 </v>
   <v>       0.01422222 </v>
   <v>       0.00711111 </v>
   <v>       0.00711111 </v>
   <v>       0.01422222 </v>
   <v>       0.01422222 </v>
   <v>       0.01422222 </v>
   <v>       0.01422222 </v>
   <v>       0.01422222 </v>
   <v>       0.01422222 </v>
   <v>       0.00711111 </v>
   <v>       0.00711111 </v>
   <v>       0.01422222 </v>
   <v>       0.01422222 </v>
   <v>       0.01422222 </v>
   <v>       0.01422222 </v>
   <v>       0.00711111 </v>
   <v>       0.00711111 </v>
   <v>       0.01422222 </v>
   <v>       0.01422222 </v>
   <v>       0.00711111 </v>
   <v>       0.00711111 </v>
   <v>       0.00711111 </v>
   <v>       0.00711111 </v>
   <v>       0.01422222 </v>
   <v>       0.01422222 </v>
   <v>       0.01422222 </v>
   <v>       0.00711111 </v>
   <v>       0.01422222 </v>
   <v>       0.01422222 </v>
   <v>       0.01422222 </v>
   <v>       0.01422222 </v>
   <v>       0.00711111 </v>
   <v>       0.00711111 </v>
   <v>       0.01422222 </v>
   <v>       0.01422222 </v>
   <v>       0.00711111 </v>
   <v>       0.00711111 </v>
   <v>       0.00711111 </v>
   <v>       0.00711111 </v>
   <v>       0.01422222 </v>
   <v>       0.00711111 </v>
   <v>       0.00711111 </v>
  </varray>
  <varray name="tetrahedronlist"  type="int" >
   <v type="int" >       24        1        2        2        9 </v>
   <v type="int" >       48        2        9       10       22 </v>
   <v type="int" >       48        2        3       10       22 </v>
   <v type="int" >       24        2        2        9       22 </v>
   <v type="int" >       48        3       10       11       21 </v>
   <v type="int" >       48        3        4       11       21 </v>
   <v type="int" >       48        3       10       21       22 </v>
   <v type="int" >       48        4       11       12       20 </v>
   <v type="int" >       48        4        5       12       20 </v>
   <v type="int" >       48        4       11       20       21 </v>
   <v type="int" >       48        5       12       13       19 </v>
   <v type="int" >       48        5        6       13       19 </v>
   <v type="int" >       48        5       12       19       20 </v>
   <v type="int" >       48        6       13       14       18 </v>
   <v type="int" >       48        6        7       14       18 </v>
   <v type="int" >       48        6       13       18       19 </v>
   <v type="int" >       48        7       14       15       17 </v>
   <v type="int" >       48        7        8       15       17 </v>
   <v type="int" >       48        7       14       17       18 </v>
   <v type="int" >       48        8       15       16       16 </v>
   <v type="int" >       24        8        8       16       16 </v>
   <v type="int" >       48        8       15       16       17 </v>
   <v type="int" >       24        9       10       10       23 </v>
   <v type="int" >       24        9       10       10       22 </v>
   <v type="int" >       48       10       23       24       65 </v>
   <v type="int" >       48       10       11       24       65 </v>
   <v type="int" >       48       10       11       21       65 </v>
   <v type="int" >       24       10       10       23       65 </v>
   <v type="int" >       24       10       10       22       65 </v>
   <v type="int" >       48       10       21       22       65 </v>
   <v type="int" >       48       11       24       25       66 </v>
   <v type="int" >       48       11       12       25       66 </v>
   <v type="int" >       48       11       12       20       66 </v>
   <v type="int" >       48       11       24       65       66 </v>
   <v type="int" >       48       11       21       65       66 </v>
   <v type="int" >       48       11       20       21       66 </v>
   <v type="int" >       48       12       25       26       67 </v>
   <v type="int" >       48       12       13       26       67 </v>
   <v type="int" >       48       12       13       19       67 </v>
   <v type="int" >       48       12       25       66       67 </v>
   <v type="int" >       48       12       20       66       67 </v>
   <v type="int" >       48       12       19       20       67 </v>
   <v type="int" >       48       13       26       27       68 </v>
   <v type="int" >       48       13       14       27       68 </v>
   <v type="int" >       48       13       14       18       68 </v>
   <v type="int" >       48       13       26       67       68 </v>
   <v type="int" >       48       13       19       67       68 </v>
   <v type="int" >       48       13       18       19       68 </v>
   <v type="int" >       48       14       27       28       69 </v>
   <v type="int" >       48       14       15       28       69 </v>
   <v type="int" >       48       14       15       17       69 </v>
   <v type="int" >       48       14       27       68       69 </v>
   <v type="int" >       48       14       18       68       69 </v>
   <v type="int" >       48       14       17       18       69 </v>
   <v type="int" >       48       15       28       29       70 </v>
   <v type="int" >       48       15       16       29       70 </v>
   <v type="int" >       48       15       16       16       70 </v>
   <v type="int" >       48       15       28       69       70 </v>
   <v type="int" >       48       15       17       69       70 </v>
   <v type="int" >       48       15       16       17       70 </v>
   <v type="int" >       48       16       29       30       70 </v>
   <v type="int" >       48       16       17       30       70 </v>
   <v type="int" >       48       16       29       70       70 </v>
   <v type="int" >       24       16       16       70       70 </v>
   <v type="int" >       48       17       30       31       69 </v>
   <v type="int" >       48       17       18       31       69 </v>
   <v type="int" >       48       17       30       69       70 </v>
   <v type="int" >       48       18       31       32       68 </v>
   <v type="int" >       48       18       19       32       68 </v>
   <v type="int" >       48       18       31       68       69 </v>
   <v type="int" >       48       19       32       33       67 </v>
   <v type="int" >       48       19       20       33       67 </v>
   <v type="int" >       48       19       32       67       68 </v>
   <v type="int" >       48       20       33       34       66 </v>
   <v type="int" >       48       20       21       34       66 </v>
   <v type="int" >       48       20       33       66       67 </v>
   <v type="int" >       24       21       21       34       65 </v>
   <v type="int" >       24       21       21       22       65 </v>
   <v type="int" >       48       21       34       65       66 </v>
   <v type="int" >       24       23       24       24       35 </v>
   <v type="int" >       24       23       24       24       65 </v>
   <v type="int" >       48       24       35       36       71 </v>
   <v type="int" >       48       24       25       36       71 </v>
   <v type="int" >       48       24       25       66       71 </v>
   <v type="int" >       24       24       24       35       71 </v>
   <v type="int" >       24       24       24       65       71 </v>
   <v type="int" >       48       24       65       66       71 </v>
   <v type="int" >       48       25       36       37       72 </v>
   <v type="int" >       48       25       26       37       72 </v>
   <v type="int" >       48       25       26       67       72 </v>
   <v type="int" >       48       25       36       71       72 </v>
   <v type="int" >       48       25       66       71       72 </v>
   <v type="int" >       48       25       66       67       72 </v>
   <v type="int" >       48       26       37       38       73 </v>
   <v type="int" >       48       26       27       38       73 </v>
   <v type="int" >       48       26       27       68       73 </v>
   <v type="int" >       48       26       37       72       73 </v>
   <v type="int" >       48       26       67       72       73 </v>
   <v type="int" >       48       26       67       68       73 </v>
   <v type="int" >       48       27       38       39       74 </v>
   <v type="int" >       48       27       28       39       74 </v>
   <v type="int" >       48       27       28       69       74 </v>
   <v type="int" >       48       27       38       73       74 </v>
   <v type="int" >       48       27       68       73       74 </v>
   <v type="int" >       48       27       68       69       74 </v>
   <v type="int" >       48       28       39       40       75 </v>
   <v type="int" >       48       28       29       40       75 </v>
   <v type="int" >       48       28       29       70       75 </v>
   <v type="int" >       48       28       39       74       75 </v>
   <v type="int" >       48       28       69       74       75 </v>
   <v type="int" >       48       28       69       70       75 </v>
   <v type="int" >       48       29       40       41       76 </v>
   <v type="int" >       48       29       30       41       76 </v>
   <v type="int" >       48       29       30       70       76 </v>
   <v type="int" >       48       29       40       75       76 </v>
   <v type="int" >       48       29       70       75       76 </v>
   <v type="int" >       48       29       70       70       76 </v>
   <v type="int" >       48       30       41       42       77 </v>
   <v type="int" >       48       30       31       42       77 </v>
   <v type="int" >       48       30       31       69       77 </v>
   <v type="int" >       48       30       41       76       77 </v>
   <v type="int" >       48       30       70       76       77 </v>
   <v type="int" >       48       30       69       70       77 </v>
   <v type="int" >       48       31       42       43       78 </v>
   <v type="int" >       48       31       32       43       78 </v>
   <v type="int" >       48       31       32       68       78 </v>
   <v type="int" >       48       31       42       77       78 </v>
   <v type="int" >       48       31       69       77       78 </v>
   <v type="int" >       48       31       68       69       78 </v>
   <v type="int" >       48       32       43       44       79 </v>
   <v type="int" >       48       32       33       44       79 </v>
   <v type="int" >       48       32       33       67       79 </v>
   <v type="int" >       48       32       43       78       79 </v>
   <v type="int" >       48       32       68       78       79 </v>
   <v type="int" >       48       32       67       68       79 </v>
   <v type="int" >       24       33       33       44       80 </v>
   <v type="int" >       24       33       33       34       80 </v>
   <v type="int" >       48       33       34       66       80 </v>
   <v type="int" >       48       33       44       79       80 </v>
   <v type="int" >       48       33       67       79       80 </v>
   <v type="int" >       48       33       66       67       80 </v>
   <v type="int" >       24       34       66       66       80 </v>
   <v type="int" >       24       34       65       66       66 </v>
   <v type="int" >       24       35       36       36       45 </v>
   <v type="int" >       24       35       36       36       71 </v>
   <v type="int" >       48       36       45       46       81 </v>
   <v type="int" >       48       36       37       46       81 </v>
   <v type="int" >       48       36       37       72       81 </v>
   <v type="int" >       24       36       36       45       81 </v>
   <v type="int" >       24       36       36       71       81 </v>
   <v type="int" >       48       36       71       72       81 </v>
   <v type="int" >       48       37       46       47       82 </v>
   <v type="int" >       48       37       38       47       82 </v>
   <v type="int" >       48       37       38       73       82 </v>
   <v type="int" >       48       37       46       81       82 </v>
   <v type="int" >       48       37       72       81       82 </v>
   <v type="int" >       48       37       72       73       82 </v>
   <v type="int" >       48       38       47       48       83 </v>
   <v type="int" >       48       38       39       48       83 </v>
   <v type="int" >       48       38       39       74       83 </v>
   <v type="int" >       48       38       47       82       83 </v>
   <v type="int" >       48       38       73       82       83 </v>
   <v type="int" >       48       38       73       74       83 </v>
   <v type="int" >       48       39       48       49       84 </v>
   <v type="int" >       48       39       40       49       84 </v>
   <v type="int" >       48       39       40       75       84 </v>
   <v type="int" >       48       39       48       83       84 </v>
   <v type="int" >       48       39       74       83       84 </v>
   <v type="int" >       48       39       74       75       84 </v>
   <v type="int" >       48       40       49       50       85 </v>
   <v type="int" >       48       40       41       50       85 </v>
   <v type="int" >       48       40       41       76       85 </v>
   <v type="int" >       48       40       49       84       85 </v>
   <v type="int" >       48       40       75       84       85 </v>
   <v type="int" >       48       40       75       76       85 </v>
   <v type="int" >       48       41       50       51       86 </v>
   <v type="int" >       48       41       42       51       86 </v>
   <v type="int" >       48       41       42       77       86 </v>
   <v type="int" >       48       41       50       85       86 </v>
   <v type="int" >       48       41       76       85       86 </v>
   <v type="int" >       48       41       76       77       86 </v>
   <v type="int" >       48       42       51       52       87 </v>
   <v type="int" >       48       42       43       52       87 </v>
   <v type="int" >       48       42       43       78       87 </v>
   <v type="int" >       48       42       51       86       87 </v>
   <v type="int" >       48       42       77       86       87 </v>
   <v type="int" >       48       42       77       78       87 </v>
   <v type="int" >       24       43       43       52       88 </v>
   <v type="int" >       24       43       43       44       88 </v>
   <v type="int" >       48       43       44       79       88 </v>
   <v type="int" >       48       43       52       87       88 </v>
   <v type="int" >       48       43       78       87       88 </v>
   <v type="int" >       48       43       78       79       88 </v>
   <v type="int" >       24       44       79       79       88 </v>
   <v type="int" >       24       44       79       79       80 </v>
   <v type="int" >       24       45       46       46       53 </v>
   <v type="int" >       24       45       46       46       81 </v>
   <v type="int" >       48       46       53       54       89 </v>
   <v type="int" >       48       46       47       54       89 </v>
   <v type="int" >       48       46       47       82       89 </v>
   <v type="int" >       24       46       46       53       89 </v>
   <v type="int" >       24       46       46       81       89 </v>
   <v type="int" >       48       46       81       82       89 </v>
   <v type="int" >       48       47       54       55       90 </v>
   <v type="int" >       48       47       48       55       90 </v>
   <v type="int" >       48       47       48       83       90 </v>
   <v type="int" >       48       47       54       89       90 </v>
   <v type="int" >       48       47       82       89       90 </v>
   <v type="int" >       48       47       82       83       90 </v>
   <v type="int" >       48       48       55       56       91 </v>
   <v type="int" >       48       48       49       56       91 </v>
   <v type="int" >       48       48       49       84       91 </v>
   <v type="int" >       48       48       55       90       91 </v>
   <v type="int" >       48       48       83       90       91 </v>
   <v type="int" >       48       48       83       84       91 </v>
   <v type="int" >       48       49       56       57       92 </v>
   <v type="int" >       48       49       50       57       92 </v>
   <v type="int" >       48       49       50       85       92 </v>
   <v type="int" >       48       49       56       91       92 </v>
   <v type="int" >       48       49       84       91       92 </v>
   <v type="int" >       48       49       84       85       92 </v>
   <v type="int" >       48       50       57       58       93 </v>
   <v type="int" >       48       50       51       58       93 </v>
   <v type="int" >       48       50       51       86       93 </v>
   <v type="int" >       48       50       57       92       93 </v>
   <v type="int" >       48       50       85       92       93 </v>
   <v type="int" >       48       50       85       86       93 </v>
   <v type="int" >       24       51       51       58       94 </v>
   <v type="int" >       24       51       51       52       94 </v>
   <v type="int" >       48       51       52       87       94 </v>
   <v type="int" >       48       51       58       93       94 </v>
   <v type="int" >       48       51       86       93       94 </v>
   <v type="int" >       48       51       86       87       94 </v>
   <v type="int" >       24       52       87       87       94 </v>
   <v type="int" >       24       52       87       87       88 </v>
   <v type="int" >       24       53       54       54       59 </v>
   <v type="int" >       24       53       54       54       89 </v>
   <v type="int" >       48       54       59       60       95 </v>
   <v type="int" >       48       54       55       60       95 </v>
   <v type="int" >       48       54       55       90       95 </v>
   <v type="int" >       24       54       54       59       95 </v>
   <v type="int" >       24       54       54       89       95 </v>
   <v type="int" >       48       54       89       90       95 </v>
   <v type="int" >       48       55       60       61       96 </v>
   <v type="int" >       48       55       56       61       96 </v>
   <v type="int" >       48       55       56       91       96 </v>
   <v type="int" >       48       55       60       95       96 </v>
   <v type="int" >       48       55       90       95       96 </v>
   <v type="int" >       48       55       90       91       96 </v>
   <v type="int" >       48       56       61       62       97 </v>
   <v type="int" >       48       56       57       62       97 </v>
   <v type="int" >       48       56       57       92       97 </v>
   <v type="int" >       48       56       61       96       97 </v>
   <v type="int" >       48       56       91       96       97 </v>
   <v type="int" >       48       56       91       92       97 </v>
   <v type="int" >       24       57       57       62       98 </v>
   <v type="int" >       24       57       57       58       98 </v>
   <v type="int" >       48       57       58       93       98 </v>
   <v type="int" >       48       57       62       97       98 </v>
   <v type="int" >       48       57       92       97       98 </v>
   <v type="int" >       48       57       92       93       98 </v>
   <v type="int" >       24       58       93       93       98 </v>
   <v type="int" >       24       58       93       93       94 </v>
   <v type="int" >       24       59       60       60       63 </v>
   <v type="int" >       24       59       60       60       95 </v>
   <v type="int" >       48       60       63       64       99 </v>
   <v type="int" >       48       60       61       64       99 </v>
   <v type="int" >       48       60       61       96       99 </v>
   <v type="int" >       24       60       60       63       99 </v>
   <v type="int" >       24       60       60       95       99 </v>
   <v type="int" >       48       60       95       96       99 </v>
   <v type="int" >       24       61       61       64      100 </v>
   <v type="int" >       24       61       61       62      100 </v>
   <v type="int" >       48       61       62       97      100 </v>
   <v type="int" >       48       61       64       99      100 </v>
   <v type="int" >       48       61       96       99      100 </v>
   <v type="int" >       48       61       96       97      100 </v>
   <v type="int" >       24       62       97       97      100 </v>
   <v type="int" >       24       62       97       97       98 </v>
   <v type="int" >       12       63       63       64       64 </v>
   <v type="int" >       24       63       64       64       99 </v>
   <v type="int" >       12       64       64       99       99 </v>
   <v type="int" >       24       64       99       99      100 </v>
   <v type="int" >       24       65       66       66       71 </v>
   <v type="int" >       48       66       71       72       80 </v>
   <v type="int" >       48       66       67       72       80 </v>
   <v type="int" >       24       66       66       71       80 </v>
   <v type="int" >       48       67       72       73       79 </v>
   <v type="int" >       48       67       68       73       79 </v>
   <v type="int" >       48       67       72       79       80 </v>
   <v type="int" >       48       68       73       74       78 </v>
   <v type="int" >       48       68       69       74       78 </v>
   <v type="int" >       48       68       73       78       79 </v>
   <v type="int" >       48       69       74       75       77 </v>
   <v type="int" >       48       69       70       75       77 </v>
   <v type="int" >       48       69       74       77       78 </v>
   <v type="int" >       48       70       75       76       76 </v>
   <v type="int" >       24       70       70       76       76 </v>
   <v type="int" >       48       70       75       76       77 </v>
   <v type="int" >       24       71       72       72       81 </v>
   <v type="int" >       24       71       72       72       80 </v>
   <v type="int" >       48       72       81       82      101 </v>
   <v type="int" >       48       72       73       82      101 </v>
   <v type="int" >       48       72       73       79      101 </v>
   <v type="int" >       24       72       72       81      101 </v>
   <v type="int" >       24       72       72       80      101 </v>
   <v type="int" >       48       72       79       80      101 </v>
   <v type="int" >       48       73       82       83      102 </v>
   <v type="int" >       48       73       74       83      102 </v>
   <v type="int" >       48       73       74       78      102 </v>
   <v type="int" >       48       73       82      101      102 </v>
   <v type="int" >       48       73       79      101      102 </v>
   <v type="int" >       48       73       78       79      102 </v>
   <v type="int" >       48       74       83       84      103 </v>
   <v type="int" >       48       74       75       84      103 </v>
   <v type="int" >       48       74       75       77      103 </v>
   <v type="int" >       48       74       83      102      103 </v>
   <v type="int" >       48       74       78      102      103 </v>
   <v type="int" >       48       74       77       78      103 </v>
   <v type="int" >       48       75       84       85      104 </v>
   <v type="int" >       48       75       76       85      104 </v>
   <v type="int" >       48       75       76       76      104 </v>
   <v type="int" >       48       75       84      103      104 </v>
   <v type="int" >       48       75       77      103      104 </v>
   <v type="int" >       48       75       76       77      104 </v>
   <v type="int" >       48       76       85       86      104 </v>
   <v type="int" >       48       76       77       86      104 </v>
   <v type="int" >       48       76       85      104      104 </v>
   <v type="int" >       24       76       76      104      104 </v>
   <v type="int" >       48       77       86       87      103 </v>
   <v type="int" >       48       77       78       87      103 </v>
   <v type="int" >       48       77       86      103      104 </v>
   <v type="int" >       48       78       87       88      102 </v>
   <v type="int" >       48       78       79       88      102 </v>
   <v type="int" >       48       78       87      102      103 </v>
   <v type="int" >       24       79       79       88      101 </v>
   <v type="int" >       24       79       79       80      101 </v>
   <v type="int" >       48       79       88      101      102 </v>
   <v type="int" >       24       81       82       82       89 </v>
   <v type="int" >       24       81       82       82      101 </v>
   <v type="int" >       48       82       89       90      105 </v>
   <v type="int" >       48       82       83       90      105 </v>
   <v type="int" >       48       82       83      102      105 </v>
   <v type="int" >       24       82       82       89      105 </v>
   <v type="int" >       24       82       82      101      105 </v>
   <v type="int" >       48       82      101      102      105 </v>
   <v type="int" >       48       83       90       91      106 </v>
   <v type="int" >       48       83       84       91      106 </v>
   <v type="int" >       48       83       84      103      106 </v>
   <v type="int" >       48       83       90      105      106 </v>
   <v type="int" >       48       83      102      105      106 </v>
   <v type="int" >       48       83      102      103      106 </v>
   <v type="int" >       48       84       91       92      107 </v>
   <v type="int" >       48       84       85       92      107 </v>
   <v type="int" >       48       84       85      104      107 </v>
   <v type="int" >       48       84       91      106      107 </v>
   <v type="int" >       48       84      103      106      107 </v>
   <v type="int" >       48       84      103      104      107 </v>
   <v type="int" >       48       85       92       93      108 </v>
   <v type="int" >       48       85       86       93      108 </v>
   <v type="int" >       48       85       86      104      108 </v>
   <v type="int" >       48       85       92      107      108 </v>
   <v type="int" >       48       85      104      107      108 </v>
   <v type="int" >       48       85      104      104      108 </v>
   <v type="int" >       48       86       93       94      109 </v>
   <v type="int" >       48       86       87       94      109 </v>
   <v type="int" >       48       86       87      103      109 </v>
   <v type="int" >       48       86       93      108      109 </v>
   <v type="int" >       48       86      104      108      109 </v>
   <v type="int" >       48       86      103      104      109 </v>
   <v type="int" >       24       87       87       94      110 </v>
   <v type="int" >       24       87       87       88      110 </v>
   <v type="int" >       48       87       88      102      110 </v>
   <v type="int" >       48       87       94      109      110 </v>
   <v type="int" >       48       87      103      109      110 </v>
   <v type="int" >       48       87      102      103      110 </v>
   <v type="int" >       24       88      102      102      110 </v>
   <v type="int" >       24       88      101      102      102 </v>
   <v type="int" >       24       89       90       90       95 </v>
   <v type="int" >       24       89       90       90      105 </v>
   <v type="int" >       48       90       95       96      111 </v>
   <v type="int" >       48       90       91       96      111 </v>
   <v type="int" >       48       90       91      106      111 </v>
   <v type="int" >       24       90       90       95      111 </v>
   <v type="int" >       24       90       90      105      111 </v>
   <v type="int" >       48       90      105      106      111 </v>
   <v type="int" >       48       91       96       97      112 </v>
   <v type="int" >       48       91       92       97      112 </v>
   <v type="int" >       48       91       92      107      112 </v>
   <v type="int" >       48       91       96      111      112 </v>
   <v type="int" >       48       91      106      111      112 </v>
   <v type="int" >       48       91      106      107      112 </v>
   <v type="int" >       48       92       97       98      113 </v>
   <v type="int" >       48       92       93       98      113 </v>
   <v type="int" >       48       92       93      108      113 </v>
   <v type="int" >       48       92       97      112      113 </v>
   <v type="int" >       48       92      107      112      113 </v>
   <v type="int" >       48       92      107      108      113 </v>
   <v type="int" >       24       93       93       98      114 </v>
   <v type="int" >       24       93       93       94      114 </v>
   <v type="int" >       48       93       94      109      114 </v>
   <v type="int" >       48       93       98      113      114 </v>
   <v type="int" >       48       93      108      113      114 </v>
   <v type="int" >       48       93      108      109      114 </v>
   <v type="int" >       24       94      109      109      114 </v>
   <v type="int" >       24       94      109      109      110 </v>
   <v type="int" >       24       95       96       96       99 </v>
   <v type="int" >       24       95       96       96      111 </v>
   <v type="int" >       48       96       99      100      115 </v>
   <v type="int" >       48       96       97      100      115 </v>
   <v type="int" >       48       96       97      112      115 </v>
   <v type="int" >       24       96       96       99      115 </v>
   <v type="int" >       24       96       96      111      115 </v>
   <v type="int" >       48       96      111      112      115 </v>
   <v type="int" >       24       97       97      100      116 </v>
   <v type="int" >       24       97       97       98      116 </v>
   <v type="int" >       48       97       98      113      116 </v>
   <v type="int" >       48       97      100      115      116 </v>
   <v type="int" >       48       97      112      115      116 </v>
   <v type="int" >       48       97      112      113      116 </v>
   <v type="int" >       24       98      113      113      116 </v>
   <v type="int" >       24       98      113      113      114 </v>
   <v type="int" >       12       99       99      100      100 </v>
   <v type="int" >       24       99      100      100      115 </v>
   <v type="int" >       12      100      100      115      115 </v>
   <v type="int" >       24      100      115      115      116 </v>
   <v type="int" >       24      101      102      102      105 </v>
   <v type="int" >       48      102      105      106      110 </v>
   <v type="int" >       48      102      103      106      110 </v>
   <v type="int" >       24      102      102      105      110 </v>
   <v type="int" >       48      103      106      107      109 </v>
   <v type="int" >       48      103      104      107      109 </v>
   <v type="int" >       48      103      106      109      110 </v>
   <v type="int" >       48      104      107      108      108 </v>
   <v type="int" >       24      104      104      108      108 </v>
   <v type="int" >       48      104      107      108      109 </v>
   <v type="int" >       24      105      106      106      111 </v>
   <v type="int" >       24      105      106      106      110 </v>
   <v type="int" >       48      106      111      112      117 </v>
   <v type="int" >       48      106      107      112      117 </v>
   <v type="int" >       48      106      107      109      117 </v>
   <v type="int" >       24      106      106      111      117 </v>
   <v type="int" >       24      106      106      110      117 </v>
   <v type="int" >       48      106      109      110      117 </v>
   <v type="int" >       48      107      112      113      118 </v>
   <v type="int" >       48      107      108      113      118 </v>
   <v type="int" >       48      107      108      108      118 </v>
   <v type="int" >       48      107      112      117      118 </v>
   <v type="int" >       48      107      109      117      118 </v>
   <v type="int" >       48      107      108      109      118 </v>
   <v type="int" >       48      108      113      114      118 </v>
   <v type="int" >       48      108      109      114      118 </v>
   <v type="int" >       48      108      113      118      118 </v>
   <v type="int" >       24      108      108      118      118 </v>
   <v type="int" >       24      109      109      114      117 </v>
   <v type="int" >       24      109      109      110      117 </v>
   <v type="int" >       48      109      114      117      118 </v>
   <v type="int" >       24      111      112      112      115 </v>
   <v type="int" >       24      111      112      112      117 </v>
   <v type="int" >       48      112      115      116      119 </v>
   <v type="int" >       48      112      113      116      119 </v>
   <v type="int" >       48      112      113      118      119 </v>
   <v type="int" >       24      112      112      115      119 </v>
   <v type="int" >       24      112      112      117      119 </v>
   <v type="int" >       48      112      117      118      119 </v>
   <v type="int" >       24      113      113      116      120 </v>
   <v type="int" >       24      113      113      114      120 </v>
   <v type="int" >       48      113      114      118      120 </v>
   <v type="int" >       48      113      116      119      120 </v>
   <v type="int" >       48      113      118      119      120 </v>
   <v type="int" >       48      113      118      118      120 </v>
   <v type="int" >       24      114      118      118      120 </v>
   <v type="int" >       24      114      117      118      118 </v>
   <v type="int" >       12      115      115      116      116 </v>
   <v type="int" >       24      115      116      116      119 </v>
   <v type="int" >       12      116      116      119      119 </v>
   <v type="int" >       24      116      119      119      120 </v>
   <v type="int" >       24      117      118      118      119 </v>
   <v type="int" >       48      118      119      120      120 </v>
   <v type="int" >       24      118      118      120      120 </v>
   <v type="int" >       24      118      118      119      120 </v>
   <v type="int" >       12      119      119      120      120 </v>
   <v type="int" >       24      119      120      120      120 </v>
   <v type="int" >        6      120      120      120      120 </v>
  </varray>
  <i name="volumeweight">      0.00004938 </i>
 </kpoints>
 <parameters>
  <separator name="general" >
   <i type="string" name="SYSTEM">cd Si DOS</i>
   <i type="logical" name="LCOMPAT"> F  </i>
  </separator>
  <separator name="electronic" >
   <i type="string" name="PREC">normal</i>
   <i name="ENMAX">    400.00000000</i>
   <i name="ENAUG">    322.06900000</i>
   <i name="EDIFF">      0.00010000</i>
   <i type="int" name="IALGO">    38</i>
   <i type="int" name="IWAVPR">    10</i>
   <i type="int" name="NBANDS">    16</i>
   <i name="NELECT">      8.00000000</i>
   <i type="int" name="TURBO">     0</i>
   <i type="int" name="IRESTART">     0</i>
   <i type="int" name="NREBOOT">     0</i>
   <i type="int" name="NMIN">     0</i>
   <i name="EREF">      0.00000000</i>
   <separator name="electronic smearing" >
    <i type="int" name="ISMEAR">    -5</i>
    <i name="SIGMA">      0.20000000</i>
    <i name="KSPACING">      0.50000000</i>
    <i type="logical" name="KGAMMA"> T  </i>
   </separator>
   <separator name="electronic projectors" >
    <i type="logical" name="LREAL"> F  </i>
    <v name="ROPT">      0.00000000</v>
    <i type="int" name="LMAXPAW">  -100</i>
    <i type="int" name="LMAXMIX">     2</i>
    <i type="logical" name="NLSPLINE"> F  </i>
   </separator>
   <separator name="electronic startup" >
    <i type="int" name="ISTART">     0</i>
    <i type="int" name="ICHARG">     2</i>
    <i type="int" name="INIWAV">     1</i>
   </separator>
   <separator name="electronic spin" >
    <i type="int" name="ISPIN">     1</i>
    <i type="logical" name="LNONCOLLINEAR"> F  </i>
    <v name="MAGMOM">      1.00000000      1.00000000</v>
    <i name="NUPDOWN">     -1.00000000</i>
    <i type="logical" name="LSORBIT"> F  </i>
    <v name="SAXIS">      0.00000000      0.00000000      1.00000000</v>
    <i type="logical" name="LSPIRAL"> F  </i>
    <v name="QSPIRAL">      0.00000000      0.00000000      0.00000000</v>
    <i type="logical" name="LZEROZ"> F  </i>
   </separator>
   <separator name="electronic exchange-correlation" >
    <i type="logical" name="LASPH"> F  </i>
    <i type="logical" name="LMETAGGA"> F  </i>
   </separator>
   <separator name="electronic convergence" >
    <i type="int" name="NELM">    60</i>
    <i type="int" name="NELMDL">    -5</i>
    <i type="int" name="NELMIN">     2</i>
    <i name="ENINI">    400.00000000</i>
    <separator name="electronic convergence detail" >
     <i type="logical" name="LDIAG"> T  </i>
     <i type="logical" name="LSUBROT"> F  </i>
     <i name="WEIMIN">      0.00000000</i>
     <i name="EBREAK">      0.00000156</i>
     <i name="DEPER">      0.30000000</i>
     <i type="int" name="NRMM">     4</i>
     <i name="TIME">      0.40000000</i>
    </separator>
   </separator>
   <separator name="electronic mixer" >
    <i name="AMIX">      0.40000000</i>
    <i name="BMIX">      1.00000000</i>
    <i name="AMIN">      0.10000000</i>
    <i name="AMIX_MAG">      1.60000000</i>
    <i name="BMIX_MAG">      1.00000000</i>
    <separator name="electronic mixer details" >
     <i type="int" name="IMIX">     4</i>
     <i type="logical" name="MIXFIRST"> F  </i>
     <i type="int" name="MAXMIX">   -45</i>
     <i name="WC">    100.00000000</i>
     <i type="int" name="INIMIX">     1</i>
     <i type="int" name="MIXPRE">     1</i>
     <i type="int" name="MREMOVE">     5</i>
    </separator>
   </separator>
   <separator name="electronic dipolcorrection" >
    <i type="logical" name="LDIPOL"> F  </i>
    <i type="logical" name="LMONO"> F  </i>
    <i type="int" name="IDIPOL">     0</i>
    <i name="EPSILON">      1.00000000</i>
    <v name="DIPOL">   -100.00000000   -100.00000000   -100.00000000</v>
    <i name="EFIELD">      0.00000000</i>
   </separator>
  </separator>
  <separator name="grids" >
   <i type="int" name="NGX">    20</i>
   <i type="int" name="NGY">    20</i>
   <i type="int" name="NGZ">    20</i>
   <i type="int" name="NGXF">    40</i>
   <i type="int" name="NGYF">    40</i>
   <i type="int" name="NGZF">    40</i>
   <i type="logical" name="ADDGRID"> F  </i>
  </separator>
  <separator name="ionic" >
   <i type="int" name="NSW">     0</i>
   <i type="int" name="IBRION">    -1</i>
   <i type="int" name="MDALGO">     0</i>
   <i type="int" name="ISIF">     2</i>
   <i name="PSTRESS">      0.00000000</i>
   <i name="EDIFFG">      0.00100000</i>
   <i type="int" name="NFREE">     0</i>
   <i name="POTIM">      0.50000000</i>
   <i name="SMASS">     -3.00000000</i>
   <i name="SCALEE">      1.00000000</i>
  </separator>
  <separator name="ionic md" >
   <i name="TEBEG">      0.00010000</i>
   <i name="TEEND">      0.00010000</i>
   <i type="int" name="NBLOCK">     1</i>
   <i type="int" name="KBLOCK">     1</i>
   <i type="int" name="NPACO">   256</i>
   <i name="APACO">     16.00000000</i>
  </separator>
  <separator name="symmetry" >
   <i type="int" name="ISYM">     2</i>
   <i name="SYMPREC">      0.00001000</i>
  </separator>
  <separator name="dos" >
   <i type="int" name="LORBIT">    11</i>
   <v name="RWIGS">     -1.00000000</v>
   <i type="int" name="NEDOS">   301</i>
   <i name="EMIN">     10.00000000</i>
   <i name="EMAX">    -10.00000000</i>
   <i name="EFERMI">      0.00000000</i>
  </separator>
  <separator name="writing" >
   <i type="int" name="NWRITE">     2</i>
   <i type="logical" name="LWAVE"> T  </i>
   <i type="logical" name="LDOWNSAMPLE"> F  </i>
   <i type="logical" name="LCHARG"> T  </i>
   <i type="logical" name="LPARD"> F  </i>
   <i type="logical" name="LVTOT"> F  </i>
   <i type="logical" name="LVHAR"> F  </i>
   <i type="logical" name="LELF"> F  </i>
   <i type="logical" name="LOPTICS"> F  </i>
   <v name="STM">      0.00000000      0.00000000      0.00000000      0.00000000      0.00000000      0.00000000      0.00000000</v>
  </separator>
  <separator name="performance" >
   <i type="int" name="NPAR">    16</i>
   <i type="int" name="NSIM">     4</i>
   <i type="int" name="NBLK">    -1</i>
   <i type="logical" name="LPLANE"> T  </i>
   <i type="logical" name="LSCALAPACK"> T  </i>
   <i type="logical" name="LSCAAWARE"> F  </i>
   <i type="logical" name="LSCALU"> F  </i>
   <i type="logical" name="LASYNC"> F  </i>
   <i type="logical" name="LORBITALREAL"> F  </i>
  </separator>
  <separator name="miscellaneous" >
   <i type="int" name="IDIOT">     3</i>
   <i type="int" name="ISPECIAL">     0</i>
   <i type="logical" name="LMUSIC"> F  </i>
   <v name="POMASS">     28.08500000</v>
   <v name="DARWINR">      0.00000000</v>
   <v name="DARWINV">      1.00000000</v>
   <i type="logical" name="LCORR"> T  </i>
  </separator>
  <i type="logical" name="GGA_COMPAT"> T  </i>
  <i type="logical" name="LBERRY"> F  </i>
  <i type="int" name="ICORELEVEL">     0</i>
  <i type="logical" name="LDAU"> F  </i>
  <i type="int" name="I_CONSTRAINED_M">     0</i>
  <separator name="electronic exchange-correlation" >
   <i type="string" name="GGA">--</i>
   <i type="int" name="VOSKOWN">     0</i>
   <i type="logical" name="LHFCALC"> F  </i>
   <i type="string" name="PRECFOCK"></i>
   <i type="logical" name="LSYMGRAD"> F  </i>
   <i type="logical" name="LHFONE"> F  </i>
   <i type="logical" name="LRHFCALC"> F  </i>
   <i type="logical" name="LTHOMAS"> F  </i>
   <i type="logical" name="LMODELHF"> F  </i>
   <i name="ENCUT4O">     -1.00000000</i>
   <i type="int" name="EXXOEP">     0</i>
   <i type="int" name="FOURORBIT">     0</i>
   <i name="AEXX">      0.00000000</i>
   <i name="HFALPHA">      0.00000000</i>
   <i name="MCALPHA">      0.00000000</i>
   <i name="ALDAX">      1.00000000</i>
   <i name="AGGAX">      1.00000000</i>
   <i name="ALDAC">      1.00000000</i>
   <i name="AGGAC">      1.00000000</i>
   <i type="int" name="NKREDX">     1</i>
   <i type="int" name="NKREDY">     1</i>
   <i type="int" name="NKREDZ">     1</i>
   <i type="logical" name="SHIFTRED"> F  </i>
   <i type="logical" name="ODDONLY"> F  </i>
   <i type="logical" name="EVENONLY"> F  </i>
   <i type="int" name="LMAXFOCK">     0</i>
   <i type="int" name="NMAXFOCKAE">     0</i>
   <i type="logical" name="LFOCKAEDFT"> F  </i>
   <i name="HFSCREEN">      0.00000000</i>
   <i name="HFSCREENC">      0.00000000</i>
   <i type="int" name="NBANDSGWLOW">     0</i>
  </separator>
  <separator name="vdW DFT" >
   <i type="logical" name="LUSE_VDW"> F  </i>
   <i name="Zab_VDW">     -0.84910000</i>
   <i name="PARAM1">      0.12340000</i>
   <i name="PARAM2">      1.00000000</i>
   <i name="PARAM3">      0.00000000</i>
  </separator>
  <separator name="model GW" >
   <i type="int" name="MODEL_GW">     0</i>
   <i name="MODEL_EPS0">     12.26831825</i>
   <i name="MODEL_ALPHA">      1.00000000</i>
  </separator>
  <separator name="linear response parameters" >
   <i type="logical" name="LEPSILON"> F  </i>
   <i type="logical" name="LRPA"> F  </i>
   <i type="logical" name="LNABLA"> F  </i>
   <i type="logical" name="LVEL"> F  </i>
   <i type="int" name="KINTER">     0</i>
   <i name="CSHIFT">      0.10000000</i>
   <i name="OMEGAMAX">     -1.00000000</i>
   <i name="DEG_THRESHOLD">      0.00200000</i>
   <i name="RTIME">     -0.10000000</i>
   <i name="WPLASMAI">      0.00000000</i>
   <v name="DFIELD">      0.00000000      0.00000000      0.00000000</v>
   <v name="WPLASMA">      0.00000000      0.00000000      0.00000000      0.00000000      0.00000000      0.00000000      0.00000000      0.00000000      0.00000000</v>
  </separator>
  <separator name="orbital magnetization" >
   <i type="logical" name="NUCIND"> F  </i>
   <v name="MAGPOS">      0.00000000      0.00000000      0.00000000</v>
   <i type="logical" name="LNICSALL"> T  </i>
   <i type="logical" name="ORBITALMAG"> F  </i>
   <i type="logical" name="LMAGBLOCH"> F  </i>
   <i type="logical" name="LCHIMAG"> F  </i>
   <i type="logical" name="LGAUGE"> T  </i>
   <i type="int" name="MAGATOM">     0</i>
   <v name="MAGDIPOL">      0.00000000      0.00000000      0.00000000</v>
   <v name="AVECCONST">      0.00000000      0.00000000      0.00000000</v>
  </separator>
  <separator name="response functions" >
   <i type="logical" name="LADDER"> F  </i>
   <i type="logical" name="LRPAFORCE"> F  </i>
   <i type="logical" name="LFXC"> F  </i>
   <i type="logical" name="LHARTREE"> T  </i>
   <i type="int" name="IBSE">     0</i>
   <v type="int" name="KPOINT">    -1     0     0     0</v>
   <i type="logical" name="LTCTE"> F  </i>
   <i type="logical" name="LTETE"> F  </i>
   <i type="logical" name="LTRIPLET"> F  </i>
   <i type="logical" name="LFXCEPS"> F  </i>
   <i type="logical" name="LFXHEG"> F  </i>
   <i type="int" name="NATURALO">     2</i>
   <i type="logical" name="L2ORDER"> F  </i>
   <i type="logical" name="LMP2LT"> F  </i>
   <i type="logical" name="LUSEW"> F  </i>
   <i name="ENCUTGW">     -2.00000000</i>
   <i name="ENCUTGWSOFT">     -2.00000000</i>
   <i name="ENCUTLF">     -1.00000000</i>
   <i type="int" name="LMAXMP2">    -1</i>
   <i name="SCISSOR">      0.00000000</i>
   <i type="int" name="NOMEGA">     0</i>
   <i type="int" name="NOMEGAR">     0</i>
   <i type="int" name="NBANDSGW">    -1</i>
   <i type="int" name="NBANDSO">    -1</i>
   <i type="int" name="NBANDSV">    -1</i>
   <i type="int" name="NELM">     1</i>
   <i type="int" name="NELMHF">     1</i>
   <i type="int" name="DIM">     3</i>
   <i type="int" name="ANTIRES">     0</i>
   <i name="OMEGAMAX">    -30.00000000</i>
   <i name="OMEGAMIN">    -30.00000000</i>
   <i name="OMEGATL">   -200.00000000</i>
   <i type="int" name="OMEGAGRID">   140</i>
   <i name="CSHIFT">     -0.10000000</i>
   <i type="logical" name="SELFENERGY"> F  </i>
   <i type="logical" name="LSPECTRAL"> F  </i>
   <i type="logical" name="LSPECTRALGW"> F  </i>
   <i type="logical" name="LSINGLES"> F  </i>
   <i type="logical" name="LFERMIGW"> F  </i>
   <i type="logical" name="ODDONLYGW"> F  </i>
   <i type="logical" name="EVENONLYGW"> F  </i>
   <i type="int" name="NKREDLFX">     1</i>
   <i type="int" name="NKREDLFY">     1</i>
   <i type="int" name="NKREDLFZ">     1</i>
   <i type="int" name="MAXMEM">  2800</i>
   <i type="int" name="TELESCOPE">     0</i>
   <i type="int" name="TAUPAR">     1</i>
   <i type="int" name="OMEGAPAR">    -1</i>
   <i name="LAMBDA">      1.00000000</i>
  </separator>
  <separator name="External order field" >
   <i name="OFIELD_KAPPA">      0.00000000</i>
   <v name="OFIELD_K">      0.00000000      0.00000000      0.00000000</v>
   <i name="OFIELD_Q6_NEAR">      0.00000000</i>
   <i name="OFIELD_Q6_FAR">      0.00000000</i>
   <i name="OFIELD_A">      0.00000000</i>
  </separator>
 </parameters>
 <atominfo>
  <atoms>       2 </atoms>
  <types>       1 </types>
  <array name="atoms" >
   <dimension dim="1">ion</dimension>
   <field type="string">element</field>
   <field type="int">atomtype</field>
   <set>
    <rc><c>Si</c><c>   1</c></rc>
    <rc><c>Si</c><c>   1</c></rc>
   </set>
  </array>
  <array name="atomtypes" >
   <dimension dim="1">type</dimension>
   <field type="int">atomspertype</field>
   <field type="string">element</field>
   <field>mass</field>
   <field>valence</field>
   <field type="string">pseudopotential</field>
   <set>
    <rc><c>   2</c><c>Si</c><c>     28.08500000</c><c>      4.00000000</c><c> PAW_PBE Si 05Jan2001                   </c></rc>
   </set>
  </array>
 </atominfo>
 <structure name="initialpos" >
  <crystal>
   <varray name="basis" >
    <v>       0.00000000       2.73450000       2.73450000 </v>
    <v>       2.73450000       0.00000000       2.73450000 </v>
    <v>       2.73450000       2.73450000       0.00000000 </v>
   </varray>
   <i name="volume">     40.89439418 </i>
   <varray name="rec_basis" >
    <v>      -0.18284878       0.18284878       0.18284878 </v>
    <v>       0.18284878      -0.18284878       0.18284878 </v>
    <v>       0.18284878       0.18284878      -0.18284878 </v>
   </varray>
  </crystal>
  <varray name="positions" >
   <v>       0.87500000       0.87500000       0.87500000 </v>
   <v>       0.12500000       0.12500000       0.12500000 </v>
  </varray>
 </structure>
 <calculation>
  <scstep>
   <time name="dav">    0.39    0.39</time>
   <time name="total">    0.41    0.42</time>
   <energy>
    <i name="alphaZ">      3.29268391 </i>
    <i name="ewald">   -226.93361499 </i>
    <i name="hartreedc">    -11.32566111 </i>
    <i name="XCdc">    -18.68575479 </i>
    <i name="pawpsdc">     65.95520812 </i>
    <i name="pawaedc">    -30.76852678 </i>
    <i name="eentropy">      0.00000000 </i>
    <i name="bandstr">      8.34892591 </i>
    <i name="atom">    206.13149246 </i>
    <i name="e_fr_energy">     -3.98524728 </i>
    <i name="e_wo_entrp">     -3.98524728 </i>
    <i name="e_0_energy">     -3.98524728 </i>
   </energy>
  </scstep>
  <scstep>
   <time name="dav">    0.59    0.59</time>
   <time name="total">    0.59    0.60</time>
   <energy>
    <i name="e_fr_energy">    -10.97659260 </i>
    <i name="e_wo_entrp">    -10.97659260 </i>
    <i name="e_0_energy">    -10.97659260 </i>
   </energy>
  </scstep>
  <scstep>
   <time name="dav">    0.42    0.42</time>
   <time name="total">    0.42    0.42</time>
   <energy>
    <i name="e_fr_energy">    -11.01747573 </i>
    <i name="e_wo_entrp">    -11.01747573 </i>
    <i name="e_0_energy">    -11.01747573 </i>
   </energy>
  </scstep>
  <scstep>
   <time name="dav">    0.79    0.79</time>
   <time name="total">    0.79    0.79</time>
   <energy>
    <i name="e_fr_energy">    -11.01756654 </i>
    <i name="e_wo_entrp">    -11.01756654 </i>
    <i name="e_0_energy">    -11.01756654 </i>
   </energy>
  </scstep>
  <scstep>
   <time name="dav">    0.41    0.41</time>
   <time name="total">    0.44    0.44</time>
   <energy>
    <i name="e_fr_energy">    -11.01756654 </i>
    <i name="e_wo_entrp">    -11.01756654 </i>
    <i name="e_0_energy">    -11.01756654 </i>
   </energy>
  </scstep>
  <scstep>
   <time name="dav">    0.53    0.53</time>
   <time name="total">    0.56    0.56</time>
   <energy>
    <i name="e_fr_energy">    -10.90188670 </i>
    <i name="e_wo_entrp">    -10.90188670 </i>
    <i name="e_0_energy">    -10.90188670 </i>
   </energy>
  </scstep>
  <scstep>
   <time name="dav">    0.57    0.57</time>
   <time name="total">    0.60    0.60</time>
   <energy>
    <i name="e_fr_energy">    -10.84826976 </i>
    <i name="e_wo_entrp">    -10.84826976 </i>
    <i name="e_0_energy">    -10.84826976 </i>
   </energy>
  </scstep>
  <scstep>
   <time name="dav">    0.44    0.44</time>
   <time name="total">    0.47    0.47</time>
   <energy>
    <i name="e_fr_energy">    -10.84955054 </i>
    <i name="e_wo_entrp">    -10.84955054 </i>
    <i name="e_0_energy">    -10.84955054 </i>
   </energy>
  </scstep>
  <scstep>
   <time name="dav">    0.73    0.73</time>
   <time name="total">    0.74    0.74</time>
   <energy>
    <i name="alphaZ">      3.29268391 </i>
    <i name="ewald">   -226.93361499 </i>
    <i name="hartreedc">    -15.16275035 </i>
    <i name="XCdc">    -18.06006291 </i>
    <i name="pawpsdc">     73.59552780 </i>
    <i name="pawaedc">    -38.61365880 </i>
    <i name="eentropy">      0.00000000 </i>
    <i name="bandstr">      4.90073530 </i>
    <i name="atom">    206.13149246 </i>
    <i name="e_fr_energy">    -10.84964759 </i>
    <i name="e_wo_entrp">    -10.84964759 </i>
    <i name="e_0_energy">    -10.84964759 </i>
   </energy>
  </scstep>
  <structure>
   <crystal>
    <varray name="basis" >
     <v>       0.00000000       2.73450000       2.73450000 </v>
     <v>       2.73450000       0.00000000       2.73450000 </v>
     <v>       2.73450000       2.73450000       0.00000000 </v>
    </varray>
    <i name="volume">     40.89439418 </i>
    <varray name="rec_basis" >
     <v>      -0.18284878       0.18284878       0.18284878 </v>
     <v>       0.18284878      -0.18284878       0.18284878 </v>
     <v>       0.18284878       0.18284878      -0.18284878 </v>
    </varray>
   </crystal>
   <varray name="positions" >
    <v>       0.87500000       0.87500000       0.87500000 </v>
    <v>       0.12500000       0.12500000       0.12500000 </v>
   </varray>
  </structure>
  <varray name="forces" >
   <v>      -0.00000000      -0.00000000      -0.00000000 </v>
   <v>       0.00000000       0.00000000       0.00000000 </v>
  </varray>
  <varray name="stress" >
   <v>      -0.00077019      -0.00000000      -0.00000000 </v>
   <v>      -0.00000000      -0.00077019       0.00000000 </v>
   <v>       0.00000000      -0.00000000      -0.00077019 </v>
  </varray>
  <energy>
   <i name="e_fr_energy">    -10.84964759 </i>
   <i name="e_wo_entrp">    -10.84964759 </i>
   <i name="e_0_energy">      0.00000000 </i>
  </energy>
  <time name="totalsc">    5.46    5.61</time>
  <eigenvalues>
   <array>
    <dimension dim="1">band</dimension>
    <dimension dim="2">kpoint</dimension>
    <dimension dim="3">spin</dimension>
    <field>eigene</field>
    <field>occ</field>
    <set>
     <set comment="spin 1">
      <set comment="kpoint 1">
       <r>   -6.2006    1.0000 </r>
       <r>    5.6130    1.0000 </r>
       <r>    5.6130    1.0000 </r>
       <r>    5.6130    1.0000 </r>
       <r>    8.1713    0.0000 </r>
       <r>    8.1713    0.0000 </r>
       <r>    8.1713    0.0000 </r>
       <r>    8.7444    0.0000 </r>
       <r>   13.3260    0.0000 </r>
       <r>   13.3260    0.0000 </r>
       <r>   13.4840    0.0000 </r>
       <r>   16.7963    0.0000 </r>
       <r>   16.7963    0.0000 </r>
       <r>   16.7963    0.0000 </r>
       <r>   20.8759    0.0000 </r>
       <r>   28.4734    0.0000 </r>
      </set>
      <set comment="kpoint 2">
       <r>   -6.1434    1.0000 </r>
       <r>    5.0200    1.0000 </r>
       <r>    5.5200    1.0000 </r>
       <r>    5.5200    1.0000 </r>
       <r>    8.2059    0.0000 </r>
       <r>    8.3080    0.0000 </r>
       <r>    8.3080    0.0000 </r>
       <r>    9.2057    0.0000 </r>
       <r>   13.1443    0.0000 </r>
       <r>   13.1443    0.0000 </r>
       <r>   13.7324    0.0000 </r>
       <r>   16.5776    0.0000 </r>
       <r>   17.1647    0.0000 </r>
       <r>   17.1647    0.0000 </r>
       <r>   21.2696    0.0000 </r>
       <r>   27.8160    0.0000 </r>
      </set>
      <set comment="kpoint 3">
       <r>   -5.9728    1.0000 </r>
       <r>    3.8693    1.0000 </r>
       <r>    5.2997    1.0000 </r>
       <r>    5.2997    1.0000 </r>
       <r>    8.0264    0.0000 </r>
       <r>    8.6312    0.0000 </r>
       <r>    8.6312    0.0000 </r>
       <r>   10.2912    0.0000 </r>
       <r>   12.8155    0.0000 </r>
       <r>   12.8155    0.0000 </r>
       <r>   14.3422    0.0000 </r>
       <r>   16.2069    0.0000 </r>
       <r>   18.0749    0.0000 </r>
       <r>   18.0749    0.0000 </r>
       <r>   22.2305    0.0000 </r>
       <r>   26.2428    0.0000 </r>
      </set>
      <set comment="kpoint 4">
       <r>   -5.6927    1.0000 </r>
       <r>    2.6313    1.0000 </r>
       <r>    5.0457    1.0000 </r>
       <r>    5.0457    1.0000 </r>
       <r>    7.7651    0.0000 </r>
       <r>    8.9588    0.0000 </r>
       <r>    8.9588    0.0000 </r>
       <r>   11.4893    0.0000 </r>
       <r>   12.6644    0.0000 </r>
       <r>   12.6644    0.0000 </r>
       <r>   14.6847    0.0000 </r>
       <r>   16.4674    0.0000 </r>
       <r>   19.2507    0.0000 </r>
       <r>   19.2507    0.0000 </r>
       <r>   23.3156    0.0000 </r>
       <r>   24.4752    0.0000 </r>
      </set>
      <set comment="kpoint 5">
       <r>   -5.3120    1.0000 </r>
       <r>    1.4358    1.0000 </r>
       <r>    4.8142    1.0000 </r>
       <r>    4.8142    1.0000 </r>
       <r>    7.5118    0.0000 </r>
       <r>    9.1274    0.0000 </r>
       <r>    9.1274    0.0000 </r>
       <r>   12.6346    0.0000 </r>
       <r>   12.9047    0.0000 </r>
       <r>   12.9047    0.0000 </r>
       <r>   14.4810    0.0000 </r>
       <r>   17.6650    0.0000 </r>
       <r>   20.3547    0.0000 </r>
       <r>   20.3547    0.0000 </r>
       <r>   22.9956    0.0000 </r>
       <r>   22.9962    0.0000 </r>
      </set>
      <set comment="kpoint 6">
       <r>   -4.8507    1.0000 </r>
       <r>    0.3440    1.0000 </r>
       <r>    4.6308    1.0000 </r>
       <r>    4.6308    1.0000 </r>
       <r>    7.3048    0.0000 </r>
       <r>    9.1179    0.0000 </r>
       <r>    9.1179    0.0000 </r>
       <r>   13.3937    0.0000 </r>
       <r>   13.5697    0.0000 </r>
       <r>   13.5697    0.0000 </r>
       <r>   14.5903    0.0000 </r>
       <r>   19.0363    0.0000 </r>
       <r>   20.0800    0.0000 </r>
       <r>   20.0800    0.0000 </r>
       <r>   22.2015    0.0000 </r>
       <r>   23.1229    0.0000 </r>
      </set>
      <set comment="kpoint 7">
       <r>   -4.3597    1.0000 </r>
       <r>   -0.5746    1.0000 </r>
       <r>    4.5058    1.0000 </r>
       <r>    4.5058    1.0000 </r>
       <r>    7.1612    0.0000 </r>
       <r>    9.0351    0.0000 </r>
       <r>    9.0351    0.0000 </r>
       <r>   13.4147    0.0000 </r>
       <r>   14.5516    0.0000 </r>
       <r>   14.5516    0.0000 </r>
       <r>   15.5221    0.0000 </r>
       <r>   18.6859    0.0000 </r>
       <r>   18.6860    0.0000 </r>
       <r>   19.3819    0.0000 </r>
       <r>   22.3859    0.0000 </r>
       <r>   24.5877    0.0000 </r>
      </set>
      <set comment="kpoint 8">
       <r>   -3.9821    1.0000 </r>
       <r>   -1.1681    1.0000 </r>
       <r>    4.4428    1.0000 </r>
       <r>    4.4428    1.0000 </r>
       <r>    7.0880    0.0000 </r>
       <r>    8.9726    0.0000 </r>
       <r>    8.9726    0.0000 </r>
       <r>   13.3250    0.0000 </r>
       <r>   15.7122    0.0000 </r>
       <r>   15.7122    0.0000 </r>
       <r>   16.5581    0.0000 </r>
       <r>   17.2662    0.0000 </r>
       <r>   17.2662    0.0000 </r>
       <r>   18.5701    0.0000 </r>
       <r>   24.0123    0.0000 </r>
       <r>   26.1485    0.0000 </r>
      </set>
      <set comment="kpoint 9">
       <r>   -6.1242    1.0000 </r>
       <r>    5.1290    1.0000 </r>
       <r>    5.3271    1.0000 </r>
       <r>    5.3271    1.0000 </r>
       <r>    7.9925    0.0000 </r>
       <r>    8.5512    0.0000 </r>
       <r>    8.5512    0.0000 </r>
       <r>    9.2056    0.0000 </r>
       <r>   12.7950    0.0000 </r>
       <r>   13.4108    0.0000 </r>
       <r>   13.8144    0.0000 </r>
       <r>   16.9297    0.0000 </r>
       <r>   16.9297    0.0000 </r>
       <r>   17.1617    0.0000 </r>
       <r>   21.4234    0.0000 </r>
       <r>   27.4810    0.0000 </r>
      </set>
      <set comment="kpoint 10">
       <r>   -5.9912    1.0000 </r>
       <r>    4.2057    1.0000 </r>
       <r>    5.0544    1.0000 </r>
       <r>    5.2197    1.0000 </r>
       <r>    7.9895    0.0000 </r>
       <r>    8.6143    0.0000 </r>
       <r>    8.9452    0.0000 </r>
       <r>    9.9995    0.0000 </r>
       <r>   12.3876    0.0000 </r>
       <r>   13.3462    0.0000 </r>
       <r>   14.3235    0.0000 </r>
       <r>   16.6116    0.0000 </r>
       <r>   17.4119    0.0000 </r>
       <r>   18.0254    0.0000 </r>
       <r>   22.2285    0.0000 </r>
       <r>   26.1348    0.0000 </r>
      </set>
      <set comment="kpoint 11">
       <r>   -5.7471    1.0000 </r>
       <r>    3.0197    1.0000 </r>
       <r>    4.7841    1.0000 </r>
       <r>    5.0044    1.0000 </r>
       <r>    8.0650    0.0000 </r>
       <r>    8.6124    0.0000 </r>
       <r>    9.3288    0.0000 </r>
       <r>   10.8797    0.0000 </r>
       <r>   12.3545    0.0000 </r>
       <r>   13.2319    0.0000 </r>
       <r>   14.9026    0.0000 </r>
       <r>   16.4623    0.0000 </r>
       <r>   18.3851    0.0000 </r>
       <r>   19.2324    0.0000 </r>
       <r>   23.3074    0.0000 </r>
       <r>   24.3637    0.0000 </r>
      </set>
      <set comment="kpoint 12">
       <r>   -5.3988    1.0000 </r>
       <r>    1.8257    1.0000 </r>
       <r>    4.5596    1.0000 </r>
       <r>    4.7342    1.0000 </r>
       <r>    7.9210    0.0000 </r>
       <r>    8.8012    0.0000 </r>
       <r>    9.5412    0.0000 </r>
       <r>   11.3671    0.0000 </r>
       <r>   13.0753    0.0000 </r>
       <r>   13.4021    0.0000 </r>
       <r>   14.8582    0.0000 </r>
       <r>   17.3047    0.0000 </r>
       <r>   19.5048    0.0000 </r>
       <r>   20.4867    0.0000 </r>
       <r>   22.7214    0.0000 </r>
       <r>   23.1682    0.0000 </r>
      </set>
      <set comment="kpoint 13">
       <r>   -4.9612    1.0000 </r>
       <r>    0.7064    1.0000 </r>
       <r>    4.4004    1.0000 </r>
       <r>    4.4748    1.0000 </r>
       <r>    7.7279    0.0000 </r>
       <r>    8.8958    0.0000 </r>
       <r>    9.5317    0.0000 </r>
       <r>   11.9327    0.0000 </r>
       <r>   13.9838    0.0000 </r>
       <r>   14.0136    0.0000 </r>
       <r>   14.7115    0.0000 </r>
       <r>   18.6130    0.0000 </r>
       <r>   19.7543    0.0000 </r>
       <r>   20.8218    0.0000 </r>
       <r>   22.2160    0.0000 </r>
       <r>   22.6081    0.0000 </r>
      </set>
      <set comment="kpoint 14">
       <r>   -4.4707    1.0000 </r>
       <r>   -0.2733    1.0000 </r>
       <r>    4.2568    1.0000 </r>
       <r>    4.3140    1.0000 </r>
       <r>    7.5726    0.0000 </r>
       <r>    8.8842    0.0000 </r>
       <r>    9.3970    0.0000 </r>
       <r>   12.7332    0.0000 </r>
       <r>   14.1572    0.0000 </r>
       <r>   14.9019    0.0000 </r>
       <r>   15.5638    0.0000 </r>
       <r>   18.4971    0.0000 </r>
       <r>   18.9311    0.0000 </r>
       <r>   20.3714    0.0000 </r>
       <r>   22.2150    0.0000 </r>
       <r>   23.4705    0.0000 </r>
      </set>
      <set comment="kpoint 15">
       <r>   -4.0290    1.0000 </r>
       <r>   -0.9983    1.0000 </r>
       <r>    4.0947    1.0000 </r>
       <r>    4.3012    1.0000 </r>
       <r>    7.4786    0.0000 </r>
       <r>    8.8732    0.0000 </r>
       <r>    9.2480    0.0000 </r>
       <r>   13.3750    0.0000 </r>
       <r>   14.4521    0.0000 </r>
       <r>   15.9847    0.0000 </r>
       <r>   16.6781    0.0000 </r>
       <r>   17.0986    0.0000 </r>
       <r>   17.8521    0.0000 </r>
       <r>   19.5613    0.0000 </r>
       <r>   23.3828    0.0000 </r>
       <r>   25.1537    0.0000 </r>
      </set>
      <set comment="kpoint 16">
       <r>   -3.8781    1.0000 </r>
       <r>   -1.2200    1.0000 </r>
       <r>    3.9970    1.0000 </r>
       <r>    4.3592    1.0000 </r>
       <r>    7.4538    0.0000 </r>
       <r>    8.9216    0.0000 </r>
       <r>    9.1449    0.0000 </r>
       <r>   13.5136    0.0000 </r>
       <r>   15.2570    0.0000 </r>
       <r>   15.5023    0.0000 </r>
       <r>   16.5859    0.0000 </r>
       <r>   17.5126    0.0000 </r>
       <r>   17.7387    0.0000 </r>
       <r>   18.7364    0.0000 </r>
       <r>   24.5010    0.0000 </r>
       <r>   25.4127    0.0000 </r>
      </set>
      <set comment="kpoint 17">
       <r>   -4.1597    1.0000 </r>
       <r>   -0.7959    1.0000 </r>
       <r>    3.9700    1.0000 </r>
       <r>    4.4827    1.0000 </r>
       <r>    7.5000    0.0000 </r>
       <r>    9.0400    0.0000 </r>
       <r>    9.1040    0.0000 </r>
       <r>   13.4846    0.0000 </r>
       <r>   14.2758    0.0000 </r>
       <r>   14.9337    0.0000 </r>
       <r>   16.7498    0.0000 </r>
       <r>   17.2347    0.0000 </r>
       <r>   18.9334    0.0000 </r>
       <r>   19.5326    0.0000 </r>
       <r>   22.7685    0.0000 </r>
       <r>   24.5259    0.0000 </r>
      </set>
      <set comment="kpoint 18">
       <r>   -4.6367    1.0000 </r>
       <r>    0.0343    1.0000 </r>
       <r>    4.0183    1.0000 </r>
       <r>    4.6642    1.0000 </r>
       <r>    7.6152    0.0000 </r>
       <r>    9.1008    0.0000 </r>
       <r>    9.1984    0.0000 </r>
       <r>   13.0765    0.0000 </r>
       <r>   13.2322    0.0000 </r>
       <r>   14.5336    0.0000 </r>
       <r>   15.5503    0.0000 </r>
       <r>   18.4725    0.0000 </r>
       <r>   19.7636    0.0000 </r>
       <r>   20.3874    0.0000 </r>
       <r>   22.0455    0.0000 </r>
       <r>   22.9370    0.0000 </r>
      </set>
      <set comment="kpoint 19">
       <r>   -5.1160    1.0000 </r>
       <r>    1.0687    1.0000 </r>
       <r>    4.1448    1.0000 </r>
       <r>    4.8920    1.0000 </r>
       <r>    7.7935    0.0000 </r>
       <r>    9.0602    0.0000 </r>
       <r>    9.3114    0.0000 </r>
       <r>   12.3212    0.0000 </r>
       <r>   12.4897    0.0000 </r>
       <r>   14.3927    0.0000 </r>
       <r>   14.7223    0.0000 </r>
       <r>   18.1186    0.0000 </r>
       <r>   19.8160    0.0000 </r>
       <r>   21.1960    0.0000 </r>
       <r>   21.7366    0.0000 </r>
       <r>   23.1631    0.0000 </r>
      </set>
      <set comment="kpoint 20">
       <r>   -5.5263    1.0000 </r>
       <r>    2.2162    1.0000 </r>
       <r>    4.3506    1.0000 </r>
       <r>    5.1462    1.0000 </r>
       <r>    8.0200    0.0000 </r>
       <r>    8.8822    0.0000 </r>
       <r>    9.2309    0.0000 </r>
       <r>   11.5842    0.0000 </r>
       <r>   12.1695    0.0000 </r>
       <r>   13.5377    0.0000 </r>
       <r>   14.9654    0.0000 </r>
       <r>   16.8999    0.0000 </r>
       <r>   19.0045    0.0000 </r>
       <r>   20.3305    0.0000 </r>
       <r>   22.7726    0.0000 </r>
       <r>   23.7669    0.0000 </r>
      </set>
      <set comment="kpoint 21">
       <r>   -5.8408    1.0000 </r>
       <r>    3.4026    1.0000 </r>
       <r>    4.6370    1.0000 </r>
       <r>    5.3871    1.0000 </r>
       <r>    8.2611    0.0000 </r>
       <r>    8.5799    0.0000 </r>
       <r>    8.8848    0.0000 </r>
       <r>   10.7695    0.0000 </r>
       <r>   12.2809    0.0000 </r>
       <r>   13.1588    0.0000 </r>
       <r>   14.7544    0.0000 </r>
       <r>   16.4310    0.0000 </r>
       <r>   17.8495    0.0000 </r>
       <r>   19.0862    0.0000 </r>
       <r>   22.8859    0.0000 </r>
       <r>   24.4986    0.0000 </r>
      </set>
      <set comment="kpoint 22">
       <r>   -6.0483    1.0000 </r>
       <r>    4.4575    1.0000 </r>
       <r>    5.0396    1.0000 </r>
       <r>    5.5404    1.0000 </r>
       <r>    8.3286    0.0000 </r>
       <r>    8.4280    0.0000 </r>
       <r>    8.4359    0.0000 </r>
       <r>    9.8338    0.0000 </r>
       <r>   12.6765    0.0000 </r>
       <r>   13.1863    0.0000 </r>
       <r>   14.1122    0.0000 </r>
       <r>   16.6445    0.0000 </r>
       <r>   17.0758    0.0000 </r>
       <r>   17.9686    0.0000 </r>
       <r>   21.8596    0.0000 </r>
       <r>   26.2673    0.0000 </r>
      </set>
      <set comment="kpoint 23">
       <r>   -5.8958    1.0000 </r>
       <r>    4.1235    1.0000 </r>
       <r>    4.7508    1.0000 </r>
       <r>    4.7508    1.0000 </r>
       <r>    7.5701    0.0000 </r>
       <r>    9.4066    0.0000 </r>
       <r>    9.4066    0.0000 </r>
       <r>    9.8770    0.0000 </r>
       <r>   12.0514    0.0000 </r>
       <r>   13.6653    0.0000 </r>
       <r>   14.6860    0.0000 </r>
       <r>   17.3261    0.0000 </r>
       <r>   17.3261    0.0000 </r>
       <r>   17.8259    0.0000 </r>
       <r>   22.8906    0.0000 </r>
       <r>   25.7564    0.0000 </r>
      </set>
      <set comment="kpoint 24">
       <r>   -5.6884    1.0000 </r>
       <r>    3.2499    1.0000 </r>
       <r>    4.4634    1.0000 </r>
       <r>    4.5325    1.0000 </r>
       <r>    7.5364    0.0000 </r>
       <r>    9.4207    0.0000 </r>
       <r>    9.8722    0.0000 </r>
       <r>   10.2154    0.0000 </r>
       <r>   12.3016    0.0000 </r>
       <r>   13.7493    0.0000 </r>
       <r>   15.3147    0.0000 </r>
       <r>   17.0936    0.0000 </r>
       <r>   17.8949    0.0000 </r>
       <r>   18.8509    0.0000 </r>
       <r>   23.8807    0.0000 </r>
       <r>   24.3086    0.0000 </r>
      </set>
      <set comment="kpoint 25">
       <r>   -5.3742    1.0000 </r>
       <r>    2.1592    1.0000 </r>
       <r>    4.2317    1.0000 </r>
       <r>    4.2471    1.0000 </r>
       <r>    7.7267    0.0000 </r>
       <r>    9.3348    0.0000 </r>
       <r>   10.1792    0.0000 </r>
       <r>   10.2640    0.0000 </r>
       <r>   13.2672    0.0000 </r>
       <r>   13.9158    0.0000 </r>
       <r>   15.6502    0.0000 </r>
       <r>   17.3189    0.0000 </r>
       <r>   18.8430    0.0000 </r>
       <r>   20.1702    0.0000 </r>
       <r>   22.6222    0.0000 </r>
       <r>   23.1603    0.0000 </r>
      </set>
      <set comment="kpoint 26">
       <r>   -4.9644    1.0000 </r>
       <r>    1.0695    1.0000 </r>
       <r>    3.9207    1.0000 </r>
       <r>    4.0742    1.0000 </r>
       <r>    7.8231    0.0000 </r>
       <r>    9.3503    0.0000 </r>
       <r>   10.2295    0.0000 </r>
       <r>   10.4754    0.0000 </r>
       <r>   14.4307    0.0000 </r>
       <r>   14.4500    0.0000 </r>
       <r>   15.4270    0.0000 </r>
       <r>   18.3628    0.0000 </r>
       <r>   19.3972    0.0000 </r>
       <r>   20.8578    0.0000 </r>
       <r>   21.6480    0.0000 </r>
       <r>   22.6085    0.0000 </r>
      </set>
      <set comment="kpoint 27">
       <r>   -4.4851    1.0000 </r>
       <r>    0.0696    1.0000 </r>
       <r>    3.6172    1.0000 </r>
       <r>    3.9987    1.0000 </r>
       <r>    7.7958    0.0000 </r>
       <r>    9.2905    0.0000 </r>
       <r>   10.0925    0.0000 </r>
       <r>   11.1764    0.0000 </r>
       <r>   14.9844    0.0000 </r>
       <r>   15.2936    0.0000 </r>
       <r>   15.8256    0.0000 </r>
       <r>   18.3673    0.0000 </r>
       <r>   18.8281    0.0000 </r>
       <r>   20.7802    0.0000 </r>
       <r>   22.5458    0.0000 </r>
       <r>   23.0768    0.0000 </r>
      </set>
      <set comment="kpoint 28">
       <r>   -4.0072    1.0000 </r>
       <r>   -0.7419    1.0000 </r>
       <r>    3.3675    1.0000 </r>
       <r>    4.0068    1.0000 </r>
       <r>    7.7652    0.0000 </r>
       <r>    9.2139    0.0000 </r>
       <r>    9.8957    0.0000 </r>
       <r>   12.1847    0.0000 </r>
       <r>   14.7480    0.0000 </r>
       <r>   16.2862    0.0000 </r>
       <r>   16.9708    0.0000 </r>
       <r>   17.0252    0.0000 </r>
       <r>   17.9464    0.0000 </r>
       <r>   21.1663    0.0000 </r>
       <r>   22.9198    0.0000 </r>
       <r>   24.1164    0.0000 </r>
      </set>
      <set comment="kpoint 29">
       <r>   -3.7256    1.0000 </r>
       <r>   -1.1570    1.0000 </r>
       <r>    3.1883    1.0000 </r>
       <r>    4.0955    1.0000 </r>
       <r>    7.7922    0.0000 </r>
       <r>    9.1914    0.0000 </r>
       <r>    9.7189    0.0000 </r>
       <r>   13.2883    0.0000 </r>
       <r>   14.4768    0.0000 </r>
       <r>   15.3732    0.0000 </r>
       <r>   16.7005    0.0000 </r>
       <r>   17.8120    0.0000 </r>
       <r>   18.5000    0.0000 </r>
       <r>   20.0445    0.0000 </r>
       <r>   24.4393    0.0000 </r>
       <r>   24.8161    0.0000 </r>
      </set>
      <set comment="kpoint 30">
       <r>   -3.8811    1.0000 </r>
       <r>   -0.9310    1.0000 </r>
       <r>    3.0908    1.0000 </r>
       <r>    4.2585    1.0000 </r>
       <r>    7.8894    0.0000 </r>
       <r>    9.2442    0.0000 </r>
       <r>    9.5915    0.0000 </r>
       <r>   13.7202    0.0000 </r>
       <r>   14.0919    0.0000 </r>
       <r>   14.4619    0.0000 </r>
       <r>   16.4556    0.0000 </r>
       <r>   18.6083    0.0000 </r>
       <r>   19.2262    0.0000 </r>
       <r>   19.7986    0.0000 </r>
       <r>   22.8515    0.0000 </r>
       <r>   24.7958    0.0000 </r>
      </set>
      <set comment="kpoint 31">
       <r>   -4.3256    1.0000 </r>
       <r>   -0.2155    1.0000 </r>
       <r>    3.0849    1.0000 </r>
       <r>    4.4842    1.0000 </r>
       <r>    8.0487    0.0000 </r>
       <r>    9.3630    0.0000 </r>
       <r>    9.5003    0.0000 </r>
       <r>   12.8754    0.0000 </r>
       <r>   12.9961    0.0000 </r>
       <r>   15.0117    0.0000 </r>
       <r>   17.1816    0.0000 </r>
       <r>   17.3192    0.0000 </r>
       <r>   20.2154    0.0000 </r>
       <r>   20.6996    0.0000 </r>
       <r>   21.8191    0.0000 </r>
       <r>   23.1416    0.0000 </r>
      </set>
      <set comment="kpoint 32">
       <r>   -4.8157    1.0000 </r>
       <r>    0.7311    1.0000 </r>
       <r>    3.1834    1.0000 </r>
       <r>    4.7545    1.0000 </r>
       <r>    8.2515    0.0000 </r>
       <r>    9.3790    0.0000 </r>
       <r>    9.4807    0.0000 </r>
       <r>   11.9769    0.0000 </r>
       <r>   12.1983    0.0000 </r>
       <r>   15.3955    0.0000 </r>
       <r>   16.0534    0.0000 </r>
       <r>   17.9483    0.0000 </r>
       <r>   19.4629    0.0000 </r>
       <r>   21.0782    0.0000 </r>
       <r>   21.8540    0.0000 </r>
       <r>   23.1822    0.0000 </r>
      </set>
      <set comment="kpoint 33">
       <r>   -5.2517    1.0000 </r>
       <r>    1.7668    1.0000 </r>
       <r>    3.4149    1.0000 </r>
       <r>    5.0377    1.0000 </r>
       <r>    8.4679    0.0000 </r>
       <r>    9.1330    0.0000 </r>
       <r>    9.4054    0.0000 </r>
       <r>   11.3608    0.0000 </r>
       <r>   11.8301    0.0000 </r>
       <r>   14.8112    0.0000 </r>
       <r>   15.7087    0.0000 </r>
       <r>   17.2573    0.0000 </r>
       <r>   19.0515    0.0000 </r>
       <r>   21.1219    0.0000 </r>
       <r>   21.4794    0.0000 </r>
       <r>   23.9948    0.0000 </r>
      </set>
      <set comment="kpoint 34">
       <r>   -5.5983    1.0000 </r>
       <r>    2.7276    1.0000 </r>
       <r>    3.8694    1.0000 </r>
       <r>    5.2775    1.0000 </r>
       <r>    8.5952    0.0000 </r>
       <r>    8.7995    0.0000 </r>
       <r>    9.0316    0.0000 </r>
       <r>   11.1076    0.0000 </r>
       <r>   11.9031    0.0000 </r>
       <r>   13.7782    0.0000 </r>
       <r>   15.4271    0.0000 </r>
       <r>   16.7726    0.0000 </r>
       <r>   18.0659    0.0000 </r>
       <r>   20.2841    0.0000 </r>
       <r>   22.6918    0.0000 </r>
       <r>   23.7850    0.0000 </r>
      </set>
      <set comment="kpoint 35">
       <r>   -5.5176    1.0000 </r>
       <r>    2.9783    1.0000 </r>
       <r>    4.1592    1.0000 </r>
       <r>    4.1592    1.0000 </r>
       <r>    7.0896    0.0000 </r>
       <r>    9.4661    0.0000 </r>
       <r>   10.4548    0.0000 </r>
       <r>   10.4548    0.0000 </r>
       <r>   12.5512    0.0000 </r>
       <r>   14.0892    0.0000 </r>
       <r>   15.8918    0.0000 </r>
       <r>   17.9614    0.0000 </r>
       <r>   17.9614    0.0000 </r>
       <r>   18.5759    0.0000 </r>
       <r>   24.0088    0.0000 </r>
       <r>   24.0088    0.0000 </r>
      </set>
      <set comment="kpoint 36">
       <r>   -5.2385    1.0000 </r>
       <r>    2.2126    1.0000 </r>
       <r>    3.8509    1.0000 </r>
       <r>    3.9122    1.0000 </r>
       <r>    7.0805    0.0000 </r>
       <r>    9.1122    0.0000 </r>
       <r>   10.7252    0.0000 </r>
       <r>   10.9140    0.0000 </r>
       <r>   13.4182    0.0000 </r>
       <r>   14.3493    0.0000 </r>
       <r>   16.4987    0.0000 </r>
       <r>   17.9069    0.0000 </r>
       <r>   18.5502    0.0000 </r>
       <r>   19.6646    0.0000 </r>
       <r>   22.6307    0.0000 </r>
       <r>   22.9731    0.0000 </r>
      </set>
      <set comment="kpoint 37">
       <r>   -4.8592    1.0000 </r>
       <r>    1.2838    1.0000 </r>
       <r>    3.4478    1.0000 </r>
       <r>    3.7425    1.0000 </r>
       <r>    7.2924    0.0000 </r>
       <r>    9.1291    0.0000 </r>
       <r>   10.6406    0.0000 </r>
       <r>   11.0942    0.0000 </r>
       <r>   14.6571    0.0000 </r>
       <r>   14.8363    0.0000 </r>
       <r>   16.5204    0.0000 </r>
       <r>   18.4645    0.0000 </r>
       <r>   19.0958    0.0000 </r>
       <r>   20.5924    0.0000 </r>
       <r>   21.4294    0.0000 </r>
       <r>   22.3123    0.0000 </r>
      </set>
      <set comment="kpoint 38">
       <r>   -4.3988    1.0000 </r>
       <r>    0.3499    1.0000 </r>
       <r>    3.0366    1.0000 </r>
       <r>    3.6592    1.0000 </r>
       <r>    7.4000    0.0000 </r>
       <r>    9.6828    0.0000 </r>
       <r>   10.4734    0.0000 </r>
       <r>   11.0103    0.0000 </r>
       <r>   15.6672    0.0000 </r>
       <r>   15.9008    0.0000 </r>
       <r>   16.2355    0.0000 </r>
       <r>   18.2940    0.0000 </r>
       <r>   18.9395    0.0000 </r>
       <r>   20.5917    0.0000 </r>
       <r>   21.8980    0.0000 </r>
       <r>   23.3968    0.0000 </r>
      </set>
      <set comment="kpoint 39">
       <r>   -3.9062    1.0000 </r>
       <r>   -0.4792    1.0000 </r>
       <r>    2.6819    1.0000 </r>
       <r>    3.6650    1.0000 </r>
       <r>    7.4344    0.0000 </r>
       <r>   10.3128    0.0000 </r>
       <r>   10.6433    0.0000 </r>
       <r>   10.8051    0.0000 </r>
       <r>   15.6243    0.0000 </r>
       <r>   16.5636    0.0000 </r>
       <r>   17.0523    0.0000 </r>
       <r>   17.3141    0.0000 </r>
       <r>   18.1859    0.0000 </r>
       <r>   21.7864    0.0000 </r>
       <r>   23.2503    0.0000 </r>
       <r>   23.5569    0.0000 </r>
      </set>
      <set comment="kpoint 40">
       <r>   -3.5257    1.0000 </r>
       <r>   -1.0293    1.0000 </r>
       <r>    2.4121    1.0000 </r>
       <r>    3.7585    1.0000 </r>
       <r>    7.5116    0.0000 </r>
       <r>   10.2076    0.0000 </r>
       <r>   10.5855    0.0000 </r>
       <r>   11.8164    0.0000 </r>
       <r>   14.8940    0.0000 </r>
       <r>   15.3325    0.0000 </r>
       <r>   17.3491    0.0000 </r>
       <r>   18.1231    0.0000 </r>
       <r>   18.7709    0.0000 </r>
       <r>   21.8710    0.0000 </r>
       <r>   23.8365    0.0000 </r>
       <r>   24.5192    0.0000 </r>
      </set>
      <set comment="kpoint 41">
       <r>   -3.5381    1.0000 </r>
       <r>   -1.0082    1.0000 </r>
       <r>    2.2441    1.0000 </r>
       <r>    3.9337    1.0000 </r>
       <r>    7.6716    0.0000 </r>
       <r>   10.1592    0.0000 </r>
       <r>   10.3948    0.0000 </r>
       <r>   13.1075    0.0000 </r>
       <r>   13.8813    0.0000 </r>
       <r>   14.0090    0.0000 </r>
       <r>   17.1268    0.0000 </r>
       <r>   19.5352    0.0000 </r>
       <r>   20.0212    0.0000 </r>
       <r>   20.5553    0.0000 </r>
       <r>   22.6384    0.0000 </r>
       <r>   24.9836    0.0000 </r>
      </set>
      <set comment="kpoint 42">
       <r>   -3.9295    1.0000 </r>
       <r>   -0.4365    1.0000 </r>
       <r>    2.1971    1.0000 </r>
       <r>    4.1791    1.0000 </r>
       <r>    7.9119    0.0000 </r>
       <r>   10.1651    0.0000 </r>
       <r>   10.2218    0.0000 </r>
       <r>   12.7537    0.0000 </r>
       <r>   12.8802    0.0000 </r>
       <r>   14.4465    0.0000 </r>
       <r>   17.2655    0.0000 </r>
       <r>   19.1596    0.0000 </r>
       <r>   20.4198    0.0000 </r>
       <r>   21.0082    0.0000 </r>
       <r>   21.6978    0.0000 </r>
       <r>   23.6336    0.0000 </r>
      </set>
      <set comment="kpoint 43">
       <r>   -4.4210    1.0000 </r>
       <r>    0.3697    1.0000 </r>
       <r>    2.3101    1.0000 </r>
       <r>    4.4743    1.0000 </r>
       <r>    8.2017    0.0000 </r>
       <r>    9.9829    0.0000 </r>
       <r>   10.1605    0.0000 </r>
       <r>   11.7680    0.0000 </r>
       <r>   12.0780    0.0000 </r>
       <r>   15.6066    0.0000 </r>
       <r>   17.5251    0.0000 </r>
       <r>   17.8368    0.0000 </r>
       <r>   19.2588    0.0000 </r>
       <r>   21.5539    0.0000 </r>
       <r>   22.2820    0.0000 </r>
       <r>   23.0301    0.0000 </r>
      </set>
      <set comment="kpoint 44">
       <r>   -4.8772    1.0000 </r>
       <r>    1.1667    1.0000 </r>
       <r>    2.6802    1.0000 </r>
       <r>    4.7822    1.0000 </r>
       <r>    8.4643    0.0000 </r>
       <r>    9.5799    0.0000 </r>
       <r>    9.8817    0.0000 </r>
       <r>   11.2690    0.0000 </r>
       <r>   11.7466    0.0000 </r>
       <r>   16.2129    0.0000 </r>
       <r>   16.2370    0.0000 </r>
       <r>   17.4411    0.0000 </r>
       <r>   19.2673    0.0000 </r>
       <r>   20.4198    0.0000 </r>
       <r>   22.4116    0.0000 </r>
       <r>   23.7133    0.0000 </r>
      </set>
      <set comment="kpoint 45">
       <r>   -4.9939    1.0000 </r>
       <r>    1.7991    1.0000 </r>
       <r>    3.6466    1.0000 </r>
       <r>    3.6466    1.0000 </r>
       <r>    6.6693    0.0000 </r>
       <r>    8.5081    0.0000 </r>
       <r>   11.5942    0.0000 </r>
       <r>   11.5942    0.0000 </r>
       <r>   13.8208    0.0000 </r>
       <r>   14.6816    0.0000 </r>
       <r>   17.2534    0.0000 </r>
       <r>   18.7143    0.0000 </r>
       <r>   18.7143    0.0000 </r>
       <r>   19.4847    0.0000 </r>
       <r>   22.4966    0.0000 </r>
       <r>   22.4966    0.0000 </r>
      </set>
      <set comment="kpoint 46">
       <r>   -4.6467    1.0000 </r>
       <r>    1.1198    1.0000 </r>
       <r>    3.2991    1.0000 </r>
       <r>    3.4577    1.0000 </r>
       <r>    6.7117    0.0000 </r>
       <r>    8.2056    0.0000 </r>
       <r>   11.8721    0.0000 </r>
       <r>   12.0104    0.0000 </r>
       <r>   14.8066    0.0000 </r>
       <r>   15.1359    0.0000 </r>
       <r>   17.6279    0.0000 </r>
       <r>   18.9445    0.0000 </r>
       <r>   18.9949    0.0000 </r>
       <r>   20.2601    0.0000 </r>
       <r>   21.4942    0.0000 </r>
       <r>   22.0384    0.0000 </r>
      </set>
      <set comment="kpoint 47">
       <r>   -4.2104    1.0000 </r>
       <r>    0.3601    1.0000 </r>
       <r>    2.7902    1.0000 </r>
       <r>    3.3566    1.0000 </r>
       <r>    6.9219    0.0000 </r>
       <r>    8.4034    0.0000 </r>
       <r>   11.8069    0.0000 </r>
       <r>   12.0627    0.0000 </r>
       <r>   15.9406    0.0000 </r>
       <r>   16.1116    0.0000 </r>
       <r>   17.2063    0.0000 </r>
       <r>   18.2849    0.0000 </r>
       <r>   19.5073    0.0000 </r>
       <r>   20.2587    0.0000 </r>
       <r>   21.5602    0.0000 </r>
       <r>   22.9540    0.0000 </r>
      </set>
      <set comment="kpoint 48">
       <r>   -3.7185    1.0000 </r>
       <r>   -0.3812    1.0000 </r>
       <r>    2.2896    1.0000 </r>
       <r>    3.3474    1.0000 </r>
       <r>    7.0167    0.0000 </r>
       <r>    9.1687    0.0000 </r>
       <r>   11.6625    0.0000 </r>
       <r>   11.8932    0.0000 </r>
       <r>   16.3253    0.0000 </r>
       <r>   16.7822    0.0000 </r>
       <r>   17.1379    0.0000 </r>
       <r>   17.5375    0.0000 </r>
       <r>   18.9795    0.0000 </r>
       <r>   21.3973    0.0000 </r>
       <r>   22.4667    0.0000 </r>
       <r>   24.0796    0.0000 </r>
      </set>
      <set comment="kpoint 49">
       <r>   -3.2727    1.0000 </r>
       <r>   -0.9693    1.0000 </r>
       <r>    1.8893    1.0000 </r>
       <r>    3.4299    1.0000 </r>
       <r>    7.1099    0.0000 </r>
       <r>   10.2530    0.0000 </r>
       <r>   11.5411    0.0000 </r>
       <r>   11.6558    0.0000 </r>
       <r>   15.2132    0.0000 </r>
       <r>   15.3806    0.0000 </r>
       <r>   18.3830    0.0000 </r>
       <r>   18.5465    0.0000 </r>
       <r>   18.9274    0.0000 </r>
       <r>   22.8516    0.0000 </r>
       <r>   23.1396    0.0000 </r>
       <r>   23.6936    0.0000 </r>
      </set>
      <set comment="kpoint 50">
       <r>   -3.1467    1.0000 </r>
       <r>   -1.1166    1.0000 </r>
       <r>    1.6304    1.0000 </r>
       <r>    3.5994    1.0000 </r>
       <r>    7.2836    0.0000 </r>
       <r>   11.2294    0.0000 </r>
       <r>   11.4134    0.0000 </r>
       <r>   11.7450    0.0000 </r>
       <r>   13.9714    0.0000 </r>
       <r>   14.0353    0.0000 </r>
       <r>   18.4444    0.0000 </r>
       <r>   19.8082    0.0000 </r>
       <r>   20.1622    0.0000 </r>
       <r>   22.2469    0.0000 </r>
       <r>   22.6059    0.0000 </r>
       <r>   23.3701    0.0000 </r>
      </set>
      <set comment="kpoint 51">
       <r>   -3.4706    1.0000 </r>
       <r>   -0.7107    1.0000 </r>
       <r>    1.5548    1.0000 </r>
       <r>    3.8457    1.0000 </r>
       <r>    7.5488    0.0000 </r>
       <r>   11.1340    0.0000 </r>
       <r>   11.2714    0.0000 </r>
       <r>   12.6600    0.0000 </r>
       <r>   12.9219    0.0000 </r>
       <r>   13.1197    0.0000 </r>
       <r>   18.5132    0.0000 </r>
       <r>   20.3218    0.0000 </r>
       <r>   20.8622    0.0000 </r>
       <r>   21.2600    0.0000 </r>
       <r>   21.7920    0.0000 </r>
       <r>   23.3921    0.0000 </r>
      </set>
      <set comment="kpoint 52">
       <r>   -3.9537    1.0000 </r>
       <r>   -0.1196    1.0000 </r>
       <r>    1.7466    1.0000 </r>
       <r>    4.1494    1.0000 </r>
       <r>    7.8809    0.0000 </r>
       <r>   10.6607    0.0000 </r>
       <r>   10.9980    0.0000 </r>
       <r>   11.8544    0.0000 </r>
       <r>   12.2491    0.0000 </r>
       <r>   14.4738    0.0000 </r>
       <r>   18.4462    0.0000 </r>
       <r>   19.1435    0.0000 </r>
       <r>   19.4019    0.0000 </r>
       <r>   22.2986    0.0000 </r>
       <r>   22.5159    0.0000 </r>
       <r>   22.7480    0.0000 </r>
      </set>
      <set comment="kpoint 53">
       <r>   -4.3310    1.0000 </r>
       <r>    0.6230    1.0000 </r>
       <r>    3.2468    1.0000 </r>
       <r>    3.2468    1.0000 </r>
       <r>    6.3712    0.0000 </r>
       <r>    7.6345    0.0000 </r>
       <r>   12.7864    0.0000 </r>
       <r>   12.7864    0.0000 </r>
       <r>   15.2235    0.0000 </r>
       <r>   15.4405    0.0000 </r>
       <r>   18.5299    0.0000 </r>
       <r>   18.9727    0.0000 </r>
       <r>   18.9727    0.0000 </r>
       <r>   20.6180    0.0000 </r>
       <r>   21.6614    0.0000 </r>
       <r>   21.8644    0.0000 </r>
      </set>
      <set comment="kpoint 54">
       <r>   -3.9214    1.0000 </r>
       <r>    0.0081    1.0000 </r>
       <r>    2.9030    1.0000 </r>
       <r>    3.1230    1.0000 </r>
       <r>    6.4743    0.0000 </r>
       <r>    7.4592    0.0000 </r>
       <r>   13.0879    0.0000 </r>
       <r>   13.1448    0.0000 </r>
       <r>   16.0926    0.0000 </r>
       <r>   16.2122    0.0000 </r>
       <r>   17.9722    0.0000 </r>
       <r>   18.3120    0.0000 </r>
       <r>   19.6420    0.0000 </r>
       <r>   20.7166    0.0000 </r>
       <r>   21.1039    0.0000 </r>
       <r>   22.4507    0.0000 </r>
      </set>
      <set comment="kpoint 55">
       <r>   -3.4408    1.0000 </r>
       <r>   -0.6139    1.0000 </r>
       <r>    2.3466    1.0000 </r>
       <r>    3.0921    1.0000 </r>
       <r>    6.6583    0.0000 </r>
       <r>    7.8962    0.0000 </r>
       <r>   13.0428    0.0000 </r>
       <r>   13.0944    0.0000 </r>
       <r>   16.7198    0.0000 </r>
       <r>   16.9595    0.0000 </r>
       <r>   17.1857    0.0000 </r>
       <r>   17.6143    0.0000 </r>
       <r>   20.2840    0.0000 </r>
       <r>   20.7543    0.0000 </r>
       <r>   21.2721    0.0000 </r>
       <r>   23.4475    0.0000 </r>
      </set>
      <set comment="kpoint 56">
       <r>   -2.9581    1.0000 </r>
       <r>   -1.1579    1.0000 </r>
       <r>    1.8076    1.0000 </r>
       <r>    3.1552    1.0000 </r>
       <r>    6.7640    0.0000 </r>
       <r>    8.8623    0.0000 </r>
       <r>   12.8672    0.0000 </r>
       <r>   12.9111    0.0000 </r>
       <r>   15.4250    0.0000 </r>
       <r>   15.5127    0.0000 </r>
       <r>   18.5206    0.0000 </r>
       <r>   18.9316    0.0000 </r>
       <r>   20.1072    0.0000 </r>
       <r>   21.5354    0.0000 </r>
       <r>   21.7595    0.0000 </r>
       <r>   23.9090    0.0000 </r>
      </set>
      <set comment="kpoint 57">
       <r>   -2.7269    1.0000 </r>
       <r>   -1.3873    1.0000 </r>
       <r>    1.4250    1.0000 </r>
       <r>    3.3089    1.0000 </r>
       <r>    6.9338    0.0000 </r>
       <r>   10.0801    0.0000 </r>
       <r>   12.5572    0.0000 </r>
       <r>   12.7835    0.0000 </r>
       <r>   14.0665    0.0000 </r>
       <r>   14.1943    0.0000 </r>
       <r>   19.9425    0.0000 </r>
       <r>   19.9728    0.0000 </r>
       <r>   20.2187    0.0000 </r>
       <r>   21.7098    0.0000 </r>
       <r>   22.0658    0.0000 </r>
       <r>   22.8369    0.0000 </r>
      </set>
      <set comment="kpoint 58">
       <r>   -3.0043    1.0000 </r>
       <r>   -1.0999    1.0000 </r>
       <r>    1.3032    1.0000 </r>
       <r>    3.5448    1.0000 </r>
       <r>    7.2010    0.0000 </r>
       <r>   11.3899    0.0000 </r>
       <r>   12.0221    0.0000 </r>
       <r>   12.5835    0.0000 </r>
       <r>   12.9077    0.0000 </r>
       <r>   13.2678    0.0000 </r>
       <r>   19.8504    0.0000 </r>
       <r>   20.4256    0.0000 </r>
       <r>   21.0752    0.0000 </r>
       <r>   21.1862    0.0000 </r>
       <r>   22.0382    0.0000 </r>
       <r>   22.9700    0.0000 </r>
      </set>
      <set comment="kpoint 59">
       <r>   -3.5379    1.0000 </r>
       <r>   -0.5237    1.0000 </r>
       <r>    2.9745    1.0000 </r>
       <r>    2.9745    1.0000 </r>
       <r>    6.2306    0.0000 </r>
       <r>    6.9623    0.0000 </r>
       <r>   14.0138    0.0000 </r>
       <r>   14.0138    0.0000 </r>
       <r>   16.3658    0.0000 </r>
       <r>   16.6011    0.0000 </r>
       <r>   18.0772    0.0000 </r>
       <r>   18.0772    0.0000 </r>
       <r>   19.2111    0.0000 </r>
       <r>   20.1086    0.0000 </r>
       <r>   22.0010    0.0000 </r>
       <r>   22.7736    0.0000 </r>
      </set>
      <set comment="kpoint 60">
       <r>   -3.0743    1.0000 </r>
       <r>   -1.0835    1.0000 </r>
       <r>    2.6656    1.0000 </r>
       <r>    2.9188    1.0000 </r>
       <r>    6.3866    0.0000 </r>
       <r>    6.9425    0.0000 </r>
       <r>   14.3072    0.0000 </r>
       <r>   14.3318    0.0000 </r>
       <r>   16.9409    0.0000 </r>
       <r>   17.0568    0.0000 </r>
       <r>   17.2107    0.0000 </r>
       <r>   17.6535    0.0000 </r>
       <r>   19.6142    0.0000 </r>
       <r>   19.8008    0.0000 </r>
       <r>   22.1102    0.0000 </r>
       <r>   23.6862    0.0000 </r>
      </set>
      <set comment="kpoint 61">
       <r>   -2.5759    1.0000 </r>
       <r>   -1.5920    1.0000 </r>
       <r>    2.1280    1.0000 </r>
       <r>    2.9581    1.0000 </r>
       <r>    6.5218    0.0000 </r>
       <r>    7.6417    0.0000 </r>
       <r>   14.1430    0.0000 </r>
       <r>   14.3033    0.0000 </r>
       <r>   15.6094    0.0000 </r>
       <r>   15.7247    0.0000 </r>
       <r>   18.5101    0.0000 </r>
       <r>   18.8244    0.0000 </r>
       <r>   19.9160    0.0000 </r>
       <r>   20.2611    0.0000 </r>
       <r>   22.0016    0.0000 </r>
       <r>   23.8433    0.0000 </r>
      </set>
      <set comment="kpoint 62">
       <r>   -2.3627    1.0000 </r>
       <r>   -1.7595    1.0000 </r>
       <r>    1.6446    1.0000 </r>
       <r>    3.0904    1.0000 </r>
       <r>    6.6765    0.0000 </r>
       <r>    8.7617    0.0000 </r>
       <r>   13.6108    0.0000 </r>
       <r>   14.1846    0.0000 </r>
       <r>   14.1849    0.0000 </r>
       <r>   14.6426    0.0000 </r>
       <r>   19.7039    0.0000 </r>
       <r>   19.8660    0.0000 </r>
       <r>   20.2033    0.0000 </r>
       <r>   21.2053    0.0000 </r>
       <r>   21.7674    0.0000 </r>
       <r>   22.3196    0.0000 </r>
      </set>
      <set comment="kpoint 63">
       <r>   -2.6271    1.0000 </r>
       <r>   -1.6153    1.0000 </r>
       <r>    2.8369    1.0000 </r>
       <r>    2.8369    1.0000 </r>
       <r>    6.2707    0.0000 </r>
       <r>    6.5098    0.0000 </r>
       <r>   15.2122    0.0000 </r>
       <r>   15.2122    0.0000 </r>
       <r>   16.8658    0.0000 </r>
       <r>   16.8658    0.0000 </r>
       <r>   17.4547    0.0000 </r>
       <r>   17.8632    0.0000 </r>
       <r>   18.7039    0.0000 </r>
       <r>   18.8621    0.0000 </r>
       <r>   23.5654    0.0000 </r>
       <r>   24.4108    0.0000 </r>
      </set>
      <set comment="kpoint 64">
       <r>   -2.1504    1.0000 </r>
       <r>   -2.0911    1.0000 </r>
       <r>    2.5866    1.0000 </r>
       <r>    2.8502    1.0000 </r>
       <r>    6.3996    0.0000 </r>
       <r>    6.7264    0.0000 </r>
       <r>   15.1871    0.0000 </r>
       <r>   15.3317    0.0000 </r>
       <r>   16.0065    0.0000 </r>
       <r>   16.1281    0.0000 </r>
       <r>   18.4453    0.0000 </r>
       <r>   18.4478    0.0000 </r>
       <r>   18.6220    0.0000 </r>
       <r>   18.9903    0.0000 </r>
       <r>   23.6753    0.0000 </r>
       <r>   23.9234    0.0000 </r>
      </set>
      <set comment="kpoint 65">
       <r>   -5.8211    1.0000 </r>
       <r>    3.5542    1.0000 </r>
       <r>    4.4587    1.0000 </r>
       <r>    5.1436    1.0000 </r>
       <r>    7.9753    0.0000 </r>
       <r>    8.8746    0.0000 </r>
       <r>    9.2690    0.0000 </r>
       <r>   10.4898    0.0000 </r>
       <r>   12.1720    0.0000 </r>
       <r>   13.4449    0.0000 </r>
       <r>   14.8930    0.0000 </r>
       <r>   16.8152    0.0000 </r>
       <r>   17.5132    0.0000 </r>
       <r>   18.9167    0.0000 </r>
       <r>   23.1214    0.0000 </r>
       <r>   24.4725    0.0000 </r>
      </set>
      <set comment="kpoint 66">
       <r>   -5.5420    1.0000 </r>
       <r>    2.5435    1.0000 </r>
       <r>    4.0218    1.0000 </r>
       <r>    4.9655    1.0000 </r>
       <r>    8.1591    0.0000 </r>
       <r>    8.8668    0.0000 </r>
       <r>    9.6592    0.0000 </r>
       <r>   10.7210    0.0000 </r>
       <r>   12.4330    0.0000 </r>
       <r>   13.7918    0.0000 </r>
       <r>   15.4399    0.0000 </r>
       <r>   16.8881    0.0000 </r>
       <r>   18.3900    0.0000 </r>
       <r>   20.1451    0.0000 </r>
       <r>   22.7237    0.0000 </r>
       <r>   23.9970    0.0000 </r>
      </set>
      <set comment="kpoint 67">
       <r>   -5.1624    1.0000 </r>
       <r>    1.4367    1.0000 </r>
       <r>    3.7476    1.0000 </r>
       <r>    4.7129    1.0000 </r>
       <r>    8.1920    0.0000 </r>
       <r>    8.9191    0.0000 </r>
       <r>    9.8557    0.0000 </r>
       <r>   10.9565    0.0000 </r>
       <r>   12.9354    0.0000 </r>
       <r>   14.6697    0.0000 </r>
       <r>   15.3424    0.0000 </r>
       <r>   17.7531    0.0000 </r>
       <r>   19.4027    0.0000 </r>
       <r>   21.1835    0.0000 </r>
       <r>   21.4109    0.0000 </r>
       <r>   23.3310    0.0000 </r>
      </set>
      <set comment="kpoint 68">
       <r>   -4.7018    1.0000 </r>
       <r>    0.3868    1.0000 </r>
       <r>    3.5715    1.0000 </r>
       <r>    4.4664    1.0000 </r>
       <r>    8.0824    0.0000 </r>
       <r>    8.9254    0.0000 </r>
       <r>    9.8318    0.0000 </r>
       <r>   11.5733    0.0000 </r>
       <r>   13.6749    0.0000 </r>
       <r>   15.0553    0.0000 </r>
       <r>   15.8143    0.0000 </r>
       <r>   18.2809    0.0000 </r>
       <r>   19.5385    0.0000 </r>
       <r>   20.8739    0.0000 </r>
       <r>   21.8977    0.0000 </r>
       <r>   23.0326    0.0000 </r>
      </set>
      <set comment="kpoint 69">
       <r>   -4.2104    1.0000 </r>
       <r>   -0.5116    1.0000 </r>
       <r>    3.4707    1.0000 </r>
       <r>    4.2739    1.0000 </r>
       <r>    7.9753    0.0000 </r>
       <r>    8.8536    0.0000 </r>
       <r>    9.7345    0.0000 </r>
       <r>   12.4892    0.0000 </r>
       <r>   14.3600    0.0000 </r>
       <r>   15.0721    0.0000 </r>
       <r>   17.0414    0.0000 </r>
       <r>   17.1958    0.0000 </r>
       <r>   19.0609    0.0000 </r>
       <r>   20.7728    0.0000 </r>
       <r>   22.3357    0.0000 </r>
       <r>   23.6786    0.0000 </r>
      </set>
      <set comment="kpoint 70">
       <r>   -3.8302    1.0000 </r>
       <r>   -1.0987    1.0000 </r>
       <r>    3.4273    1.0000 </r>
       <r>    4.1676    1.0000 </r>
       <r>    7.9165    0.0000 </r>
       <r>    8.7957    0.0000 </r>
       <r>    9.6645    0.0000 </r>
       <r>   13.4460    0.0000 </r>
       <r>   14.3559    0.0000 </r>
       <r>   15.4743    0.0000 </r>
       <r>   16.6262    0.0000 </r>
       <r>   17.6561    0.0000 </r>
       <r>   18.4482    0.0000 </r>
       <r>   19.8106    0.0000 </r>
       <r>   23.7571    0.0000 </r>
       <r>   25.3493    0.0000 </r>
      </set>
      <set comment="kpoint 71">
       <r>   -5.4455    1.0000 </r>
       <r>    2.5888    1.0000 </r>
       <r>    3.8644    1.0000 </r>
       <r>    4.4527    1.0000 </r>
       <r>    7.5138    0.0000 </r>
       <r>    9.4845    0.0000 </r>
       <r>   10.1453    0.0000 </r>
       <r>   10.3508    0.0000 </r>
       <r>   12.8531    0.0000 </r>
       <r>   14.0692    0.0000 </r>
       <r>   15.9487    0.0000 </r>
       <r>   17.3426    0.0000 </r>
       <r>   18.2234    0.0000 </r>
       <r>   19.7438    0.0000 </r>
       <r>   22.7344    0.0000 </r>
       <r>   24.0525    0.0000 </r>
      </set>
      <set comment="kpoint 72">
       <r>   -5.0987    1.0000 </r>
       <r>    1.6804    1.0000 </r>
       <r>    3.4262    1.0000 </r>
       <r>    4.2528    1.0000 </r>
       <r>    7.7461    0.0000 </r>
       <r>    9.4734    0.0000 </r>
       <r>    9.9968    0.0000 </r>
       <r>   10.7206    0.0000 </r>
       <r>   13.4545    0.0000 </r>
       <r>   14.8720    0.0000 </r>
       <r>   16.2363    0.0000 </r>
       <r>   17.6962    0.0000 </r>
       <r>   19.0785    0.0000 </r>
       <r>   20.8389    0.0000 </r>
       <r>   21.2618    0.0000 </r>
       <r>   23.2237    0.0000 </r>
      </set>
      <set comment="kpoint 73">
       <r>   -4.6626    1.0000 </r>
       <r>    0.7022    1.0000 </r>
       <r>    3.1300    1.0000 </r>
       <r>    4.0206    1.0000 </r>
       <r>    7.8981    0.0000 </r>
       <r>    9.5876    0.0000 </r>
       <r>   10.0853    0.0000 </r>
       <r>   10.8216    0.0000 </r>
       <r>   14.1827    0.0000 </r>
       <r>   15.9386    0.0000 </r>
       <r>   16.0534    0.0000 </r>
       <r>   18.1978    0.0000 </r>
       <r>   19.3879    0.0000 </r>
       <r>   20.6726    0.0000 </r>
       <r>   21.4535    0.0000 </r>
       <r>   23.3853    0.0000 </r>
      </set>
      <set comment="kpoint 74">
       <r>   -4.1721    1.0000 </r>
       <r>   -0.2054    1.0000 </r>
       <r>    2.9111    1.0000 </r>
       <r>    3.8531    1.0000 </r>
       <r>    7.9320    0.0000 </r>
       <r>    9.4049    0.0000 </r>
       <r>   10.7020    0.0000 </r>
       <r>   10.9458    0.0000 </r>
       <r>   15.0687    0.0000 </r>
       <r>   15.5258    0.0000 </r>
       <r>   17.3094    0.0000 </r>
       <r>   17.3422    0.0000 </r>
       <r>   19.0196    0.0000 </r>
       <r>   21.0608    0.0000 </r>
       <r>   22.7003    0.0000 </r>
       <r>   23.4648    0.0000 </r>
      </set>
      <set comment="kpoint 75">
       <r>   -3.7271    1.0000 </r>
       <r>   -0.8980    1.0000 </r>
       <r>    2.7437    1.0000 </r>
       <r>    3.7957    1.0000 </r>
       <r>    7.9742    0.0000 </r>
       <r>    9.2158    0.0000 </r>
       <r>   10.6256    0.0000 </r>
       <r>   12.0198    0.0000 </r>
       <r>   14.6331    0.0000 </r>
       <r>   15.8619    0.0000 </r>
       <r>   16.8674    0.0000 </r>
       <r>   17.8228    0.0000 </r>
       <r>   18.7197    0.0000 </r>
       <r>   21.5254    0.0000 </r>
       <r>   23.0656    0.0000 </r>
       <r>   24.5745    0.0000 </r>
      </set>
      <set comment="kpoint 76">
       <r>   -3.5764    1.0000 </r>
       <r>   -1.1091    1.0000 </r>
       <r>    2.6309    1.0000 </r>
       <r>    3.8555    1.0000 </r>
       <r>    8.0802    0.0000 </r>
       <r>    9.0842    0.0000 </r>
       <r>   10.5536    0.0000 </r>
       <r>   13.2444    0.0000 </r>
       <r>   13.5248    0.0000 </r>
       <r>   15.3992    0.0000 </r>
       <r>   16.8863    0.0000 </r>
       <r>   18.0245    0.0000 </r>
       <r>   20.0290    0.0000 </r>
       <r>   20.3069    0.0000 </r>
       <r>   23.6838    0.0000 </r>
       <r>   24.6876    0.0000 </r>
      </set>
      <set comment="kpoint 77">
       <r>   -3.8661    1.0000 </r>
       <r>   -0.6900    1.0000 </r>
       <r>    2.5911    1.0000 </r>
       <r>    4.0177    1.0000 </r>
       <r>    8.2537    0.0000 </r>
       <r>    9.0221    0.0000 </r>
       <r>   10.5232    0.0000 </r>
       <r>   12.3624    0.0000 </r>
       <r>   14.3973    0.0000 </r>
       <r>   14.5296    0.0000 </r>
       <r>   16.8366    0.0000 </r>
       <r>   18.9114    0.0000 </r>
       <r>   19.3451    0.0000 </r>
       <r>   21.1121    0.0000 </r>
       <r>   22.1751    0.0000 </r>
       <r>   24.1538    0.0000 </r>
      </set>
      <set comment="kpoint 78">
       <r>   -4.3458    1.0000 </r>
       <r>    0.0967    1.0000 </r>
       <r>    2.6490    1.0000 </r>
       <r>    4.2578    1.0000 </r>
       <r>    8.4681    0.0000 </r>
       <r>    9.0058    0.0000 </r>
       <r>   10.4966    0.0000 </r>
       <r>   11.3610    0.0000 </r>
       <r>   13.4620    0.0000 </r>
       <r>   15.4493    0.0000 </r>
       <r>   17.3586    0.0000 </r>
       <r>   17.5851    0.0000 </r>
       <r>   19.8523    0.0000 </r>
       <r>   20.9160    0.0000 </r>
       <r>   22.0976    0.0000 </r>
       <r>   23.2461    0.0000 </r>
      </set>
      <set comment="kpoint 79">
       <r>   -4.8233    1.0000 </r>
       <r>    1.0176    1.0000 </r>
       <r>    2.8453    1.0000 </r>
       <r>    4.5406    1.0000 </r>
       <r>    8.6531    0.0000 </r>
       <r>    8.9360    0.0000 </r>
       <r>   10.3829    0.0000 </r>
       <r>   10.6954    0.0000 </r>
       <r>   12.7261    0.0000 </r>
       <r>   16.0070    0.0000 </r>
       <r>   16.2391    0.0000 </r>
       <r>   17.7080    0.0000 </r>
       <r>   19.3369    0.0000 </r>
       <r>   20.6281    0.0000 </r>
       <r>   21.8826    0.0000 </r>
       <r>   23.7610    0.0000 </r>
      </set>
      <set comment="kpoint 80">
       <r>   -5.2304    1.0000 </r>
       <r>    1.8920    1.0000 </r>
       <r>    3.2725    1.0000 </r>
       <r>    4.8082    1.0000 </r>
       <r>    8.4886    0.0000 </r>
       <r>    8.9252    0.0000 </r>
       <r>   10.0860    0.0000 </r>
       <r>   10.5104    0.0000 </r>
       <r>   12.4372    0.0000 </r>
       <r>   14.8877    0.0000 </r>
       <r>   16.1069    0.0000 </r>
       <r>   17.1561    0.0000 </r>
       <r>   18.9088    0.0000 </r>
       <r>   21.0909    0.0000 </r>
       <r>   21.2813    0.0000 </r>
       <r>   24.0918    0.0000 </r>
      </set>
      <set comment="kpoint 81">
       <r>   -4.9258    1.0000 </r>
       <r>    1.5717    1.0000 </r>
       <r>    3.3549    1.0000 </r>
       <r>    3.7850    1.0000 </r>
       <r>    7.1036    0.0000 </r>
       <r>    8.7711    0.0000 </r>
       <r>   10.8925    0.0000 </r>
       <r>   11.5273    0.0000 </r>
       <r>   14.0262    0.0000 </r>
       <r>   14.9905    0.0000 </r>
       <r>   17.0513    0.0000 </r>
       <r>   18.1256    0.0000 </r>
       <r>   19.0635    0.0000 </r>
       <r>   20.3831    0.0000 </r>
       <r>   21.3390    0.0000 </r>
       <r>   22.7935    0.0000 </r>
      </set>
      <set comment="kpoint 82">
       <r>   -4.5179    1.0000 </r>
       <r>    0.7917    1.0000 </r>
       <r>    2.9063    1.0000 </r>
       <r>    3.5798    1.0000 </r>
       <r>    7.3669    0.0000 </r>
       <r>    8.8222    0.0000 </r>
       <r>   10.7406    0.0000 </r>
       <r>   11.8752    0.0000 </r>
       <r>   14.6469    0.0000 </r>
       <r>   16.1746    0.0000 </r>
       <r>   16.8990    0.0000 </r>
       <r>   18.3837    0.0000 </r>
       <r>   19.4145    0.0000 </r>
       <r>   20.4386    0.0000 </r>
       <r>   21.1303    0.0000 </r>
       <r>   23.0494    0.0000 </r>
      </set>
      <set comment="kpoint 83">
       <r>   -4.0394    1.0000 </r>
       <r>   -0.0184    1.0000 </r>
       <r>    2.5159    1.0000 </r>
       <r>    3.4316    1.0000 </r>
       <r>    7.5102    0.0000 </r>
       <r>    9.4414    0.0000 </r>
       <r>   10.5100    0.0000 </r>
       <r>   11.9033    0.0000 </r>
       <r>   15.5679    0.0000 </r>
       <r>   16.0974    0.0000 </r>
       <r>   17.5269    0.0000 </r>
       <r>   17.7473    0.0000 </r>
       <r>   19.2191    0.0000 </r>
       <r>   20.6435    0.0000 </r>
       <r>   22.3145    0.0000 </r>
       <r>   23.6845    0.0000 </r>
      </set>
      <set comment="kpoint 84">
       <r>   -3.5584    1.0000 </r>
       <r>   -0.7266    1.0000 </r>
       <r>    2.1928    1.0000 </r>
       <r>    3.4006    1.0000 </r>
       <r>    7.5890    0.0000 </r>
       <r>   10.1949    0.0000 </r>
       <r>   10.5427    0.0000 </r>
       <r>   11.8048    0.0000 </r>
       <r>   14.9010    0.0000 </r>
       <r>   16.4403    0.0000 </r>
       <r>   17.1235    0.0000 </r>
       <r>   18.3928    0.0000 </r>
       <r>   18.9118    0.0000 </r>
       <r>   22.0323    0.0000 </r>
       <r>   23.3559    0.0000 </r>
       <r>   23.9172    0.0000 </r>
      </set>
      <set comment="kpoint 85">
       <r>   -3.2773    1.0000 </r>
       <r>   -1.0958    1.0000 </r>
       <r>    1.9606    1.0000 </r>
       <r>    3.4860    1.0000 </r>
       <r>    7.7228    0.0000 </r>
       <r>   10.0457    0.0000 </r>
       <r>   11.6475    0.0000 </r>
       <r>   11.7657    0.0000 </r>
       <r>   13.5971    0.0000 </r>
       <r>   15.5982    0.0000 </r>
       <r>   17.7632    0.0000 </r>
       <r>   18.3860    0.0000 </r>
       <r>   20.2773    0.0000 </r>
       <r>   22.1682    0.0000 </r>
       <r>   23.2706    0.0000 </r>
       <r>   23.6321    0.0000 </r>
      </set>
      <set comment="kpoint 86">
       <r>   -3.4539    1.0000 </r>
       <r>   -0.8606    1.0000 </r>
       <r>    1.8471    1.0000 </r>
       <r>    3.6722    1.0000 </r>
       <r>    7.9412    0.0000 </r>
       <r>    9.8990    0.0000 </r>
       <r>   11.5718    0.0000 </r>
       <r>   12.3194    0.0000 </r>
       <r>   13.1230    0.0000 </r>
       <r>   14.4305    0.0000 </r>
       <r>   17.8402    0.0000 </r>
       <r>   19.5990    0.0000 </r>
       <r>   20.7766    0.0000 </r>
       <r>   21.2765    0.0000 </r>
       <r>   22.0042    0.0000 </r>
       <r>   23.8212    0.0000 </r>
      </set>
      <set comment="kpoint 87">
       <r>   -3.9084    1.0000 </r>
       <r>   -0.2286    1.0000 </r>
       <r>    1.8959    1.0000 </r>
       <r>    3.9374    1.0000 </r>
       <r>    8.2332    0.0000 </r>
       <r>    9.7482    0.0000 </r>
       <r>   11.1861    0.0000 </r>
       <r>   11.5321    0.0000 </r>
       <r>   13.3903    0.0000 </r>
       <r>   14.5079    0.0000 </r>
       <r>   18.0147    0.0000 </r>
       <r>   19.3040    0.0000 </r>
       <r>   19.7967    0.0000 </r>
       <r>   21.0299    0.0000 </r>
       <r>   22.8059    0.0000 </r>
       <r>   23.1487    0.0000 </r>
      </set>
      <set comment="kpoint 88">
       <r>   -4.3948    1.0000 </r>
       <r>    0.4656    1.0000 </r>
       <r>    2.1964    1.0000 </r>
       <r>    4.2473    1.0000 </r>
       <r>    8.5532    0.0000 </r>
       <r>    9.3863    0.0000 </r>
       <r>   10.6457    0.0000 </r>
       <r>   11.1037    0.0000 </r>
       <r>   12.7911    0.0000 </r>
       <r>   15.7524    0.0000 </r>
       <r>   17.6754    0.0000 </r>
       <r>   18.0872    0.0000 </r>
       <r>   18.9589    0.0000 </r>
       <r>   21.5017    0.0000 </r>
       <r>   21.8836    0.0000 </r>
       <r>   23.8488    0.0000 </r>
      </set>
      <set comment="kpoint 89">
       <r>   -4.2692    1.0000 </r>
       <r>    0.5123    1.0000 </r>
       <r>    2.9662    1.0000 </r>
       <r>    3.2488    1.0000 </r>
       <r>    6.8062    0.0000 </r>
       <r>    7.9439    0.0000 </r>
       <r>   11.9449    0.0000 </r>
       <r>   12.7546    0.0000 </r>
       <r>   15.2050    0.0000 </r>
       <r>   16.1741    0.0000 </r>
       <r>   17.5981    0.0000 </r>
       <r>   18.8372    0.0000 </r>
       <r>   19.4358    0.0000 </r>
       <r>   20.3267    0.0000 </r>
       <r>   21.1953    0.0000 </r>
       <r>   22.5848    0.0000 </r>
      </set>
      <set comment="kpoint 90">
       <r>   -3.8101    1.0000 </r>
       <r>   -0.1446    1.0000 </r>
       <r>    2.4928    1.0000 </r>
       <r>    3.0866    1.0000 </r>
       <r>    7.0848    0.0000 </r>
       <r>    8.1813    0.0000 </r>
       <r>   11.7549    0.0000 </r>
       <r>   13.0921    0.0000 </r>
       <r>   15.9107    0.0000 </r>
       <r>   16.5011    0.0000 </r>
       <r>   17.5448    0.0000 </r>
       <r>   18.2719    0.0000 </r>
       <r>   19.9510    0.0000 </r>
       <r>   20.1077    0.0000 </r>
       <r>   21.9567    0.0000 </r>
       <r>   22.5662    0.0000 </r>
      </set>
      <set comment="kpoint 91">
       <r>   -3.3151    1.0000 </r>
       <r>   -0.7721    1.0000 </r>
       <r>    1.9997    1.0000 </r>
       <r>    3.0586    1.0000 </r>
       <r>    7.2122    0.0000 </r>
       <r>    9.0236    0.0000 </r>
       <r>   11.5134    0.0000 </r>
       <r>   13.0823    0.0000 </r>
       <r>   15.1139    0.0000 </r>
       <r>   16.7939    0.0000 </r>
       <r>   17.3191    0.0000 </r>
       <r>   18.9778    0.0000 </r>
       <r>   19.5778    0.0000 </r>
       <r>   21.1441    0.0000 </r>
       <r>   22.6783    0.0000 </r>
       <r>   23.3559    0.0000 </r>
      </set>
      <set comment="kpoint 92">
       <r>   -2.9364    1.0000 </r>
       <r>   -1.2044    1.0000 </r>
       <r>    1.6163    1.0000 </r>
       <r>    3.1477    1.0000 </r>
       <r>    7.3487    0.0000 </r>
       <r>   10.1620    0.0000 </r>
       <r>   11.3027    0.0000 </r>
       <r>   12.9415    0.0000 </r>
       <r>   13.7366    0.0000 </r>
       <r>   15.7149    0.0000 </r>
       <r>   18.3855    0.0000 </r>
       <r>   19.3574    0.0000 </r>
       <r>   20.3970    0.0000 </r>
       <r>   21.8768    0.0000 </r>
       <r>   23.1539    0.0000 </r>
       <r>   23.5536    0.0000 </r>
      </set>
      <set comment="kpoint 93">
       <r>   -3.0012    1.0000 </r>
       <r>   -1.1234    1.0000 </r>
       <r>    1.4155    1.0000 </r>
       <r>    3.3382    1.0000 </r>
       <r>    7.5704    0.0000 </r>
       <r>   10.9371    0.0000 </r>
       <r>   11.6213    0.0000 </r>
       <r>   12.3439    0.0000 </r>
       <r>   12.8887    0.0000 </r>
       <r>   14.4892    0.0000 </r>
       <r>   19.2823    0.0000 </r>
       <r>   19.7260    0.0000 </r>
       <r>   21.1851    0.0000 </r>
       <r>   21.5978    0.0000 </r>
       <r>   22.4857    0.0000 </r>
       <r>   22.8511    0.0000 </r>
      </set>
      <set comment="kpoint 94">
       <r>   -3.4247    1.0000 </r>
       <r>   -0.6684    1.0000 </r>
       <r>    1.4772    1.0000 </r>
       <r>    3.6115    1.0000 </r>
       <r>    7.8776    0.0000 </r>
       <r>   10.5957    0.0000 </r>
       <r>   11.4476    0.0000 </r>
       <r>   12.3266    0.0000 </r>
       <r>   13.1105    0.0000 </r>
       <r>   13.6256    0.0000 </r>
       <r>   19.2130    0.0000 </r>
       <r>   19.7826    0.0000 </r>
       <r>   20.5419    0.0000 </r>
       <r>   21.2521    0.0000 </r>
       <r>   22.5648    0.0000 </r>
       <r>   22.9678    0.0000 </r>
      </set>
      <set comment="kpoint 95">
       <r>   -3.4861    1.0000 </r>
       <r>   -0.5601    1.0000 </r>
       <r>    2.7152    1.0000 </r>
       <r>    2.8738    1.0000 </r>
       <r>    6.6570    0.0000 </r>
       <r>    7.3110    0.0000 </r>
       <r>   13.0613    0.0000 </r>
       <r>   14.0080    0.0000 </r>
       <r>   16.3708    0.0000 </r>
       <r>   16.8202    0.0000 </r>
       <r>   17.4251    0.0000 </r>
       <r>   18.2187    0.0000 </r>
       <r>   19.5678    0.0000 </r>
       <r>   20.9994    0.0000 </r>
       <r>   21.1446    0.0000 </r>
       <r>   22.5567    0.0000 </r>
      </set>
      <set comment="kpoint 96">
       <r>   -2.9924    1.0000 </r>
       <r>   -1.1131    1.0000 </r>
       <r>    2.2248    1.0000 </r>
       <r>    2.8018    1.0000 </r>
       <r>    6.9180    0.0000 </r>
       <r>    7.7802    0.0000 </r>
       <r>   12.8468    0.0000 </r>
       <r>   14.3084    0.0000 </r>
       <r>   15.3805    0.0000 </r>
       <r>   16.9091    0.0000 </r>
       <r>   17.4484    0.0000 </r>
       <r>   18.9511    0.0000 </r>
       <r>   19.8289    0.0000 </r>
       <r>   21.1395    0.0000 </r>
       <r>   21.4700    0.0000 </r>
       <r>   23.2817    0.0000 </r>
      </set>
      <set comment="kpoint 97">
       <r>   -2.5522    1.0000 </r>
       <r>   -1.5457    1.0000 </r>
       <r>    1.7133    1.0000 </r>
       <r>    2.8823    1.0000 </r>
       <r>    7.0539    0.0000 </r>
       <r>    8.8187    0.0000 </r>
       <r>   12.5951    0.0000 </r>
       <r>   13.7752    0.0000 </r>
       <r>   14.4077    0.0000 </r>
       <r>   15.8156    0.0000 </r>
       <r>   18.4855    0.0000 </r>
       <r>   19.9414    0.0000 </r>
       <r>   20.5932    0.0000 </r>
       <r>   21.1093    0.0000 </r>
       <r>   22.0555    0.0000 </r>
       <r>   23.0634    0.0000 </r>
      </set>
      <set comment="kpoint 98">
       <r>   -2.5841    1.0000 </r>
       <r>   -1.4887    1.0000 </r>
       <r>    1.3956    1.0000 </r>
       <r>    3.0664    1.0000 </r>
       <r>    7.2651    0.0000 </r>
       <r>   10.0823    0.0000 </r>
       <r>   12.1915    0.0000 </r>
       <r>   12.6643    0.0000 </r>
       <r>   13.9225    0.0000 </r>
       <r>   14.7989    0.0000 </r>
       <r>   19.4667    0.0000 </r>
       <r>   20.5607    0.0000 </r>
       <r>   20.7085    0.0000 </r>
       <r>   21.5905    0.0000 </r>
       <r>   21.7039    0.0000 </r>
       <r>   22.9801    0.0000 </r>
      </set>
      <set comment="kpoint 99">
       <r>   -2.5917    1.0000 </r>
       <r>   -1.6068    1.0000 </r>
       <r>    2.6117    1.0000 </r>
       <r>    2.6627    1.0000 </r>
       <r>    6.6795    0.0000 </r>
       <r>    6.8923    0.0000 </r>
       <r>   14.2253    0.0000 </r>
       <r>   15.0749    0.0000 </r>
       <r>   15.8240    0.0000 </r>
       <r>   16.7288    0.0000 </r>
       <r>   17.6557    0.0000 </r>
       <r>   18.8157    0.0000 </r>
       <r>   18.8479    0.0000 </r>
       <r>   20.0005    0.0000 </r>
       <r>   22.7253    0.0000 </r>
       <r>   23.8818    0.0000 </r>
      </set>
      <set comment="kpoint 100">
       <r>   -2.1747    1.0000 </r>
       <r>   -1.9846    1.0000 </r>
       <r>    2.1325    1.0000 </r>
       <r>    2.7097    1.0000 </r>
       <r>    6.8643    0.0000 </r>
       <r>    7.6435    0.0000 </r>
       <r>   13.9151    0.0000 </r>
       <r>   14.0978    0.0000 </r>
       <r>   15.5646    0.0000 </r>
       <r>   15.9592    0.0000 </r>
       <r>   18.3722    0.0000 </r>
       <r>   18.8482    0.0000 </r>
       <r>   20.1288    0.0000 </r>
       <r>   20.5360    0.0000 </r>
       <r>   22.7410    0.0000 </r>
       <r>   23.0923    0.0000 </r>
      </set>
      <set comment="kpoint 101">
       <r>   -4.7236    1.0000 </r>
       <r>    1.0594    1.0000 </r>
       <r>    2.7711    1.0000 </r>
       <r>    4.0523    1.0000 </r>
       <r>    8.1128    0.0000 </r>
       <r>    9.4539    0.0000 </r>
       <r>    9.7451    0.0000 </r>
       <r>   11.3463    0.0000 </r>
       <r>   13.5328    0.0000 </r>
       <r>   16.2408    0.0000 </r>
       <r>   16.6037    0.0000 </r>
       <r>   17.8349    0.0000 </r>
       <r>   19.3489    0.0000 </r>
       <r>   20.6086    0.0000 </r>
       <r>   21.3053    0.0000 </r>
       <r>   23.7517    0.0000 </r>
      </set>
      <set comment="kpoint 102">
       <r>   -4.2667    1.0000 </r>
       <r>    0.2959    1.0000 </r>
       <r>    2.3768    1.0000 </r>
       <r>    3.7771    1.0000 </r>
       <r>    8.4327    0.0000 </r>
       <r>    9.4027    0.0000 </r>
       <r>    9.8857    0.0000 </r>
       <r>   11.7049    0.0000 </r>
       <r>   14.0461    0.0000 </r>
       <r>   15.8730    0.0000 </r>
       <r>   17.6547    0.0000 </r>
       <r>   17.9933    0.0000 </r>
       <r>   19.5080    0.0000 </r>
       <r>   20.6541    0.0000 </r>
       <r>   21.8359    0.0000 </r>
       <r>   23.8773    0.0000 </r>
      </set>
      <set comment="kpoint 103">
       <r>   -3.7744    1.0000 </r>
       <r>   -0.4674    1.0000 </r>
       <r>    2.1784    1.0000 </r>
       <r>    3.5409    1.0000 </r>
       <r>    8.5607    0.0000 </r>
       <r>    9.1094    0.0000 </r>
       <r>   10.7807    0.0000 </r>
       <r>   11.7875    0.0000 </r>
       <r>   14.6347    0.0000 </r>
       <r>   14.9810    0.0000 </r>
       <r>   17.5860    0.0000 </r>
       <r>   19.1016    0.0000 </r>
       <r>   19.3577    0.0000 </r>
       <r>   20.9748    0.0000 </r>
       <r>   23.1455    0.0000 </r>
       <r>   23.4401    0.0000 </r>
      </set>
      <set comment="kpoint 104">
       <r>   -3.3845    1.0000 </r>
       <r>   -1.0094    1.0000 </r>
       <r>    2.0981    1.0000 </r>
       <r>    3.4073    1.0000 </r>
       <r>    8.6751    0.0000 </r>
       <r>    8.8628    0.0000 </r>
       <r>   11.7593    0.0000 </r>
       <r>   11.9674    0.0000 </r>
       <r>   13.2892    0.0000 </r>
       <r>   16.0051    0.0000 </r>
       <r>   17.3040    0.0000 </r>
       <r>   18.2572    0.0000 </r>
       <r>   20.5302    0.0000 </r>
       <r>   21.8305    0.0000 </r>
       <r>   22.7296    0.0000 </r>
       <r>   24.0414    0.0000 </r>
      </set>
      <set comment="kpoint 105">
       <r>   -4.0875    1.0000 </r>
       <r>    0.2077    1.0000 </r>
       <r>    2.4057    1.0000 </r>
       <r>    3.3055    1.0000 </r>
       <r>    7.8294    0.0000 </r>
       <r>    8.7801    0.0000 </r>
       <r>   10.5075    0.0000 </r>
       <r>   12.6621    0.0000 </r>
       <r>   14.7981    0.0000 </r>
       <r>   16.1837    0.0000 </r>
       <r>   17.6727    0.0000 </r>
       <r>   18.6833    0.0000 </r>
       <r>   19.4270    0.0000 </r>
       <r>   20.2726    0.0000 </r>
       <r>   21.6551    0.0000 </r>
       <r>   23.0726    0.0000 </r>
      </set>
      <set comment="kpoint 106">
       <r>   -3.5989    1.0000 </r>
       <r>   -0.4309    1.0000 </r>
       <r>    2.0366    1.0000 </r>
       <r>    3.0552    1.0000 </r>
       <r>    8.1511    0.0000 </r>
       <r>    9.3224    0.0000 </r>
       <r>   10.2330    0.0000 </r>
       <r>   13.0300    0.0000 </r>
       <r>   14.8165    0.0000 </r>
       <r>   15.4818    0.0000 </r>
       <r>   18.4170    0.0000 </r>
       <r>   19.0834    0.0000 </r>
       <r>   19.7116    0.0000 </r>
       <r>   20.2978    0.0000 </r>
       <r>   22.4731    0.0000 </r>
       <r>   23.3036    0.0000 </r>
      </set>
      <set comment="kpoint 107">
       <r>   -3.1447    1.0000 </r>
       <r>   -0.9889    1.0000 </r>
       <r>    1.7829    1.0000 </r>
       <r>    2.9399    1.0000 </r>
       <r>    8.2944    0.0000 </r>
       <r>    9.8581    0.0000 </r>
       <r>   10.4904    0.0000 </r>
       <r>   13.0746    0.0000 </r>
       <r>   13.3991    0.0000 </r>
       <r>   16.4779    0.0000 </r>
       <r>   17.5509    0.0000 </r>
       <r>   19.0938    0.0000 </r>
       <r>   20.6707    0.0000 </r>
       <r>   21.5254    0.0000 </r>
       <r>   22.8204    0.0000 </r>
       <r>   24.0999    0.0000 </r>
      </set>
      <set comment="kpoint 108">
       <r>   -2.9960    1.0000 </r>
       <r>   -1.1601    1.0000 </r>
       <r>    1.6410    1.0000 </r>
       <r>    2.9845    1.0000 </r>
       <r>    8.4784    0.0000 </r>
       <r>    9.6779    0.0000 </r>
       <r>   11.6518    0.0000 </r>
       <r>   12.0942    0.0000 </r>
       <r>   13.0577    0.0000 </r>
       <r>   16.0710    0.0000 </r>
       <r>   17.9527    0.0000 </r>
       <r>   19.0419    0.0000 </r>
       <r>   21.6242    0.0000 </r>
       <r>   22.0393    0.0000 </r>
       <r>   22.5666    0.0000 </r>
       <r>   23.1424    0.0000 </r>
      </set>
      <set comment="kpoint 109">
       <r>   -3.3138    1.0000 </r>
       <r>   -0.7846    1.0000 </r>
       <r>    1.6455    1.0000 </r>
       <r>    3.1690    1.0000 </r>
       <r>    8.7399    0.0000 </r>
       <r>    9.4975    0.0000 </r>
       <r>   10.7785    0.0000 </r>
       <r>   12.9098    0.0000 </r>
       <r>   13.1896    0.0000 </r>
       <r>   14.9660    0.0000 </r>
       <r>   18.7438    0.0000 </r>
       <r>   19.4997    0.0000 </r>
       <r>   20.6261    0.0000 </r>
       <r>   20.9856    0.0000 </r>
       <r>   22.4125    0.0000 </r>
       <r>   23.6711    0.0000 </r>
      </set>
      <set comment="kpoint 110">
       <r>   -3.7982    1.0000 </r>
       <r>   -0.2142    1.0000 </r>
       <r>    1.8674    1.0000 </r>
       <r>    3.4544    1.0000 </r>
       <r>    9.0657    0.0000 </r>
       <r>    9.1376    0.0000 </r>
       <r>   10.0012    0.0000 </r>
       <r>   12.5212    0.0000 </r>
       <r>   14.2188    0.0000 </r>
       <r>   14.6209    0.0000 </r>
       <r>   18.7809    0.0000 </r>
       <r>   19.2985    0.0000 </r>
       <r>   19.4464    0.0000 </r>
       <r>   20.5108    0.0000 </r>
       <r>   22.3780    0.0000 </r>
       <r>   23.4995    0.0000 </r>
      </set>
      <set comment="kpoint 111">
       <r>   -3.3373    1.0000 </r>
       <r>   -0.6819    1.0000 </r>
       <r>    2.1989    1.0000 </r>
       <r>    2.7147    1.0000 </r>
       <r>    7.6766    0.0000 </r>
       <r>    8.2171    0.0000 </r>
       <r>   11.4827    0.0000 </r>
       <r>   13.9869    0.0000 </r>
       <r>   15.0643    0.0000 </r>
       <r>   16.1030    0.0000 </r>
       <r>   18.3245    0.0000 </r>
       <r>   19.1999    0.0000 </r>
       <r>   19.6991    0.0000 </r>
       <r>   20.4410    0.0000 </r>
       <r>   22.1589    0.0000 </r>
       <r>   22.7121    0.0000 </r>
      </set>
      <set comment="kpoint 112">
       <r>   -2.8494    1.0000 </r>
       <r>   -1.1925    1.0000 </r>
       <r>    1.8360    1.0000 </r>
       <r>    2.5571    1.0000 </r>
       <r>    7.9694    0.0000 </r>
       <r>    8.9957    0.0000 </r>
       <r>   11.2054    0.0000 </r>
       <r>   13.5265    0.0000 </r>
       <r>   14.4040    0.0000 </r>
       <r>   16.7071    0.0000 </r>
       <r>   17.6757    0.0000 </r>
       <r>   19.8065    0.0000 </r>
       <r>   20.5633    0.0000 </r>
       <r>   20.8992    0.0000 </r>
       <r>   22.5732    0.0000 </r>
       <r>   23.4939    0.0000 </r>
      </set>
      <set comment="kpoint 113">
       <r>   -2.5788    1.0000 </r>
       <r>   -1.4556    1.0000 </r>
       <r>    1.5278    1.0000 </r>
       <r>    2.6275    1.0000 </r>
       <r>    8.1492    0.0000 </r>
       <r>   10.1472    0.0000 </r>
       <r>   11.0079    0.0000 </r>
       <r>   12.1424    0.0000 </r>
       <r>   14.3571    0.0000 </r>
       <r>   16.0916    0.0000 </r>
       <r>   18.2490    0.0000 </r>
       <r>   20.0029    0.0000 </r>
       <r>   20.7236    0.0000 </r>
       <r>   22.1071    0.0000 </r>
       <r>   22.6649    0.0000 </r>
       <r>   23.7225    0.0000 </r>
      </set>
      <set comment="kpoint 114">
       <r>   -2.8449    1.0000 </r>
       <r>   -1.1882    1.0000 </r>
       <r>    1.4317    1.0000 </r>
       <r>    2.8461    1.0000 </r>
       <r>    8.4067    0.0000 </r>
       <r>   10.4441    0.0000 </r>
       <r>   11.0247    0.0000 </r>
       <r>   11.7331    0.0000 </r>
       <r>   13.9291    0.0000 </r>
       <r>   15.2309    0.0000 </r>
       <r>   19.1465    0.0000 </r>
       <r>   20.1928    0.0000 </r>
       <r>   20.2310    0.0000 </r>
       <r>   21.7320    0.0000 </r>
       <r>   22.6160    0.0000 </r>
       <r>   23.6531    0.0000 </r>
      </set>
      <set comment="kpoint 115">
       <r>   -2.4958    1.0000 </r>
       <r>   -1.5964    1.0000 </r>
       <r>    2.1690    1.0000 </r>
       <r>    2.3352    1.0000 </r>
       <r>    7.6785    0.0000 </r>
       <r>    7.8535    0.0000 </r>
       <r>   12.5706    0.0000 </r>
       <r>   13.7499    0.0000 </r>
       <r>   15.4102    0.0000 </r>
       <r>   16.6316    0.0000 </r>
       <r>   17.8272    0.0000 </r>
       <r>   18.9270    0.0000 </r>
       <r>   20.5661    0.0000 </r>
       <r>   21.7657    0.0000 </r>
       <r>   21.9224    0.0000 </r>
       <r>   23.2873    0.0000 </r>
      </set>
      <set comment="kpoint 116">
       <r>   -2.1986    1.0000 </r>
       <r>   -1.8446    1.0000 </r>
       <r>    1.7718    1.0000 </r>
       <r>    2.3801    1.0000 </r>
       <r>    7.9072    0.0000 </r>
       <r>    8.8869    0.0000 </r>
       <r>   12.2398    0.0000 </r>
       <r>   12.3922    0.0000 </r>
       <r>   15.4664    0.0000 </r>
       <r>   16.1422    0.0000 </r>
       <r>   18.2579    0.0000 </r>
       <r>   19.0608    0.0000 </r>
       <r>   21.5341    0.0000 </r>
       <r>   22.2682    0.0000 </r>
       <r>   22.3858    0.0000 </r>
       <r>   22.5648    0.0000 </r>
      </set>
      <set comment="kpoint 117">
       <r>   -3.1115    1.0000 </r>
       <r>   -0.9009    1.0000 </r>
       <r>    1.7247    1.0000 </r>
       <r>    2.6917    1.0000 </r>
       <r>    8.9956    0.0000 </r>
       <r>    9.3926    0.0000 </r>
       <r>    9.9851    0.0000 </r>
       <r>   13.3164    0.0000 </r>
       <r>   13.9704    0.0000 </r>
       <r>   15.6945    0.0000 </r>
       <r>   18.7498    0.0000 </r>
       <r>   19.8955    0.0000 </r>
       <r>   19.9993    0.0000 </r>
       <r>   21.0391    0.0000 </r>
       <r>   21.9610    0.0000 </r>
       <r>   24.1068    0.0000 </r>
      </set>
      <set comment="kpoint 118">
       <r>   -2.6903    1.0000 </r>
       <r>   -1.3222    1.0000 </r>
       <r>    1.5871    1.0000 </r>
       <r>    2.4756    1.0000 </r>
       <r>    9.2643    0.0000 </r>
       <r>    9.5879    0.0000 </r>
       <r>   10.5249    0.0000 </r>
       <r>   11.8874    0.0000 </r>
       <r>   14.3728    0.0000 </r>
       <r>   16.4150    0.0000 </r>
       <r>   17.9616    0.0000 </r>
       <r>   19.8756    0.0000 </r>
       <r>   20.5838    0.0000 </r>
       <r>   22.3306    0.0000 </r>
       <r>   22.5780    0.0000 </r>
       <r>   23.9172    0.0000 </r>
      </set>
      <set comment="kpoint 119">
       <r>   -2.3706    1.0000 </r>
       <r>   -1.6212    1.0000 </r>
       <r>    1.7992    1.0000 </r>
       <r>    2.1200    1.0000 </r>
       <r>    8.9873    0.0000 </r>
       <r>    9.1274    0.0000 </r>
       <r>   10.9263    0.0000 </r>
       <r>   12.0604    0.0000 </r>
       <r>   15.4033    0.0000 </r>
       <r>   16.5112    0.0000 </r>
       <r>   18.0099    0.0000 </r>
       <r>   19.0634    0.0000 </r>
       <r>   21.3176    0.0000 </r>
       <r>   22.3959    0.0000 </r>
       <r>   22.5375    0.0000 </r>
       <r>   23.7040    0.0000 </r>
      </set>
      <set comment="kpoint 120">
       <r>   -2.2609    1.0000 </r>
       <r>   -1.7088    1.0000 </r>
       <r>    1.6486    1.0000 </r>
       <r>    2.1389    1.0000 </r>
       <r>    9.2376    0.0000 </r>
       <r>   10.1251    0.0000 </r>
       <r>   10.7716    0.0000 </r>
       <r>   10.8227    0.0000 </r>
       <r>   15.4253    0.0000 </r>
       <r>   16.3446    0.0000 </r>
       <r>   18.1526    0.0000 </r>
       <r>   19.1374    0.0000 </r>
       <r>   21.3494    0.0000 </r>
       <r>   22.2214    0.0000 </r>
       <r>   23.6303    0.0000 </r>
       <r>   23.7356    0.0000 </r>
      </set>
     </set>
    </set>
   </array>
  </eigenvalues>
  <separator name="orbital magnetization" >
   <v name="MAGDIPOLOUT">      0.00000000      0.00000000      0.00000000</v>
  </separator>
  <dos>
   <i name="efermi">      5.73010502 </i>
   <total>
    <array>
     <dimension dim="1">gridpoints</dimension>
     <dimension dim="2">spin</dimension>
     <field>energy</field>
     <field>total</field>
     <field>integrated</field>
     <set>
      <set comment="spin 1">
       <r>    -8.2006     0.0000     0.0000 </r>
       <r>    -8.0717     0.0000     0.0000 </r>
       <r>    -7.9428     0.0000     0.0000 </r>
       <r>    -7.8139     0.0000     0.0000 </r>
       <r>    -7.6850     0.0000     0.0000 </r>
       <r>    -7.5560     0.0000     0.0000 </r>
       <r>    -7.4271     0.0000     0.0000 </r>
       <r>    -7.2982     0.0000     0.0000 </r>
       <r>    -7.1693     0.0000     0.0000 </r>
       <r>    -7.0404     0.0000     0.0000 </r>
       <r>    -6.9115     0.0000     0.0000 </r>
       <r>    -6.7826     0.0000     0.0000 </r>
       <r>    -6.6537     0.0000     0.0000 </r>
       <r>    -6.5247     0.0000     0.0000 </r>
       <r>    -6.3958     0.0000     0.0000 </r>
       <r>    -6.2669     0.0000     0.0000 </r>
       <r>    -6.1380     0.0847     0.0023 </r>
       <r>    -6.0091     0.1523     0.0171 </r>
       <r>    -5.8802     0.1981     0.0392 </r>
       <r>    -5.7513     0.2359     0.0675 </r>
       <r>    -5.6223     0.2744     0.1002 </r>
       <r>    -5.4934     0.3052     0.1378 </r>
       <r>    -5.3645     0.3359     0.1791 </r>
       <r>    -5.2356     0.3687     0.2246 </r>
       <r>    -5.1067     0.3951     0.2738 </r>
       <r>    -4.9778     0.4252     0.3266 </r>
       <r>    -4.8489     0.4573     0.3835 </r>
       <r>    -4.7199     0.4861     0.4443 </r>
       <r>    -4.5910     0.5191     0.5090 </r>
       <r>    -4.4621     0.5560     0.5783 </r>
       <r>    -4.3332     0.5965     0.6525 </r>
       <r>    -4.2043     0.6462     0.7325 </r>
       <r>    -4.0754     0.7187     0.8202 </r>
       <r>    -3.9465     0.8784     0.9208 </r>
       <r>    -3.8176     0.9157     1.0382 </r>
       <r>    -3.6886     0.8493     1.1507 </r>
       <r>    -3.5597     0.8004     1.2570 </r>
       <r>    -3.4308     0.7699     1.3576 </r>
       <r>    -3.3019     0.7082     1.4530 </r>
       <r>    -3.1730     0.6660     1.5415 </r>
       <r>    -3.0441     0.6244     1.6249 </r>
       <r>    -2.9152     0.5705     1.7017 </r>
       <r>    -2.7862     0.5285     1.7726 </r>
       <r>    -2.6573     0.4781     1.8376 </r>
       <r>    -2.5284     0.4619     1.8974 </r>
       <r>    -2.3995     0.3580     1.9504 </r>
       <r>    -2.2706     0.2432     1.9912 </r>
       <r>    -2.1417     0.0000     2.0000 </r>
       <r>    -2.0128     0.0156     2.0005 </r>
       <r>    -1.8839     0.0870     2.0065 </r>
       <r>    -1.7549     0.2391     2.0264 </r>
       <r>    -1.6260     0.3836     2.0728 </r>
       <r>    -1.4971     0.4368     2.1260 </r>
       <r>    -1.3682     0.5331     2.1885 </r>
       <r>    -1.2393     0.6491     2.2648 </r>
       <r>    -1.1104     1.5217     2.3936 </r>
       <r>    -0.9815     1.2540     2.6090 </r>
       <r>    -0.8525     0.9398     2.7474 </r>
       <r>    -0.7236     0.7733     2.8569 </r>
       <r>    -0.5947     0.6797     2.9498 </r>
       <r>    -0.4658     0.6138     3.0330 </r>
       <r>    -0.3369     0.5557     3.1084 </r>
       <r>    -0.2080     0.4971     3.1765 </r>
       <r>    -0.0791     0.4600     3.2380 </r>
       <r>     0.0499     0.4302     3.2953 </r>
       <r>     0.1788     0.4015     3.3489 </r>
       <r>     0.3077     0.3678     3.3986 </r>
       <r>     0.4366     0.3348     3.4439 </r>
       <r>     0.5655     0.3168     3.4859 </r>
       <r>     0.6944     0.2997     3.5256 </r>
       <r>     0.8233     0.2804     3.5630 </r>
       <r>     0.9522     0.2602     3.5979 </r>
       <r>     1.0812     0.2350     3.6299 </r>
       <r>     1.2101     0.2221     3.6593 </r>
       <r>     1.3390     0.2542     3.6877 </r>
       <r>     1.4679     0.7406     3.7574 </r>
       <r>     1.5968     1.3581     3.8843 </r>
       <r>     1.7257     1.2374     4.0551 </r>
       <r>     1.8546     1.0537     4.2035 </r>
       <r>     1.9836     1.0323     4.3384 </r>
       <r>     2.1125     0.9753     4.4680 </r>
       <r>     2.2414     1.0425     4.6079 </r>
       <r>     2.3703     1.1368     4.7477 </r>
       <r>     2.4992     1.1436     4.8928 </r>
       <r>     2.6281     1.2461     5.0463 </r>
       <r>     2.7570     1.3904     5.2173 </r>
       <r>     2.8860     1.5644     5.4148 </r>
       <r>     3.0149     1.5197     5.6153 </r>
       <r>     3.1438     1.5010     5.8102 </r>
       <r>     3.2727     1.4505     6.0011 </r>
       <r>     3.4016     1.4075     6.1843 </r>
       <r>     3.5305     1.3907     6.3656 </r>
       <r>     3.6594     1.3325     6.5414 </r>
       <r>     3.7883     1.3051     6.7110 </r>
       <r>     3.9173     1.2867     6.8785 </r>
       <r>     4.0462     1.2700     7.0426 </r>
       <r>     4.1751     1.2609     7.2059 </r>
       <r>     4.3040     1.2081     7.3648 </r>
       <r>     4.4329     1.0321     7.5143 </r>
       <r>     4.5618     0.7669     7.6276 </r>
       <r>     4.6907     0.6230     7.7164 </r>
       <r>     4.8197     0.5118     7.7895 </r>
       <r>     4.9486     0.4246     7.8496 </r>
       <r>     5.0775     0.3647     7.8999 </r>
       <r>     5.2064     0.2811     7.9415 </r>
       <r>     5.3353     0.2033     7.9728 </r>
       <r>     5.4642     0.1115     7.9925 </r>
       <r>     5.5931     0.0023     8.0000 </r>
       <r>     5.7220     0.0000     8.0000 </r>
       <r>     5.8510     0.0000     8.0000 </r>
       <r>     5.9799     0.0000     8.0000 </r>
       <r>     6.1088     0.0000     8.0000 </r>
       <r>     6.2377     0.0005     8.0000 </r>
       <r>     6.3666     0.1167     8.0069 </r>
       <r>     6.4955     0.2237     8.0290 </r>
       <r>     6.6244     0.3300     8.0646 </r>
       <r>     6.7534     0.4408     8.1145 </r>
       <r>     6.8823     0.4983     8.1756 </r>
       <r>     7.0112     0.5659     8.2440 </r>
       <r>     7.1401     0.6381     8.3212 </r>
       <r>     7.2690     0.7572     8.4108 </r>
       <r>     7.3979     0.9050     8.5177 </r>
       <r>     7.5268     1.0709     8.6448 </r>
       <r>     7.6558     1.2960     8.7967 </r>
       <r>     7.7847     1.6156     8.9827 </r>
       <r>     7.9136     1.8456     9.2098 </r>
       <r>     8.0425     1.8006     9.4433 </r>
       <r>     8.1714     1.4586     9.6531 </r>
       <r>     8.3003     1.2146     9.8225 </r>
       <r>     8.4292     1.2577     9.9805 </r>
       <r>     8.5581     1.0601    10.1411 </r>
       <r>     8.6871     0.7628    10.2604 </r>
       <r>     8.8160     0.8826    10.3609 </r>
       <r>     8.9449     2.3359    10.5665 </r>
       <r>     9.0738     2.2235    10.8586 </r>
       <r>     9.2027     2.0198    11.1231 </r>
       <r>     9.3316     1.9973    11.3818 </r>
       <r>     9.4605     1.6840    11.6294 </r>
       <r>     9.5895     1.2711    11.8107 </r>
       <r>     9.7184     1.1398    11.9702 </r>
       <r>     9.8473     1.0626    12.1092 </r>
       <r>     9.9762     1.2364    12.2565 </r>
       <r>    10.1051     1.3028    12.4254 </r>
       <r>    10.2340     1.2523    12.5928 </r>
       <r>    10.3629     1.1516    12.7445 </r>
       <r>    10.4918     1.1744    12.8935 </r>
       <r>    10.6208     1.5319    13.0653 </r>
       <r>    10.7497     1.2682    13.2414 </r>
       <r>    10.8786     1.1583    13.4002 </r>
       <r>    11.0075     1.1920    13.5520 </r>
       <r>    11.1364     1.1185    13.6983 </r>
       <r>    11.2653     1.0952    13.8417 </r>
       <r>    11.3942     1.0904    13.9807 </r>
       <r>    11.5232     1.1193    14.1258 </r>
       <r>    11.6521     0.9374    14.2639 </r>
       <r>    11.7810     0.9080    14.3863 </r>
       <r>    11.9099     1.0251    14.5078 </r>
       <r>    12.0388     1.1297    14.6484 </r>
       <r>    12.1677     1.2008    14.7961 </r>
       <r>    12.2966     1.4833    14.9670 </r>
       <r>    12.4256     1.3217    15.1531 </r>
       <r>    12.5545     1.2006    15.3160 </r>
       <r>    12.6834     1.0821    15.4626 </r>
       <r>    12.8123     0.9946    15.5963 </r>
       <r>    12.9412     1.1315    15.7283 </r>
       <r>    13.0701     1.2211    15.8773 </r>
       <r>    13.1990     1.3875    16.0460 </r>
       <r>    13.3279     1.4031    16.2250 </r>
       <r>    13.4569     1.5317    16.4183 </r>
       <r>    13.5858     1.1065    16.5800 </r>
       <r>    13.7147     1.0824    16.7199 </r>
       <r>    13.8436     1.1029    16.8605 </r>
       <r>    13.9725     1.1388    17.0049 </r>
       <r>    14.1014     1.1907    17.1558 </r>
       <r>    14.2303     1.2356    17.3111 </r>
       <r>    14.3593     1.3422    17.4769 </r>
       <r>    14.4882     1.3899    17.6504 </r>
       <r>    14.6171     1.3579    17.8227 </r>
       <r>    14.7460     1.4020    18.0009 </r>
       <r>    14.8749     1.4524    18.1858 </r>
       <r>    15.0038     1.3824    18.3682 </r>
       <r>    15.1327     1.3514    18.5437 </r>
       <r>    15.2616     1.3414    18.7182 </r>
       <r>    15.3906     1.3319    18.8877 </r>
       <r>    15.5195     1.3874    19.0882 </r>
       <r>    15.6484     1.3845    19.2676 </r>
       <r>    15.7773     1.3228    19.4417 </r>
       <r>    15.9062     1.3055    19.6108 </r>
       <r>    16.0351     1.3446    19.7817 </r>
       <r>    16.1640     1.2532    19.9459 </r>
       <r>    16.2930     1.1766    20.1099 </r>
       <r>    16.4219     1.1625    20.2668 </r>
       <r>    16.5508     1.0222    20.4014 </r>
       <r>    16.6797     1.2731    20.5747 </r>
       <r>    16.8086     1.1044    20.7204 </r>
       <r>    16.9375     0.9131    20.8538 </r>
       <r>    17.0664     0.8766    20.9669 </r>
       <r>    17.1954     1.0385    21.0889 </r>
       <r>    17.3243     1.3396    21.2451 </r>
       <r>    17.4532     1.4718    21.4278 </r>
       <r>    17.5821     1.5232    21.6184 </r>
       <r>    17.7110     1.6344    21.8164 </r>
       <r>    17.8399     1.8086    22.0418 </r>
       <r>    17.9688     1.8591    22.2782 </r>
       <r>    18.0977     1.9123    22.5245 </r>
       <r>    18.2267     1.7311    22.7578 </r>
       <r>    18.3556     1.6867    22.9812 </r>
       <r>    18.4845     1.4133    23.1783 </r>
       <r>    18.6134     1.3011    23.3499 </r>
       <r>    18.7423     1.3041    23.5205 </r>
       <r>    18.8712     1.4354    23.6964 </r>
       <r>    19.0001     1.4325    23.8810 </r>
       <r>    19.1291     1.8248    24.0903 </r>
       <r>    19.2580     2.0353    24.3351 </r>
       <r>    19.3869     2.1486    24.6010 </r>
       <r>    19.5158     1.8793    24.8741 </r>
       <r>    19.6447     1.6940    25.1058 </r>
       <r>    19.7736     1.6163    25.3228 </r>
       <r>    19.9025     1.2801    25.5096 </r>
       <r>    20.0314     1.0655    25.6588 </r>
       <r>    20.1604     0.9948    25.7886 </r>
       <r>    20.2893     1.3624    25.9316 </r>
       <r>    20.4182     1.4079    26.1160 </r>
       <r>    20.5471     1.5581    26.3034 </r>
       <r>    20.6760     1.7920    26.5296 </r>
       <r>    20.8049     1.8765    26.7623 </r>
       <r>    20.9338     1.6462    26.9961 </r>
       <r>    21.0628     1.4088    27.1954 </r>
       <r>    21.1917     1.1275    27.3614 </r>
       <r>    21.3206     1.3138    27.5274 </r>
       <r>    21.4495     1.2634    27.6965 </r>
       <r>    21.5784     1.1740    27.8516 </r>
       <r>    21.7073     1.1812    28.0059 </r>
       <r>    21.8362     1.3927    28.1669 </r>
       <r>    21.9652     1.6550    28.3761 </r>
       <r>    22.0941     1.4811    28.5768 </r>
       <r>    22.2230     1.5960    28.7764 </r>
       <r>    22.3519     1.4324    28.9816 </r>
       <r>    22.4808     1.4502    29.1609 </r>
       <r>    22.6097     1.6543    29.3744 </r>
       <r>    22.7386     1.4455    29.5593 </r>
       <r>    22.8675     1.4735    29.7366 </r>
       <r>    22.9965     1.5869    29.9400 </r>
       <r>    23.1254     1.7870    30.1556 </r>
       <r>    23.2543     1.8253    30.3931 </r>
       <r>    23.3832     1.7958    30.6253 </r>
       <r>    23.5121     1.8350    30.8615 </r>
       <r>    23.6410     1.6818    31.0902 </r>
       <r>    23.7699     1.7166    31.3096 </r>
       <r>    23.8989     1.1209    31.4952 </r>
       <r>    24.0278     0.7156    31.6115 </r>
       <r>    24.1567     0.4448    31.6780 </r>
       <r>    24.2856     0.3931    31.7322 </r>
       <r>    24.4145     0.2976    31.7774 </r>
       <r>    24.5434     0.2223    31.8094 </r>
       <r>    24.6723     0.2295    31.8391 </r>
       <r>    24.8012     0.2458    31.8685 </r>
       <r>    24.9302     0.1593    31.8942 </r>
       <r>    25.0591     0.1389    31.9130 </r>
       <r>    25.1880     0.1272    31.9302 </r>
       <r>    25.3169     0.1224    31.9461 </r>
       <r>    25.4458     0.0458    31.9597 </r>
       <r>    25.5747     0.0396    31.9652 </r>
       <r>    25.7036     0.0337    31.9700 </r>
       <r>    25.8326     0.0281    31.9739 </r>
       <r>    25.9615     0.0231    31.9772 </r>
       <r>    26.0904     0.0185    31.9799 </r>
       <r>    26.2193     0.0172    31.9821 </r>
       <r>    26.3482     0.0164    31.9843 </r>
       <r>    26.4771     0.0149    31.9863 </r>
       <r>    26.6060     0.0136    31.9882 </r>
       <r>    26.7350     0.0123    31.9898 </r>
       <r>    26.8639     0.0110    31.9913 </r>
       <r>    26.9928     0.0098    31.9927 </r>
       <r>    27.1217     0.0087    31.9939 </r>
       <r>    27.2506     0.0076    31.9949 </r>
       <r>    27.3795     0.0066    31.9958 </r>
       <r>    27.5084     0.0056    31.9966 </r>
       <r>    27.6373     0.0055    31.9973 </r>
       <r>    27.7663     0.0065    31.9981 </r>
       <r>    27.8952     0.0055    31.9989 </r>
       <r>    28.0241     0.0033    31.9995 </r>
       <r>    28.1530     0.0017    31.9998 </r>
       <r>    28.2819     0.0006    32.0000 </r>
       <r>    28.4108     0.0001    32.0000 </r>
       <r>    28.5397     0.0000    32.0000 </r>
       <r>    28.6687     0.0000    32.0000 </r>
       <r>    28.7976     0.0000    32.0000 </r>
       <r>    28.9265     0.0000    32.0000 </r>
       <r>    29.0554     0.0000    32.0000 </r>
       <r>    29.1843     0.0000    32.0000 </r>
       <r>    29.3132     0.0000    32.0000 </r>
       <r>    29.4421     0.0000    32.0000 </r>
       <r>    29.5710     0.0000    32.0000 </r>
       <r>    29.7000     0.0000    32.0000 </r>
       <r>    29.8289     0.0000    32.0000 </r>
       <r>    29.9578     0.0000    32.0000 </r>
       <r>    30.0867     0.0000    32.0000 </r>
       <r>    30.2156     0.0000    32.0000 </r>
       <r>    30.3445     0.0000    32.0000 </r>
       <r>    30.4734     0.0000    32.0000 </r>
      </set>
     </set>
    </array>
   </total>
   <partial>
    <array>
     <dimension dim="1">gridpoints</dimension>
     <dimension dim="2">spin</dimension>
     <dimension dim="3">ion</dimension>
     <field>energy</field>
     <field>    s</field>
     <field>   py</field>
     <field>   pz</field>
     <field>   px</field>
     <field>  dxy</field>
     <field>  dyz</field>
     <field>  dz2</field>
     <field>  dxz</field>
     <field>x2-y2</field>
     <set>
      <set comment="ion 1">
       <set comment="spin 1">
        <r>    -8.2006     0.0000     0.0000     0.0000     0.0000     0.0000     0.0000     0.0000     0.0000     0.0000 </r>
        <r>    -8.0717     0.0000     0.0000     0.0000     0.0000     0.0000     0.0000     0.0000     0.0000     0.0000 </r>
        <r>    -7.9428     0.0000     0.0000     0.0000     0.0000     0.0000     0.0000     0.0000     0.0000     0.0000 </r>
        <r>    -7.8139     0.0000     0.0000     0.0000     0.0000     0.0000     0.0000     0.0000     0.0000     0.0000 </r>
        <r>    -7.6850     0.0000     0.0000     0.0000     0.0000     0.0000     0.0000     0.0000     0.0000     0.0000 </r>
        <r>    -7.5560     0.0000     0.0000     0.0000     0.0000     0.0000     0.0000     0.0000     0.0000     0.0000 </r>
        <r>    -7.4271     0.0000     0.0000     0.0000     0.0000     0.0000     0.0000     0.0000     0.0000     0.0000 </r>
        <r>    -7.2982     0.0000     0.0000     0.0000     0.0000     0.0000     0.0000     0.0000     0.0000     0.0000 </r>
        <r>    -7.1693     0.0000     0.0000     0.0000     0.0000     0.0000     0.0000     0.0000     0.0000     0.0000 </r>
        <r>    -7.0404     0.0000     0.0000     0.0000     0.0000     0.0000     0.0000     0.0000     0.0000     0.0000 </r>
        <r>    -6.9115     0.0000     0.0000     0.0000     0.0000     0.0000     0.0000     0.0000     0.0000     0.0000 </r>
        <r>    -6.7826     0.0000     0.0000     0.0000     0.0000     0.0000     0.0000     0.0000     0.0000     0.0000 </r>
        <r>    -6.6537     0.0000     0.0000     0.0000     0.0000     0.0000     0.0000     0.0000     0.0000     0.0000 </r>
        <r>    -6.5247     0.0000     0.0000     0.0000     0.0000     0.0000     0.0000     0.0000     0.0000     0.0000 </r>
        <r>    -6.3958     0.0000     0.0000     0.0000     0.0000     0.0000     0.0000     0.0000     0.0000     0.0000 </r>
        <r>    -6.2669     0.0000     0.0000     0.0000     0.0000     0.0000     0.0000     0.0000     0.0000     0.0000 </r>
        <r>    -6.1380     0.0179     0.0000     0.0000     0.0000     0.0000     0.0000     0.0000     0.0000     0.0000 </r>
        <r>    -6.0091     0.0321     0.0001     0.0002     0.0001     0.0000     0.0000     0.0000     0.0000     0.0000 </r>
        <r>    -5.8802     0.0417     0.0002     0.0004     0.0001     0.0000     0.0000     0.0000     0.0000     0.0000 </r>
        <r>    -5.7513     0.0495     0.0003     0.0007     0.0002     0.0000     0.0000     0.0000     0.0000     0.0000 </r>
        <r>    -5.6223     0.0575     0.0004     0.0010     0.0003     0.0000     0.0000     0.0000     0.0000     0.0000 </r>
        <r>    -5.4934     0.0638     0.0005     0.0013     0.0004     0.0000     0.0000     0.0000     0.0000     0.0000 </r>
        <r>    -5.3645     0.0701     0.0007     0.0017     0.0006     0.0000     0.0000     0.0000     0.0000     0.0000 </r>
        <r>    -5.2356     0.0768     0.0008     0.0021     0.0007     0.0000     0.0000     0.0000     0.0000     0.0000 </r>
        <r>    -5.1067     0.0822     0.0010     0.0024     0.0010     0.0000     0.0000     0.0000     0.0000     0.0000 </r>
        <r>    -4.9778     0.0884     0.0011     0.0030     0.0011     0.0000     0.0000     0.0000     0.0000     0.0000 </r>
        <r>    -4.8489     0.0950     0.0013     0.0035     0.0013     0.0000     0.0000     0.0000     0.0000     0.0000 </r>
        <r>    -4.7199     0.1010     0.0015     0.0040     0.0016     0.0000     0.0000     0.0000     0.0000     0.0000 </r>
        <r>    -4.5910     0.1080     0.0017     0.0046     0.0018     0.0000     0.0000     0.0000     0.0000     0.0000 </r>
        <r>    -4.4621     0.1158     0.0019     0.0053     0.0020     0.0000     0.0000     0.0000     0.0000     0.0000 </r>
        <r>    -4.3332     0.1244     0.0021     0.0060     0.0022     0.0000     0.0000     0.0000     0.0000     0.0000 </r>
        <r>    -4.2043     0.1352     0.0023     0.0067     0.0027     0.0000     0.0000     0.0000     0.0000     0.0000 </r>
        <r>    -4.0754     0.1511     0.0026     0.0076     0.0032     0.0000     0.0000     0.0000     0.0000     0.0000 </r>
        <r>    -3.9465     0.1865     0.0033     0.0091     0.0040     0.0000     0.0000     0.0000     0.0000     0.0000 </r>
        <r>    -3.8176     0.1948     0.0034     0.0102     0.0045     0.0000     0.0000     0.0000     0.0000     0.0000 </r>
        <r>    -3.6886     0.1801     0.0030     0.0105     0.0046     0.0000     0.0000     0.0000     0.0000     0.0000 </r>
        <r>    -3.5597     0.1692     0.0027     0.0109     0.0046     0.0000     0.0000     0.0000     0.0000     0.0000 </r>
        <r>    -3.4308     0.1626     0.0025     0.0115     0.0045     0.0000     0.0000     0.0000     0.0000     0.0000 </r>
        <r>    -3.3019     0.1490     0.0021     0.0116     0.0044     0.0000     0.0000     0.0000     0.0000     0.0000 </r>
        <r>    -3.1730     0.1398     0.0018     0.0118     0.0044     0.0000     0.0000     0.0000     0.0000     0.0000 </r>
        <r>    -3.0441     0.1308     0.0016     0.0120     0.0042     0.0000     0.0000     0.0000     0.0000     0.0000 </r>
        <r>    -2.9152     0.1190     0.0012     0.0121     0.0039     0.0000     0.0000     0.0000     0.0000     0.0000 </r>
        <r>    -2.7862     0.1100     0.0010     0.0120     0.0036     0.0000     0.0000     0.0000     0.0000     0.0000 </r>
        <r>    -2.6573     0.0990     0.0007     0.0118     0.0032     0.0000     0.0000     0.0000     0.0000     0.0000 </r>
        <r>    -2.5284     0.0950     0.0005     0.0127     0.0029     0.0000     0.0000     0.0000     0.0000     0.0000 </r>
        <r>    -2.3995     0.0730     0.0002     0.0106     0.0022     0.0000     0.0000     0.0000     0.0000     0.0000 </r>
        <r>    -2.2706     0.0496     0.0001     0.0070     0.0020     0.0000     0.0000     0.0000     0.0000     0.0000 </r>
        <r>    -2.1417     0.0000     0.0000     0.0000     0.0000     0.0000     0.0000     0.0000     0.0000     0.0000 </r>
        <r>    -2.0128     0.0030     0.0000     0.0007     0.0000     0.0000     0.0000     0.0000     0.0000     0.0000 </r>
        <r>    -1.8839     0.0168     0.0001     0.0038     0.0002     0.0000     0.0000     0.0000     0.0000     0.0000 </r>
        <r>    -1.7549     0.0462     0.0002     0.0098     0.0014     0.0000     0.0000     0.0000     0.0000     0.0000 </r>
        <r>    -1.6260     0.0738     0.0006     0.0147     0.0036     0.0000     0.0000     0.0000     0.0000     0.0000 </r>
        <r>    -1.4971     0.0831     0.0011     0.0165     0.0048     0.0000     0.0000     0.0000     0.0000     0.0000 </r>
        <r>    -1.3682     0.0995     0.0020     0.0200     0.0069     0.0000     0.0000     0.0000     0.0000     0.0000 </r>
        <r>    -1.2393     0.1182     0.0035     0.0241     0.0095     0.0000     0.0000     0.0000     0.0000     0.0000 </r>
        <r>    -1.1104     0.2242     0.0255     0.0514     0.0345     0.0000     0.0000     0.0000     0.0000     0.0000 </r>
        <r>    -0.9815     0.1878     0.0204     0.0432     0.0283     0.0000     0.0000     0.0000     0.0000     0.0000 </r>
        <r>    -0.8525     0.1426     0.0149     0.0332     0.0209     0.0000     0.0000     0.0000     0.0000     0.0000 </r>
        <r>    -0.7236     0.1172     0.0124     0.0278     0.0175     0.0000     0.0000     0.0000     0.0000     0.0000 </r>
        <r>    -0.5947     0.1029     0.0110     0.0250     0.0155     0.0000     0.0000     0.0000     0.0000     0.0000 </r>
        <r>    -0.4658     0.0927     0.0101     0.0230     0.0141     0.0000     0.0000     0.0000     0.0000     0.0000 </r>
        <r>    -0.3369     0.0834     0.0094     0.0213     0.0129     0.0000     0.0000     0.0000     0.0000     0.0000 </r>
        <r>    -0.2080     0.0739     0.0087     0.0194     0.0118     0.0000     0.0000     0.0000     0.0000     0.0000 </r>
        <r>    -0.0791     0.0680     0.0083     0.0182     0.0111     0.0000     0.0000     0.0000     0.0000     0.0000 </r>
        <r>     0.0499     0.0631     0.0079     0.0174     0.0105     0.0000     0.0000     0.0000     0.0000     0.0000 </r>
        <r>     0.1788     0.0584     0.0076     0.0165     0.0099     0.0000     0.0000     0.0000     0.0000     0.0000 </r>
        <r>     0.3077     0.0529     0.0072     0.0155     0.0092     0.0000     0.0000     0.0000     0.0000     0.0000 </r>
        <r>     0.4366     0.0475     0.0068     0.0144     0.0085     0.0000     0.0000     0.0000     0.0000     0.0000 </r>
        <r>     0.5655     0.0446     0.0066     0.0138     0.0082     0.0000     0.0000     0.0000     0.0000     0.0000 </r>
        <r>     0.6944     0.0418     0.0064     0.0133     0.0079     0.0000     0.0000     0.0000     0.0000     0.0000 </r>
        <r>     0.8233     0.0387     0.0061     0.0126     0.0075     0.0000     0.0000     0.0000     0.0000     0.0000 </r>
        <r>     0.9522     0.0354     0.0059     0.0119     0.0070     0.0000     0.0000     0.0000     0.0000     0.0000 </r>
        <r>     1.0812     0.0314     0.0055     0.0111     0.0064     0.0000     0.0000     0.0000     0.0000     0.0000 </r>
        <r>     1.2101     0.0294     0.0053     0.0106     0.0062     0.0000     0.0000     0.0000     0.0000     0.0000 </r>
        <r>     1.3390     0.0278     0.0073     0.0126     0.0080     0.0000     0.0000     0.0000     0.0000     0.0000 </r>
        <r>     1.4679     0.0294     0.0327     0.0397     0.0302     0.0000     0.0000     0.0000     0.0000     0.0000 </r>
        <r>     1.5968     0.0329     0.0677     0.0687     0.0624     0.0000     0.0000     0.0000     0.0000     0.0000 </r>
        <r>     1.7257     0.0325     0.0610     0.0611     0.0600     0.0000     0.0000     0.0000     0.0000     0.0000 </r>
        <r>     1.8546     0.0313     0.0504     0.0518     0.0535     0.0000     0.0000     0.0000     0.0000     0.0000 </r>
        <r>     1.9836     0.0315     0.0488     0.0505     0.0542     0.0000     0.0000     0.0000     0.0000     0.0000 </r>
        <r>     2.1125     0.0309     0.0458     0.0474     0.0531     0.0000     0.0000     0.0000     0.0000     0.0000 </r>
        <r>     2.2414     0.0301     0.0529     0.0483     0.0592     0.0000     0.0000     0.0000     0.0000     0.0000 </r>
        <r>     2.3703     0.0294     0.0612     0.0507     0.0668     0.0000     0.0000     0.0000     0.0000     0.0000 </r>
        <r>     2.4992     0.0281     0.0636     0.0503     0.0690     0.0000     0.0000     0.0000     0.0000     0.0000 </r>
        <r>     2.6281     0.0262     0.0754     0.0507     0.0791     0.0000     0.0000     0.0000     0.0000     0.0000 </r>
        <r>     2.7570     0.0247     0.0921     0.0499     0.0943     0.0000     0.0000     0.0000     0.0000     0.0000 </r>
        <r>     2.8860     0.0238     0.1105     0.0505     0.1114     0.0000     0.0000     0.0000     0.0000     0.0000 </r>
        <r>     3.0149     0.0226     0.1095     0.0496     0.1083     0.0000     0.0000     0.0000     0.0000     0.0000 </r>
        <r>     3.1438     0.0213     0.1111     0.0487     0.1078     0.0000     0.0000     0.0000     0.0000     0.0000 </r>
        <r>     3.2727     0.0196     0.1094     0.0481     0.1037     0.0000     0.0000     0.0000     0.0000     0.0000 </r>
        <r>     3.4016     0.0179     0.1081     0.0486     0.0999     0.0000     0.0000     0.0000     0.0000     0.0000 </r>
        <r>     3.5305     0.0159     0.1108     0.0483     0.0989     0.0000     0.0000     0.0000     0.0000     0.0000 </r>
        <r>     3.6594     0.0144     0.1089     0.0472     0.0937     0.0000     0.0000     0.0000     0.0000     0.0000 </r>
        <r>     3.7883     0.0130     0.1101     0.0447     0.0932     0.0000     0.0000     0.0000     0.0000     0.0000 </r>
        <r>     3.9173     0.0117     0.1126     0.0433     0.0921     0.0000     0.0000     0.0000     0.0000     0.0000 </r>
        <r>     4.0462     0.0106     0.1128     0.0451     0.0903     0.0000     0.0000     0.0000     0.0000     0.0000 </r>
        <r>     4.1751     0.0091     0.1144     0.0443     0.0916     0.0000     0.0000     0.0000     0.0000     0.0000 </r>
        <r>     4.3040     0.0073     0.1125     0.0407     0.0902     0.0000     0.0000     0.0000     0.0000     0.0000 </r>
        <r>     4.4329     0.0059     0.0961     0.0391     0.0745     0.0000     0.0000     0.0000     0.0000     0.0000 </r>
        <r>     4.5618     0.0052     0.0693     0.0322     0.0539     0.0000     0.0000     0.0000     0.0000     0.0000 </r>
        <r>     4.6907     0.0047     0.0546     0.0301     0.0416     0.0000     0.0000     0.0000     0.0000     0.0000 </r>
        <r>     4.8197     0.0037     0.0450     0.0254     0.0340     0.0000     0.0000     0.0000     0.0000     0.0000 </r>
        <r>     4.9486     0.0030     0.0372     0.0225     0.0273     0.0000     0.0000     0.0000     0.0000     0.0000 </r>
        <r>     5.0775     0.0021     0.0324     0.0188     0.0243     0.0000     0.0000     0.0000     0.0000     0.0000 </r>
        <r>     5.2064     0.0014     0.0243     0.0151     0.0191     0.0000     0.0000     0.0000     0.0000     0.0000 </r>
        <r>     5.3353     0.0008     0.0181     0.0099     0.0146     0.0000     0.0000     0.0000     0.0000     0.0000 </r>
        <r>     5.4642     0.0002     0.0100     0.0061     0.0074     0.0000     0.0000     0.0000     0.0000     0.0000 </r>
        <r>     5.5931     0.0000     0.0002     0.0001     0.0002     0.0000     0.0000     0.0000     0.0000     0.0000 </r>
        <r>     5.7220     0.0000     0.0000     0.0000     0.0000     0.0000     0.0000     0.0000     0.0000     0.0000 </r>
        <r>     5.8510     0.0000     0.0000     0.0000     0.0000     0.0000     0.0000     0.0000     0.0000     0.0000 </r>
        <r>     5.9799     0.0000     0.0000     0.0000     0.0000     0.0000     0.0000     0.0000     0.0000     0.0000 </r>
        <r>     6.1088     0.0000     0.0000     0.0000     0.0000     0.0000     0.0000     0.0000     0.0000     0.0000 </r>
        <r>     6.2377     0.0000     0.0000     0.0000     0.0000     0.0000     0.0000     0.0000     0.0000     0.0000 </r>
        <r>     6.3666     0.0059     0.0003     0.0049     0.0003     0.0000     0.0000     0.0000     0.0000     0.0000 </r>
        <r>     6.4955     0.0109     0.0010     0.0095     0.0009     0.0000     0.0000     0.0000     0.0000     0.0000 </r>
        <r>     6.6244     0.0158     0.0019     0.0140     0.0016     0.0000     0.0000     0.0000     0.0000     0.0000 </r>
        <r>     6.7534     0.0206     0.0031     0.0185     0.0024     0.0000     0.0000     0.0000     0.0000     0.0000 </r>
        <r>     6.8823     0.0229     0.0041     0.0214     0.0031     0.0000     0.0000     0.0000     0.0000     0.0000 </r>
        <r>     7.0112     0.0255     0.0052     0.0247     0.0039     0.0000     0.0000     0.0000     0.0000     0.0000 </r>
        <r>     7.1401     0.0294     0.0066     0.0282     0.0049     0.0000     0.0000     0.0000     0.0000     0.0000 </r>
        <r>     7.2690     0.0402     0.0082     0.0332     0.0062     0.0000     0.0000     0.0000     0.0000     0.0000 </r>
        <r>     7.3979     0.0546     0.0102     0.0393     0.0078     0.0000     0.0000     0.0000     0.0000     0.0000 </r>
        <r>     7.5268     0.0682     0.0124     0.0475     0.0105     0.0000     0.0000     0.0000     0.0000     0.0000 </r>
        <r>     7.6558     0.0865     0.0149     0.0592     0.0144     0.0000     0.0000     0.0000     0.0000     0.0000 </r>
        <r>     7.7847     0.1126     0.0184     0.0760     0.0199     0.0000     0.0000     0.0000     0.0000     0.0000 </r>
        <r>     7.9136     0.1292     0.0210     0.0898     0.0266     0.0000     0.0000     0.0000     0.0000     0.0000 </r>
        <r>     8.0425     0.1181     0.0249     0.0917     0.0284     0.0000     0.0000     0.0000     0.0000     0.0000 </r>
        <r>     8.1714     0.0855     0.0244     0.0734     0.0239     0.0000     0.0000     0.0000     0.0000     0.0000 </r>
        <r>     8.3003     0.0670     0.0223     0.0568     0.0197     0.0000     0.0000     0.0000     0.0000     0.0000 </r>
        <r>     8.4292     0.0632     0.0281     0.0560     0.0229     0.0000     0.0000     0.0000     0.0000     0.0000 </r>
        <r>     8.5581     0.0476     0.0305     0.0409     0.0229     0.0000     0.0000     0.0000     0.0000     0.0000 </r>
        <r>     8.6871     0.0270     0.0291     0.0204     0.0230     0.0000     0.0000     0.0000     0.0000     0.0000 </r>
        <r>     8.8160     0.0297     0.0340     0.0229     0.0314     0.0000     0.0000     0.0000     0.0000     0.0000 </r>
        <r>     8.9449     0.0604     0.0770     0.0815     0.0801     0.0000     0.0000     0.0000     0.0000     0.0000 </r>
        <r>     9.0738     0.0637     0.0768     0.0629     0.0833     0.0000     0.0000     0.0000     0.0000     0.0000 </r>
        <r>     9.2027     0.0681     0.0717     0.0525     0.0767     0.0000     0.0000     0.0000     0.0000     0.0000 </r>
        <r>     9.3316     0.0736     0.0724     0.0529     0.0762     0.0000     0.0000     0.0000     0.0000     0.0000 </r>
        <r>     9.4605     0.0561     0.0665     0.0434     0.0625     0.0000     0.0000     0.0000     0.0000     0.0000 </r>
        <r>     9.5895     0.0302     0.0592     0.0280     0.0460     0.0000     0.0000     0.0000     0.0000     0.0000 </r>
        <r>     9.7184     0.0271     0.0563     0.0238     0.0406     0.0000     0.0000     0.0000     0.0000     0.0000 </r>
        <r>     9.8473     0.0251     0.0547     0.0211     0.0381     0.0000     0.0000     0.0000     0.0000     0.0000 </r>
        <r>     9.9762     0.0290     0.0648     0.0243     0.0425     0.0000     0.0000     0.0000     0.0000     0.0000 </r>
        <r>    10.1051     0.0343     0.0662     0.0266     0.0439     0.0000     0.0000     0.0000     0.0000     0.0000 </r>
        <r>    10.2340     0.0382     0.0607     0.0276     0.0422     0.0000     0.0000     0.0000     0.0000     0.0000 </r>
        <r>    10.3629     0.0361     0.0552     0.0256     0.0413     0.0000     0.0000     0.0000     0.0000     0.0000 </r>
        <r>    10.4918     0.0385     0.0548     0.0259     0.0439     0.0000     0.0000     0.0000     0.0000     0.0000 </r>
        <r>    10.6208     0.0518     0.0682     0.0356     0.0597     0.0000     0.0000     0.0000     0.0000     0.0000 </r>
        <r>    10.7497     0.0445     0.0541     0.0284     0.0502     0.0000     0.0000     0.0000     0.0000     0.0000 </r>
        <r>    10.8786     0.0377     0.0495     0.0255     0.0481     0.0000     0.0000     0.0000     0.0000     0.0000 </r>
        <r>    11.0075     0.0362     0.0507     0.0254     0.0519     0.0000     0.0000     0.0000     0.0000     0.0000 </r>
        <r>    11.1364     0.0344     0.0474     0.0252     0.0487     0.0000     0.0000     0.0000     0.0000     0.0000 </r>
        <r>    11.2653     0.0338     0.0456     0.0267     0.0477     0.0000     0.0000     0.0000     0.0000     0.0000 </r>
        <r>    11.3942     0.0317     0.0451     0.0274     0.0492     0.0000     0.0000     0.0000     0.0000     0.0000 </r>
        <r>    11.5232     0.0293     0.0460     0.0281     0.0525     0.0000     0.0000     0.0000     0.0000     0.0000 </r>
        <r>    11.6521     0.0230     0.0407     0.0236     0.0439     0.0000     0.0000     0.0000     0.0000     0.0000 </r>
        <r>    11.7810     0.0220     0.0411     0.0236     0.0426     0.0000     0.0000     0.0000     0.0000     0.0000 </r>
        <r>    11.9099     0.0238     0.0428     0.0269     0.0463     0.0000     0.0000     0.0000     0.0000     0.0000 </r>
        <r>    12.0388     0.0260     0.0442     0.0305     0.0484     0.0000     0.0000     0.0000     0.0000     0.0000 </r>
        <r>    12.1677     0.0280     0.0441     0.0304     0.0468     0.0000     0.0000     0.0000     0.0000     0.0000 </r>
        <r>    12.2966     0.0384     0.0458     0.0343     0.0476     0.0000     0.0000     0.0000     0.0000     0.0000 </r>
        <r>    12.4256     0.0322     0.0452     0.0345     0.0472     0.0000     0.0000     0.0000     0.0000     0.0000 </r>
        <r>    12.5545     0.0292     0.0417     0.0317     0.0434     0.0000     0.0000     0.0000     0.0000     0.0000 </r>
        <r>    12.6834     0.0255     0.0384     0.0280     0.0400     0.0000     0.0000     0.0000     0.0000     0.0000 </r>
        <r>    12.8123     0.0223     0.0356     0.0246     0.0375     0.0000     0.0000     0.0000     0.0000     0.0000 </r>
        <r>    12.9412     0.0249     0.0400     0.0309     0.0409     0.0000     0.0000     0.0000     0.0000     0.0000 </r>
        <r>    13.0701     0.0248     0.0426     0.0354     0.0441     0.0000     0.0000     0.0000     0.0000     0.0000 </r>
        <r>    13.1990     0.0260     0.0448     0.0406     0.0459     0.0000     0.0000     0.0000     0.0000     0.0000 </r>
        <r>    13.3279     0.0251     0.0433     0.0412     0.0447     0.0000     0.0000     0.0000     0.0000     0.0000 </r>
        <r>    13.4569     0.0238     0.0464     0.0485     0.0490     0.0000     0.0000     0.0000     0.0000     0.0000 </r>
        <r>    13.5858     0.0220     0.0343     0.0346     0.0351     0.0000     0.0000     0.0000     0.0000     0.0000 </r>
        <r>    13.7147     0.0229     0.0331     0.0335     0.0338     0.0000     0.0000     0.0000     0.0000     0.0000 </r>
        <r>    13.8436     0.0228     0.0340     0.0350     0.0346     0.0000     0.0000     0.0000     0.0000     0.0000 </r>
        <r>    13.9725     0.0235     0.0353     0.0372     0.0359     0.0000     0.0000     0.0000     0.0000     0.0000 </r>
        <r>    14.1014     0.0249     0.0370     0.0397     0.0384     0.0000     0.0000     0.0000     0.0000     0.0000 </r>
        <r>    14.2303     0.0252     0.0371     0.0396     0.0393     0.0000     0.0000     0.0000     0.0000     0.0000 </r>
        <r>    14.3593     0.0257     0.0382     0.0392     0.0409     0.0000     0.0000     0.0000     0.0000     0.0000 </r>
        <r>    14.4882     0.0273     0.0383     0.0419     0.0437     0.0000     0.0000     0.0000     0.0000     0.0000 </r>
        <r>    14.6171     0.0313     0.0344     0.0413     0.0397     0.0000     0.0000     0.0000     0.0000     0.0000 </r>
        <r>    14.7460     0.0333     0.0332     0.0420     0.0395     0.0000     0.0000     0.0000     0.0000     0.0000 </r>
        <r>    14.8749     0.0344     0.0326     0.0441     0.0390     0.0000     0.0000     0.0000     0.0000     0.0000 </r>
        <r>    15.0038     0.0319     0.0301     0.0436     0.0369     0.0000     0.0000     0.0000     0.0000     0.0000 </r>
        <r>    15.1327     0.0305     0.0292     0.0437     0.0365     0.0000     0.0000     0.0000     0.0000     0.0000 </r>
        <r>    15.2616     0.0295     0.0294     0.0439     0.0368     0.0000     0.0000     0.0000     0.0000     0.0000 </r>
        <r>    15.3906     0.0286     0.0252     0.0446     0.0324     0.0000     0.0000     0.0000     0.0000     0.0000 </r>
        <r>    15.5195     0.0280     0.0248     0.0456     0.0323     0.0000     0.0000     0.0000     0.0000     0.0000 </r>
        <r>    15.6484     0.0274     0.0252     0.0479     0.0323     0.0000     0.0000     0.0000     0.0000     0.0000 </r>
        <r>    15.7773     0.0269     0.0248     0.0489     0.0318     0.0000     0.0000     0.0000     0.0000     0.0000 </r>
        <r>    15.9062     0.0271     0.0255     0.0509     0.0328     0.0000     0.0000     0.0000     0.0000     0.0000 </r>
        <r>    16.0351     0.0290     0.0277     0.0559     0.0350     0.0000     0.0000     0.0000     0.0000     0.0000 </r>
        <r>    16.1640     0.0274     0.0267     0.0548     0.0333     0.0000     0.0000     0.0000     0.0000     0.0000 </r>
        <r>    16.2930     0.0237     0.0252     0.0526     0.0316     0.0000     0.0000     0.0000     0.0000     0.0000 </r>
        <r>    16.4219     0.0220     0.0249     0.0491     0.0302     0.0000     0.0000     0.0000     0.0000     0.0000 </r>
        <r>    16.5508     0.0221     0.0199     0.0397     0.0218     0.0000     0.0000     0.0000     0.0000     0.0000 </r>
        <r>    16.6797     0.0315     0.0243     0.0474     0.0276     0.0000     0.0000     0.0000     0.0000     0.0000 </r>
        <r>    16.8086     0.0276     0.0212     0.0378     0.0239     0.0000     0.0000     0.0000     0.0000     0.0000 </r>
        <r>    16.9375     0.0233     0.0174     0.0293     0.0175     0.0000     0.0000     0.0000     0.0000     0.0000 </r>
        <r>    17.0664     0.0223     0.0152     0.0258     0.0151     0.0000     0.0000     0.0000     0.0000     0.0000 </r>
        <r>    17.1954     0.0232     0.0205     0.0296     0.0216     0.0000     0.0000     0.0000     0.0000     0.0000 </r>
        <r>    17.3243     0.0267     0.0270     0.0382     0.0302     0.0000     0.0000     0.0000     0.0000     0.0000 </r>
        <r>    17.4532     0.0289     0.0292     0.0446     0.0339     0.0000     0.0000     0.0000     0.0000     0.0000 </r>
        <r>    17.5821     0.0302     0.0308     0.0486     0.0355     0.0000     0.0000     0.0000     0.0000     0.0000 </r>
        <r>    17.7110     0.0309     0.0315     0.0490     0.0396     0.0000     0.0000     0.0000     0.0000     0.0000 </r>
        <r>    17.8399     0.0332     0.0342     0.0559     0.0446     0.0000     0.0000     0.0000     0.0000     0.0000 </r>
        <r>    17.9688     0.0338     0.0343     0.0591     0.0471     0.0000     0.0000     0.0000     0.0000     0.0000 </r>
        <r>    18.0977     0.0359     0.0343     0.0675     0.0494     0.0000     0.0000     0.0000     0.0000     0.0000 </r>
        <r>    18.2267     0.0315     0.0336     0.0584     0.0407     0.0000     0.0000     0.0000     0.0000     0.0000 </r>
        <r>    18.3556     0.0281     0.0348     0.0512     0.0388     0.0000     0.0000     0.0000     0.0000     0.0000 </r>
        <r>    18.4845     0.0240     0.0292     0.0443     0.0329     0.0000     0.0000     0.0000     0.0000     0.0000 </r>
        <r>    18.6134     0.0239     0.0278     0.0442     0.0315     0.0000     0.0000     0.0000     0.0000     0.0000 </r>
        <r>    18.7423     0.0244     0.0276     0.0496     0.0313     0.0000     0.0000     0.0000     0.0000     0.0000 </r>
        <r>    18.8712     0.0264     0.0295     0.0621     0.0339     0.0000     0.0000     0.0000     0.0000     0.0000 </r>
        <r>    19.0001     0.0247     0.0311     0.0590     0.0368     0.0000     0.0000     0.0000     0.0000     0.0000 </r>
        <r>    19.1291     0.0301     0.0347     0.0743     0.0489     0.0000     0.0000     0.0000     0.0000     0.0000 </r>
        <r>    19.2580     0.0343     0.0367     0.0792     0.0490     0.0000     0.0000     0.0000     0.0000     0.0000 </r>
        <r>    19.3869     0.0351     0.0352     0.0877     0.0514     0.0000     0.0000     0.0000     0.0000     0.0000 </r>
        <r>    19.5158     0.0268     0.0319     0.0873     0.0476     0.0000     0.0000     0.0000     0.0000     0.0000 </r>
        <r>    19.6447     0.0218     0.0297     0.0799     0.0437     0.0000     0.0000     0.0000     0.0000     0.0000 </r>
        <r>    19.7736     0.0180     0.0281     0.0801     0.0416     0.0000     0.0000     0.0000     0.0000     0.0000 </r>
        <r>    19.9025     0.0139     0.0255     0.0598     0.0347     0.0000     0.0000     0.0000     0.0000     0.0000 </r>
        <r>    20.0314     0.0115     0.0233     0.0460     0.0289     0.0000     0.0000     0.0000     0.0000     0.0000 </r>
        <r>    20.1604     0.0105     0.0228     0.0423     0.0266     0.0000     0.0000     0.0000     0.0000     0.0000 </r>
        <r>    20.2893     0.0135     0.0271     0.0504     0.0340     0.0000     0.0000     0.0000     0.0000     0.0000 </r>
        <r>    20.4182     0.0144     0.0288     0.0492     0.0339     0.0000     0.0000     0.0000     0.0000     0.0000 </r>
        <r>    20.5471     0.0169     0.0309     0.0517     0.0360     0.0000     0.0000     0.0000     0.0000     0.0000 </r>
        <r>    20.6760     0.0202     0.0351     0.0527     0.0383     0.0000     0.0000     0.0000     0.0000     0.0000 </r>
        <r>    20.8049     0.0224     0.0366     0.0524     0.0390     0.0000     0.0000     0.0000     0.0000     0.0000 </r>
        <r>    20.9338     0.0180     0.0330     0.0477     0.0358     0.0000     0.0000     0.0000     0.0000     0.0000 </r>
        <r>    21.0628     0.0138     0.0291     0.0420     0.0308     0.0000     0.0000     0.0000     0.0000     0.0000 </r>
        <r>    21.1917     0.0097     0.0225     0.0302     0.0241     0.0000     0.0000     0.0000     0.0000     0.0000 </r>
        <r>    21.3206     0.0090     0.0276     0.0287     0.0261     0.0000     0.0000     0.0000     0.0000     0.0000 </r>
        <r>    21.4495     0.0077     0.0267     0.0258     0.0239     0.0000     0.0000     0.0000     0.0000     0.0000 </r>
        <r>    21.5784     0.0072     0.0244     0.0245     0.0217     0.0000     0.0000     0.0000     0.0000     0.0000 </r>
        <r>    21.7073     0.0072     0.0243     0.0267     0.0220     0.0000     0.0000     0.0000     0.0000     0.0000 </r>
        <r>    21.8362     0.0106     0.0270     0.0364     0.0251     0.0000     0.0000     0.0000     0.0000     0.0000 </r>
        <r>    21.9652     0.0157     0.0308     0.0430     0.0292     0.0000     0.0000     0.0000     0.0000     0.0000 </r>
        <r>    22.0941     0.0188     0.0249     0.0342     0.0231     0.0000     0.0000     0.0000     0.0000     0.0000 </r>
        <r>    22.2230     0.0233     0.0238     0.0348     0.0246     0.0000     0.0000     0.0000     0.0000     0.0000 </r>
        <r>    22.3519     0.0223     0.0207     0.0291     0.0239     0.0000     0.0000     0.0000     0.0000     0.0000 </r>
        <r>    22.4808     0.0227     0.0232     0.0272     0.0295     0.0000     0.0000     0.0000     0.0000     0.0000 </r>
        <r>    22.6097     0.0246     0.0278     0.0306     0.0322     0.0000     0.0000     0.0000     0.0000     0.0000 </r>
        <r>    22.7386     0.0214     0.0211     0.0229     0.0261     0.0000     0.0000     0.0000     0.0000     0.0000 </r>
        <r>    22.8675     0.0235     0.0213     0.0271     0.0263     0.0000     0.0000     0.0000     0.0000     0.0000 </r>
        <r>    22.9965     0.0237     0.0218     0.0325     0.0297     0.0000     0.0000     0.0000     0.0000     0.0000 </r>
        <r>    23.1254     0.0260     0.0222     0.0443     0.0360     0.0000     0.0000     0.0000     0.0000     0.0000 </r>
        <r>    23.2543     0.0267     0.0202     0.0465     0.0374     0.0000     0.0000     0.0000     0.0000     0.0000 </r>
        <r>    23.3832     0.0259     0.0192     0.0486     0.0368     0.0000     0.0000     0.0000     0.0000     0.0000 </r>
        <r>    23.5121     0.0251     0.0202     0.0502     0.0369     0.0000     0.0000     0.0000     0.0000     0.0000 </r>
        <r>    23.6410     0.0226     0.0185     0.0450     0.0337     0.0000     0.0000     0.0000     0.0000     0.0000 </r>
        <r>    23.7699     0.0214     0.0186     0.0506     0.0373     0.0000     0.0000     0.0000     0.0000     0.0000 </r>
        <r>    23.8989     0.0144     0.0129     0.0262     0.0226     0.0000     0.0000     0.0000     0.0000     0.0000 </r>
        <r>    24.0278     0.0087     0.0082     0.0153     0.0156     0.0000     0.0000     0.0000     0.0000     0.0000 </r>
        <r>    24.1567     0.0058     0.0057     0.0061     0.0090     0.0000     0.0000     0.0000     0.0000     0.0000 </r>
        <r>    24.2856     0.0046     0.0054     0.0050     0.0077     0.0000     0.0000     0.0000     0.0000     0.0000 </r>
        <r>    24.4145     0.0030     0.0040     0.0037     0.0053     0.0000     0.0000     0.0000     0.0000     0.0000 </r>
        <r>    24.5434     0.0018     0.0026     0.0027     0.0037     0.0000     0.0000     0.0000     0.0000     0.0000 </r>
        <r>    24.6723     0.0017     0.0027     0.0031     0.0037     0.0000     0.0000     0.0000     0.0000     0.0000 </r>
        <r>    24.8012     0.0018     0.0029     0.0036     0.0039     0.0000     0.0000     0.0000     0.0000     0.0000 </r>
        <r>    24.9302     0.0011     0.0019     0.0021     0.0026     0.0000     0.0000     0.0000     0.0000     0.0000 </r>
        <r>    25.0591     0.0010     0.0017     0.0018     0.0022     0.0000     0.0000     0.0000     0.0000     0.0000 </r>
        <r>    25.1880     0.0010     0.0017     0.0017     0.0020     0.0000     0.0000     0.0000     0.0000     0.0000 </r>
        <r>    25.3169     0.0011     0.0017     0.0017     0.0020     0.0000     0.0000     0.0000     0.0000     0.0000 </r>
        <r>    25.4458     0.0003     0.0010     0.0005     0.0008     0.0000     0.0000     0.0000     0.0000     0.0000 </r>
        <r>    25.5747     0.0003     0.0009     0.0004     0.0007     0.0000     0.0000     0.0000     0.0000     0.0000 </r>
        <r>    25.7036     0.0002     0.0008     0.0004     0.0007     0.0000     0.0000     0.0000     0.0000     0.0000 </r>
        <r>    25.8326     0.0002     0.0007     0.0003     0.0006     0.0000     0.0000     0.0000     0.0000     0.0000 </r>
        <r>    25.9615     0.0001     0.0006     0.0002     0.0005     0.0000     0.0000     0.0000     0.0000     0.0000 </r>
        <r>    26.0904     0.0001     0.0005     0.0001     0.0005     0.0000     0.0000     0.0000     0.0000     0.0000 </r>
        <r>    26.2193     0.0000     0.0004     0.0001     0.0005     0.0000     0.0000     0.0000     0.0000     0.0000 </r>
        <r>    26.3482     0.0000     0.0003     0.0001     0.0005     0.0000     0.0000     0.0000     0.0000     0.0000 </r>
        <r>    26.4771     0.0000     0.0003     0.0001     0.0004     0.0000     0.0000     0.0000     0.0000     0.0000 </r>
        <r>    26.6060     0.0000     0.0003     0.0001     0.0004     0.0000     0.0000     0.0000     0.0000     0.0000 </r>
        <r>    26.7350     0.0000     0.0002     0.0001     0.0004     0.0000     0.0000     0.0000     0.0000     0.0000 </r>
        <r>    26.8639     0.0000     0.0002     0.0001     0.0003     0.0000     0.0000     0.0000     0.0000     0.0000 </r>
        <r>    26.9928     0.0000     0.0002     0.0001     0.0003     0.0000     0.0000     0.0000     0.0000     0.0000 </r>
        <r>    27.1217     0.0000     0.0001     0.0001     0.0003     0.0000     0.0000     0.0000     0.0000     0.0000 </r>
        <r>    27.2506     0.0000     0.0001     0.0001     0.0002     0.0000     0.0000     0.0000     0.0000     0.0000 </r>
        <r>    27.3795     0.0000     0.0001     0.0001     0.0002     0.0000     0.0000     0.0000     0.0000     0.0000 </r>
        <r>    27.5084     0.0000     0.0001     0.0001     0.0002     0.0000     0.0000     0.0000     0.0000     0.0000 </r>
        <r>    27.6373     0.0000     0.0001     0.0001     0.0002     0.0000     0.0000     0.0000     0.0000     0.0000 </r>
        <r>    27.7663     0.0000     0.0001     0.0001     0.0002     0.0000     0.0000     0.0000     0.0000     0.0000 </r>
        <r>    27.8952     0.0000     0.0000     0.0001     0.0001     0.0000     0.0000     0.0000     0.0000     0.0000 </r>
        <r>    28.0241     0.0000     0.0000     0.0000     0.0001     0.0000     0.0000     0.0000     0.0000     0.0000 </r>
        <r>    28.1530     0.0000     0.0000     0.0000     0.0000     0.0000     0.0000     0.0000     0.0000     0.0000 </r>
        <r>    28.2819     0.0000     0.0000     0.0000     0.0000     0.0000     0.0000     0.0000     0.0000     0.0000 </r>
        <r>    28.4108     0.0000     0.0000     0.0000     0.0000     0.0000     0.0000     0.0000     0.0000     0.0000 </r>
        <r>    28.5397     0.0000     0.0000     0.0000     0.0000     0.0000     0.0000     0.0000     0.0000     0.0000 </r>
        <r>    28.6687     0.0000     0.0000     0.0000     0.0000     0.0000     0.0000     0.0000     0.0000     0.0000 </r>
        <r>    28.7976     0.0000     0.0000     0.0000     0.0000     0.0000     0.0000     0.0000     0.0000     0.0000 </r>
        <r>    28.9265     0.0000     0.0000     0.0000     0.0000     0.0000     0.0000     0.0000     0.0000     0.0000 </r>
        <r>    29.0554     0.0000     0.0000     0.0000     0.0000     0.0000     0.0000     0.0000     0.0000     0.0000 </r>
        <r>    29.1843     0.0000     0.0000     0.0000     0.0000     0.0000     0.0000     0.0000     0.0000     0.0000 </r>
        <r>    29.3132     0.0000     0.0000     0.0000     0.0000     0.0000     0.0000     0.0000     0.0000     0.0000 </r>
        <r>    29.4421     0.0000     0.0000     0.0000     0.0000     0.0000     0.0000     0.0000     0.0000     0.0000 </r>
        <r>    29.5710     0.0000     0.0000     0.0000     0.0000     0.0000     0.0000     0.0000     0.0000     0.0000 </r>
        <r>    29.7000     0.0000     0.0000     0.0000     0.0000     0.0000     0.0000     0.0000     0.0000     0.0000 </r>
        <r>    29.8289     0.0000     0.0000     0.0000     0.0000     0.0000     0.0000     0.0000     0.0000     0.0000 </r>
        <r>    29.9578     0.0000     0.0000     0.0000     0.0000     0.0000     0.0000     0.0000     0.0000     0.0000 </r>
        <r>    30.0867     0.0000     0.0000     0.0000     0.0000     0.0000     0.0000     0.0000     0.0000     0.0000 </r>
        <r>    30.2156     0.0000     0.0000     0.0000     0.0000     0.0000     0.0000     0.0000     0.0000     0.0000 </r>
        <r>    30.3445     0.0000     0.0000     0.0000     0.0000     0.0000     0.0000     0.0000     0.0000     0.0000 </r>
        <r>    30.4734     0.0000     0.0000     0.0000     0.0000     0.0000     0.0000     0.0000     0.0000     0.0000 </r>
       </set>
      </set>
      <set comment="ion 2">
       <set comment="spin 1">
        <r>    -8.2006     0.0000     0.0000     0.0000     0.0000     0.0000     0.0000     0.0000     0.0000     0.0000 </r>
        <r>    -8.0717     0.0000     0.0000     0.0000     0.0000     0.0000     0.0000     0.0000     0.0000     0.0000 </r>
        <r>    -7.9428     0.0000     0.0000     0.0000     0.0000     0.0000     0.0000     0.0000     0.0000     0.0000 </r>
        <r>    -7.8139     0.0000     0.0000     0.0000     0.0000     0.0000     0.0000     0.0000     0.0000     0.0000 </r>
        <r>    -7.6850     0.0000     0.0000     0.0000     0.0000     0.0000     0.0000     0.0000     0.0000     0.0000 </r>
        <r>    -7.5560     0.0000     0.0000     0.0000     0.0000     0.0000     0.0000     0.0000     0.0000     0.0000 </r>
        <r>    -7.4271     0.0000     0.0000     0.0000     0.0000     0.0000     0.0000     0.0000     0.0000     0.0000 </r>
        <r>    -7.2982     0.0000     0.0000     0.0000     0.0000     0.0000     0.0000     0.0000     0.0000     0.0000 </r>
        <r>    -7.1693     0.0000     0.0000     0.0000     0.0000     0.0000     0.0000     0.0000     0.0000     0.0000 </r>
        <r>    -7.0404     0.0000     0.0000     0.0000     0.0000     0.0000     0.0000     0.0000     0.0000     0.0000 </r>
        <r>    -6.9115     0.0000     0.0000     0.0000     0.0000     0.0000     0.0000     0.0000     0.0000     0.0000 </r>
        <r>    -6.7826     0.0000     0.0000     0.0000     0.0000     0.0000     0.0000     0.0000     0.0000     0.0000 </r>
        <r>    -6.6537     0.0000     0.0000     0.0000     0.0000     0.0000     0.0000     0.0000     0.0000     0.0000 </r>
        <r>    -6.5247     0.0000     0.0000     0.0000     0.0000     0.0000     0.0000     0.0000     0.0000     0.0000 </r>
        <r>    -6.3958     0.0000     0.0000     0.0000     0.0000     0.0000     0.0000     0.0000     0.0000     0.0000 </r>
        <r>    -6.2669     0.0000     0.0000     0.0000     0.0000     0.0000     0.0000     0.0000     0.0000     0.0000 </r>
        <r>    -6.1380     0.0179     0.0000     0.0000     0.0000     0.0000     0.0000     0.0000     0.0000     0.0000 </r>
        <r>    -6.0091     0.0321     0.0001     0.0002     0.0001     0.0000     0.0000     0.0000     0.0000     0.0000 </r>
        <r>    -5.8802     0.0417     0.0002     0.0004     0.0001     0.0000     0.0000     0.0000     0.0000     0.0000 </r>
        <r>    -5.7513     0.0495     0.0003     0.0007     0.0002     0.0000     0.0000     0.0000     0.0000     0.0000 </r>
        <r>    -5.6223     0.0575     0.0004     0.0010     0.0003     0.0000     0.0000     0.0000     0.0000     0.0000 </r>
        <r>    -5.4934     0.0638     0.0005     0.0013     0.0004     0.0000     0.0000     0.0000     0.0000     0.0000 </r>
        <r>    -5.3645     0.0701     0.0007     0.0017     0.0006     0.0000     0.0000     0.0000     0.0000     0.0000 </r>
        <r>    -5.2356     0.0768     0.0008     0.0021     0.0007     0.0000     0.0000     0.0000     0.0000     0.0000 </r>
        <r>    -5.1067     0.0822     0.0010     0.0024     0.0010     0.0000     0.0000     0.0000     0.0000     0.0000 </r>
        <r>    -4.9778     0.0884     0.0011     0.0030     0.0011     0.0000     0.0000     0.0000     0.0000     0.0000 </r>
        <r>    -4.8489     0.0950     0.0013     0.0035     0.0013     0.0000     0.0000     0.0000     0.0000     0.0000 </r>
        <r>    -4.7199     0.1010     0.0015     0.0040     0.0016     0.0000     0.0000     0.0000     0.0000     0.0000 </r>
        <r>    -4.5910     0.1080     0.0017     0.0046     0.0018     0.0000     0.0000     0.0000     0.0000     0.0000 </r>
        <r>    -4.4621     0.1158     0.0019     0.0053     0.0020     0.0000     0.0000     0.0000     0.0000     0.0000 </r>
        <r>    -4.3332     0.1244     0.0021     0.0060     0.0022     0.0000     0.0000     0.0000     0.0000     0.0000 </r>
        <r>    -4.2043     0.1352     0.0023     0.0067     0.0027     0.0000     0.0000     0.0000     0.0000     0.0000 </r>
        <r>    -4.0754     0.1511     0.0026     0.0076     0.0032     0.0000     0.0000     0.0000     0.0000     0.0000 </r>
        <r>    -3.9465     0.1865     0.0033     0.0091     0.0040     0.0000     0.0000     0.0000     0.0000     0.0000 </r>
        <r>    -3.8176     0.1948     0.0034     0.0102     0.0045     0.0000     0.0000     0.0000     0.0000     0.0000 </r>
        <r>    -3.6886     0.1801     0.0030     0.0105     0.0046     0.0000     0.0000     0.0000     0.0000     0.0000 </r>
        <r>    -3.5597     0.1692     0.0027     0.0109     0.0046     0.0000     0.0000     0.0000     0.0000     0.0000 </r>
        <r>    -3.4308     0.1626     0.0025     0.0115     0.0045     0.0000     0.0000     0.0000     0.0000     0.0000 </r>
        <r>    -3.3019     0.1490     0.0021     0.0116     0.0044     0.0000     0.0000     0.0000     0.0000     0.0000 </r>
        <r>    -3.1730     0.1398     0.0018     0.0118     0.0044     0.0000     0.0000     0.0000     0.0000     0.0000 </r>
        <r>    -3.0441     0.1308     0.0016     0.0120     0.0042     0.0000     0.0000     0.0000     0.0000     0.0000 </r>
        <r>    -2.9152     0.1190     0.0012     0.0121     0.0039     0.0000     0.0000     0.0000     0.0000     0.0000 </r>
        <r>    -2.7862     0.1100     0.0010     0.0120     0.0036     0.0000     0.0000     0.0000     0.0000     0.0000 </r>
        <r>    -2.6573     0.0990     0.0007     0.0118     0.0032     0.0000     0.0000     0.0000     0.0000     0.0000 </r>
        <r>    -2.5284     0.0950     0.0005     0.0127     0.0029     0.0000     0.0000     0.0000     0.0000     0.0000 </r>
        <r>    -2.3995     0.0730     0.0002     0.0106     0.0022     0.0000     0.0000     0.0000     0.0000     0.0000 </r>
        <r>    -2.2706     0.0496     0.0001     0.0070     0.0020     0.0000     0.0000     0.0000     0.0000     0.0000 </r>
        <r>    -2.1417     0.0000     0.0000     0.0000     0.0000     0.0000     0.0000     0.0000     0.0000     0.0000 </r>
        <r>    -2.0128     0.0030     0.0000     0.0007     0.0000     0.0000     0.0000     0.0000     0.0000     0.0000 </r>
        <r>    -1.8839     0.0168     0.0001     0.0038     0.0002     0.0000     0.0000     0.0000     0.0000     0.0000 </r>
        <r>    -1.7549     0.0462     0.0002     0.0098     0.0014     0.0000     0.0000     0.0000     0.0000     0.0000 </r>
        <r>    -1.6260     0.0738     0.0006     0.0147     0.0036     0.0000     0.0000     0.0000     0.0000     0.0000 </r>
        <r>    -1.4971     0.0831     0.0011     0.0165     0.0048     0.0000     0.0000     0.0000     0.0000     0.0000 </r>
        <r>    -1.3682     0.0995     0.0020     0.0200     0.0069     0.0000     0.0000     0.0000     0.0000     0.0000 </r>
        <r>    -1.2393     0.1182     0.0035     0.0241     0.0095     0.0000     0.0000     0.0000     0.0000     0.0000 </r>
        <r>    -1.1104     0.2242     0.0255     0.0514     0.0345     0.0000     0.0000     0.0000     0.0000     0.0000 </r>
        <r>    -0.9815     0.1878     0.0204     0.0432     0.0283     0.0000     0.0000     0.0000     0.0000     0.0000 </r>
        <r>    -0.8525     0.1426     0.0149     0.0332     0.0209     0.0000     0.0000     0.0000     0.0000     0.0000 </r>
        <r>    -0.7236     0.1172     0.0124     0.0278     0.0175     0.0000     0.0000     0.0000     0.0000     0.0000 </r>
        <r>    -0.5947     0.1029     0.0110     0.0250     0.0155     0.0000     0.0000     0.0000     0.0000     0.0000 </r>
        <r>    -0.4658     0.0927     0.0101     0.0230     0.0141     0.0000     0.0000     0.0000     0.0000     0.0000 </r>
        <r>    -0.3369     0.0834     0.0094     0.0213     0.0129     0.0000     0.0000     0.0000     0.0000     0.0000 </r>
        <r>    -0.2080     0.0739     0.0087     0.0194     0.0118     0.0000     0.0000     0.0000     0.0000     0.0000 </r>
        <r>    -0.0791     0.0680     0.0083     0.0182     0.0111     0.0000     0.0000     0.0000     0.0000     0.0000 </r>
        <r>     0.0499     0.0631     0.0079     0.0174     0.0105     0.0000     0.0000     0.0000     0.0000     0.0000 </r>
        <r>     0.1788     0.0584     0.0076     0.0165     0.0099     0.0000     0.0000     0.0000     0.0000     0.0000 </r>
        <r>     0.3077     0.0529     0.0072     0.0155     0.0092     0.0000     0.0000     0.0000     0.0000     0.0000 </r>
        <r>     0.4366     0.0475     0.0068     0.0144     0.0085     0.0000     0.0000     0.0000     0.0000     0.0000 </r>
        <r>     0.5655     0.0446     0.0066     0.0138     0.0082     0.0000     0.0000     0.0000     0.0000     0.0000 </r>
        <r>     0.6944     0.0418     0.0064     0.0133     0.0079     0.0000     0.0000     0.0000     0.0000     0.0000 </r>
        <r>     0.8233     0.0387     0.0061     0.0126     0.0075     0.0000     0.0000     0.0000     0.0000     0.0000 </r>
        <r>     0.9522     0.0354     0.0059     0.0119     0.0070     0.0000     0.0000     0.0000     0.0000     0.0000 </r>
        <r>     1.0812     0.0314     0.0055     0.0111     0.0064     0.0000     0.0000     0.0000     0.0000     0.0000 </r>
        <r>     1.2101     0.0294     0.0053     0.0106     0.0062     0.0000     0.0000     0.0000     0.0000     0.0000 </r>
        <r>     1.3390     0.0278     0.0073     0.0126     0.0080     0.0000     0.0000     0.0000     0.0000     0.0000 </r>
        <r>     1.4679     0.0294     0.0327     0.0397     0.0302     0.0000     0.0000     0.0000     0.0000     0.0000 </r>
        <r>     1.5968     0.0329     0.0677     0.0687     0.0624     0.0000     0.0000     0.0000     0.0000     0.0000 </r>
        <r>     1.7257     0.0325     0.0610     0.0611     0.0600     0.0000     0.0000     0.0000     0.0000     0.0000 </r>
        <r>     1.8546     0.0313     0.0504     0.0518     0.0535     0.0000     0.0000     0.0000     0.0000     0.0000 </r>
        <r>     1.9836     0.0315     0.0488     0.0505     0.0542     0.0000     0.0000     0.0000     0.0000     0.0000 </r>
        <r>     2.1125     0.0309     0.0458     0.0474     0.0531     0.0000     0.0000     0.0000     0.0000     0.0000 </r>
        <r>     2.2414     0.0301     0.0529     0.0483     0.0592     0.0000     0.0000     0.0000     0.0000     0.0000 </r>
        <r>     2.3703     0.0294     0.0612     0.0507     0.0668     0.0000     0.0000     0.0000     0.0000     0.0000 </r>
        <r>     2.4992     0.0281     0.0636     0.0503     0.0690     0.0000     0.0000     0.0000     0.0000     0.0000 </r>
        <r>     2.6281     0.0262     0.0754     0.0507     0.0791     0.0000     0.0000     0.0000     0.0000     0.0000 </r>
        <r>     2.7570     0.0247     0.0921     0.0499     0.0943     0.0000     0.0000     0.0000     0.0000     0.0000 </r>
        <r>     2.8860     0.0238     0.1105     0.0505     0.1114     0.0000     0.0000     0.0000     0.0000     0.0000 </r>
        <r>     3.0149     0.0226     0.1095     0.0496     0.1083     0.0000     0.0000     0.0000     0.0000     0.0000 </r>
        <r>     3.1438     0.0213     0.1112     0.0487     0.1078     0.0000     0.0000     0.0000     0.0000     0.0000 </r>
        <r>     3.2727     0.0196     0.1094     0.0481     0.1036     0.0000     0.0000     0.0000     0.0000     0.0000 </r>
        <r>     3.4016     0.0179     0.1081     0.0486     0.0999     0.0000     0.0000     0.0000     0.0000     0.0000 </r>
        <r>     3.5305     0.0159     0.1108     0.0483     0.0989     0.0000     0.0000     0.0000     0.0000     0.0000 </r>
        <r>     3.6594     0.0144     0.1089     0.0472     0.0937     0.0000     0.0000     0.0000     0.0000     0.0000 </r>
        <r>     3.7883     0.0130     0.1101     0.0447     0.0932     0.0000     0.0000     0.0000     0.0000     0.0000 </r>
        <r>     3.9173     0.0117     0.1126     0.0433     0.0921     0.0000     0.0000     0.0000     0.0000     0.0000 </r>
        <r>     4.0462     0.0106     0.1128     0.0451     0.0903     0.0000     0.0000     0.0000     0.0000     0.0000 </r>
        <r>     4.1751     0.0091     0.1144     0.0443     0.0916     0.0000     0.0000     0.0000     0.0000     0.0000 </r>
        <r>     4.3040     0.0073     0.1125     0.0407     0.0902     0.0000     0.0000     0.0000     0.0000     0.0000 </r>
        <r>     4.4329     0.0059     0.0961     0.0391     0.0745     0.0000     0.0000     0.0000     0.0000     0.0000 </r>
        <r>     4.5618     0.0052     0.0693     0.0322     0.0539     0.0000     0.0000     0.0000     0.0000     0.0000 </r>
        <r>     4.6907     0.0047     0.0546     0.0301     0.0416     0.0000     0.0000     0.0000     0.0000     0.0000 </r>
        <r>     4.8197     0.0037     0.0450     0.0254     0.0340     0.0000     0.0000     0.0000     0.0000     0.0000 </r>
        <r>     4.9486     0.0030     0.0372     0.0225     0.0273     0.0000     0.0000     0.0000     0.0000     0.0000 </r>
        <r>     5.0775     0.0021     0.0324     0.0188     0.0243     0.0000     0.0000     0.0000     0.0000     0.0000 </r>
        <r>     5.2064     0.0014     0.0243     0.0151     0.0190     0.0000     0.0000     0.0000     0.0000     0.0000 </r>
        <r>     5.3353     0.0008     0.0181     0.0099     0.0146     0.0000     0.0000     0.0000     0.0000     0.0000 </r>
        <r>     5.4642     0.0002     0.0100     0.0061     0.0074     0.0000     0.0000     0.0000     0.0000     0.0000 </r>
        <r>     5.5931     0.0000     0.0002     0.0001     0.0002     0.0000     0.0000     0.0000     0.0000     0.0000 </r>
        <r>     5.7220     0.0000     0.0000     0.0000     0.0000     0.0000     0.0000     0.0000     0.0000     0.0000 </r>
        <r>     5.8510     0.0000     0.0000     0.0000     0.0000     0.0000     0.0000     0.0000     0.0000     0.0000 </r>
        <r>     5.9799     0.0000     0.0000     0.0000     0.0000     0.0000     0.0000     0.0000     0.0000     0.0000 </r>
        <r>     6.1088     0.0000     0.0000     0.0000     0.0000     0.0000     0.0000     0.0000     0.0000     0.0000 </r>
        <r>     6.2377     0.0000     0.0000     0.0000     0.0000     0.0000     0.0000     0.0000     0.0000     0.0000 </r>
        <r>     6.3666     0.0059     0.0003     0.0049     0.0003     0.0000     0.0000     0.0000     0.0000     0.0000 </r>
        <r>     6.4955     0.0109     0.0010     0.0095     0.0009     0.0000     0.0000     0.0000     0.0000     0.0000 </r>
        <r>     6.6244     0.0158     0.0019     0.0140     0.0016     0.0000     0.0000     0.0000     0.0000     0.0000 </r>
        <r>     6.7534     0.0206     0.0031     0.0185     0.0024     0.0000     0.0000     0.0000     0.0000     0.0000 </r>
        <r>     6.8823     0.0229     0.0041     0.0214     0.0031     0.0000     0.0000     0.0000     0.0000     0.0000 </r>
        <r>     7.0112     0.0255     0.0052     0.0247     0.0039     0.0000     0.0000     0.0000     0.0000     0.0000 </r>
        <r>     7.1401     0.0294     0.0066     0.0282     0.0049     0.0000     0.0000     0.0000     0.0000     0.0000 </r>
        <r>     7.2690     0.0402     0.0082     0.0332     0.0062     0.0000     0.0000     0.0000     0.0000     0.0000 </r>
        <r>     7.3979     0.0546     0.0102     0.0393     0.0078     0.0000     0.0000     0.0000     0.0000     0.0000 </r>
        <r>     7.5268     0.0682     0.0124     0.0475     0.0105     0.0000     0.0000     0.0000     0.0000     0.0000 </r>
        <r>     7.6558     0.0865     0.0149     0.0592     0.0144     0.0000     0.0000     0.0000     0.0000     0.0000 </r>
        <r>     7.7847     0.1126     0.0184     0.0760     0.0199     0.0000     0.0000     0.0000     0.0000     0.0000 </r>
        <r>     7.9136     0.1292     0.0210     0.0898     0.0266     0.0000     0.0000     0.0000     0.0000     0.0000 </r>
        <r>     8.0425     0.1181     0.0249     0.0917     0.0284     0.0000     0.0000     0.0000     0.0000     0.0000 </r>
        <r>     8.1714     0.0855     0.0244     0.0734     0.0239     0.0000     0.0000     0.0000     0.0000     0.0000 </r>
        <r>     8.3003     0.0670     0.0223     0.0568     0.0197     0.0000     0.0000     0.0000     0.0000     0.0000 </r>
        <r>     8.4292     0.0632     0.0281     0.0560     0.0229     0.0000     0.0000     0.0000     0.0000     0.0000 </r>
        <r>     8.5581     0.0476     0.0305     0.0409     0.0229     0.0000     0.0000     0.0000     0.0000     0.0000 </r>
        <r>     8.6871     0.0270     0.0291     0.0204     0.0230     0.0000     0.0000     0.0000     0.0000     0.0000 </r>
        <r>     8.8160     0.0297     0.0340     0.0229     0.0314     0.0000     0.0000     0.0000     0.0000     0.0000 </r>
        <r>     8.9449     0.0604     0.0770     0.0815     0.0801     0.0000     0.0000     0.0000     0.0000     0.0000 </r>
        <r>     9.0738     0.0637     0.0768     0.0629     0.0833     0.0000     0.0000     0.0000     0.0000     0.0000 </r>
        <r>     9.2027     0.0681     0.0717     0.0525     0.0767     0.0000     0.0000     0.0000     0.0000     0.0000 </r>
        <r>     9.3316     0.0736     0.0724     0.0529     0.0762     0.0000     0.0000     0.0000     0.0000     0.0000 </r>
        <r>     9.4605     0.0561     0.0665     0.0434     0.0625     0.0000     0.0000     0.0000     0.0000     0.0000 </r>
        <r>     9.5895     0.0302     0.0592     0.0280     0.0460     0.0000     0.0000     0.0000     0.0000     0.0000 </r>
        <r>     9.7184     0.0271     0.0563     0.0238     0.0406     0.0000     0.0000     0.0000     0.0000     0.0000 </r>
        <r>     9.8473     0.0251     0.0547     0.0211     0.0381     0.0000     0.0000     0.0000     0.0000     0.0000 </r>
        <r>     9.9762     0.0290     0.0648     0.0243     0.0425     0.0000     0.0000     0.0000     0.0000     0.0000 </r>
        <r>    10.1051     0.0343     0.0662     0.0266     0.0439     0.0000     0.0000     0.0000     0.0000     0.0000 </r>
        <r>    10.2340     0.0382     0.0607     0.0276     0.0422     0.0000     0.0000     0.0000     0.0000     0.0000 </r>
        <r>    10.3629     0.0361     0.0552     0.0256     0.0413     0.0000     0.0000     0.0000     0.0000     0.0000 </r>
        <r>    10.4918     0.0385     0.0548     0.0259     0.0439     0.0000     0.0000     0.0000     0.0000     0.0000 </r>
        <r>    10.6208     0.0518     0.0682     0.0356     0.0597     0.0000     0.0000     0.0000     0.0000     0.0000 </r>
        <r>    10.7497     0.0445     0.0541     0.0284     0.0502     0.0000     0.0000     0.0000     0.0000     0.0000 </r>
        <r>    10.8786     0.0377     0.0495     0.0255     0.0481     0.0000     0.0000     0.0000     0.0000     0.0000 </r>
        <r>    11.0075     0.0362     0.0507     0.0254     0.0519     0.0000     0.0000     0.0000     0.0000     0.0000 </r>
        <r>    11.1364     0.0344     0.0474     0.0252     0.0487     0.0000     0.0000     0.0000     0.0000     0.0000 </r>
        <r>    11.2653     0.0338     0.0456     0.0267     0.0477     0.0000     0.0000     0.0000     0.0000     0.0000 </r>
        <r>    11.3942     0.0317     0.0451     0.0274     0.0492     0.0000     0.0000     0.0000     0.0000     0.0000 </r>
        <r>    11.5232     0.0293     0.0460     0.0281     0.0525     0.0000     0.0000     0.0000     0.0000     0.0000 </r>
        <r>    11.6521     0.0230     0.0407     0.0236     0.0439     0.0000     0.0000     0.0000     0.0000     0.0000 </r>
        <r>    11.7810     0.0220     0.0411     0.0236     0.0426     0.0000     0.0000     0.0000     0.0000     0.0000 </r>
        <r>    11.9099     0.0238     0.0428     0.0269     0.0463     0.0000     0.0000     0.0000     0.0000     0.0000 </r>
        <r>    12.0388     0.0260     0.0442     0.0305     0.0484     0.0000     0.0000     0.0000     0.0000     0.0000 </r>
        <r>    12.1677     0.0280     0.0441     0.0304     0.0468     0.0000     0.0000     0.0000     0.0000     0.0000 </r>
        <r>    12.2966     0.0384     0.0458     0.0343     0.0476     0.0000     0.0000     0.0000     0.0000     0.0000 </r>
        <r>    12.4256     0.0322     0.0452     0.0345     0.0472     0.0000     0.0000     0.0000     0.0000     0.0000 </r>
        <r>    12.5545     0.0292     0.0417     0.0317     0.0434     0.0000     0.0000     0.0000     0.0000     0.0000 </r>
        <r>    12.6834     0.0255     0.0384     0.0280     0.0400     0.0000     0.0000     0.0000     0.0000     0.0000 </r>
        <r>    12.8123     0.0223     0.0356     0.0246     0.0375     0.0000     0.0000     0.0000     0.0000     0.0000 </r>
        <r>    12.9412     0.0249     0.0400     0.0309     0.0409     0.0000     0.0000     0.0000     0.0000     0.0000 </r>
        <r>    13.0701     0.0248     0.0426     0.0354     0.0441     0.0000     0.0000     0.0000     0.0000     0.0000 </r>
        <r>    13.1990     0.0260     0.0448     0.0406     0.0459     0.0000     0.0000     0.0000     0.0000     0.0000 </r>
        <r>    13.3279     0.0251     0.0433     0.0412     0.0447     0.0000     0.0000     0.0000     0.0000     0.0000 </r>
        <r>    13.4569     0.0238     0.0464     0.0485     0.0490     0.0000     0.0000     0.0000     0.0000     0.0000 </r>
        <r>    13.5858     0.0220     0.0343     0.0346     0.0351     0.0000     0.0000     0.0000     0.0000     0.0000 </r>
        <r>    13.7147     0.0229     0.0331     0.0335     0.0338     0.0000     0.0000     0.0000     0.0000     0.0000 </r>
        <r>    13.8436     0.0228     0.0340     0.0350     0.0346     0.0000     0.0000     0.0000     0.0000     0.0000 </r>
        <r>    13.9725     0.0235     0.0353     0.0372     0.0359     0.0000     0.0000     0.0000     0.0000     0.0000 </r>
        <r>    14.1014     0.0249     0.0370     0.0397     0.0384     0.0000     0.0000     0.0000     0.0000     0.0000 </r>
        <r>    14.2303     0.0252     0.0371     0.0396     0.0393     0.0000     0.0000     0.0000     0.0000     0.0000 </r>
        <r>    14.3593     0.0257     0.0382     0.0392     0.0409     0.0000     0.0000     0.0000     0.0000     0.0000 </r>
        <r>    14.4882     0.0273     0.0383     0.0419     0.0437     0.0000     0.0000     0.0000     0.0000     0.0000 </r>
        <r>    14.6171     0.0313     0.0344     0.0413     0.0397     0.0000     0.0000     0.0000     0.0000     0.0000 </r>
        <r>    14.7460     0.0333     0.0332     0.0420     0.0395     0.0000     0.0000     0.0000     0.0000     0.0000 </r>
        <r>    14.8749     0.0344     0.0326     0.0441     0.0390     0.0000     0.0000     0.0000     0.0000     0.0000 </r>
        <r>    15.0038     0.0319     0.0301     0.0436     0.0369     0.0000     0.0000     0.0000     0.0000     0.0000 </r>
        <r>    15.1327     0.0305     0.0292     0.0437     0.0365     0.0000     0.0000     0.0000     0.0000     0.0000 </r>
        <r>    15.2616     0.0295     0.0294     0.0439     0.0368     0.0000     0.0000     0.0000     0.0000     0.0000 </r>
        <r>    15.3906     0.0286     0.0252     0.0446     0.0324     0.0000     0.0000     0.0000     0.0000     0.0000 </r>
        <r>    15.5195     0.0280     0.0248     0.0456     0.0323     0.0000     0.0000     0.0000     0.0000     0.0000 </r>
        <r>    15.6484     0.0274     0.0252     0.0479     0.0323     0.0000     0.0000     0.0000     0.0000     0.0000 </r>
        <r>    15.7773     0.0269     0.0248     0.0489     0.0318     0.0000     0.0000     0.0000     0.0000     0.0000 </r>
        <r>    15.9062     0.0271     0.0255     0.0509     0.0328     0.0000     0.0000     0.0000     0.0000     0.0000 </r>
        <r>    16.0351     0.0290     0.0277     0.0559     0.0350     0.0000     0.0000     0.0000     0.0000     0.0000 </r>
        <r>    16.1640     0.0274     0.0267     0.0548     0.0333     0.0000     0.0000     0.0000     0.0000     0.0000 </r>
        <r>    16.2930     0.0237     0.0252     0.0526     0.0316     0.0000     0.0000     0.0000     0.0000     0.0000 </r>
        <r>    16.4219     0.0220     0.0249     0.0491     0.0302     0.0000     0.0000     0.0000     0.0000     0.0000 </r>
        <r>    16.5508     0.0221     0.0199     0.0397     0.0218     0.0000     0.0000     0.0000     0.0000     0.0000 </r>
        <r>    16.6797     0.0315     0.0243     0.0474     0.0276     0.0000     0.0000     0.0000     0.0000     0.0000 </r>
        <r>    16.8086     0.0276     0.0212     0.0378     0.0239     0.0000     0.0000     0.0000     0.0000     0.0000 </r>
        <r>    16.9375     0.0233     0.0174     0.0293     0.0175     0.0000     0.0000     0.0000     0.0000     0.0000 </r>
        <r>    17.0664     0.0223     0.0152     0.0258     0.0151     0.0000     0.0000     0.0000     0.0000     0.0000 </r>
        <r>    17.1954     0.0232     0.0205     0.0296     0.0216     0.0000     0.0000     0.0000     0.0000     0.0000 </r>
        <r>    17.3243     0.0267     0.0270     0.0382     0.0302     0.0000     0.0000     0.0000     0.0000     0.0000 </r>
        <r>    17.4532     0.0289     0.0292     0.0446     0.0339     0.0000     0.0000     0.0000     0.0000     0.0000 </r>
        <r>    17.5821     0.0302     0.0308     0.0486     0.0355     0.0000     0.0000     0.0000     0.0000     0.0000 </r>
        <r>    17.7110     0.0309     0.0315     0.0490     0.0396     0.0000     0.0000     0.0000     0.0000     0.0000 </r>
        <r>    17.8399     0.0332     0.0342     0.0559     0.0446     0.0000     0.0000     0.0000     0.0000     0.0000 </r>
        <r>    17.9688     0.0338     0.0343     0.0591     0.0471     0.0000     0.0000     0.0000     0.0000     0.0000 </r>
        <r>    18.0977     0.0359     0.0343     0.0675     0.0494     0.0000     0.0000     0.0000     0.0000     0.0000 </r>
        <r>    18.2267     0.0315     0.0336     0.0584     0.0407     0.0000     0.0000     0.0000     0.0000     0.0000 </r>
        <r>    18.3556     0.0281     0.0348     0.0512     0.0388     0.0000     0.0000     0.0000     0.0000     0.0000 </r>
        <r>    18.4845     0.0240     0.0292     0.0443     0.0329     0.0000     0.0000     0.0000     0.0000     0.0000 </r>
        <r>    18.6134     0.0239     0.0278     0.0442     0.0315     0.0000     0.0000     0.0000     0.0000     0.0000 </r>
        <r>    18.7423     0.0244     0.0276     0.0496     0.0313     0.0000     0.0000     0.0000     0.0000     0.0000 </r>
        <r>    18.8712     0.0264     0.0295     0.0621     0.0339     0.0000     0.0000     0.0000     0.0000     0.0000 </r>
        <r>    19.0001     0.0247     0.0311     0.0590     0.0368     0.0000     0.0000     0.0000     0.0000     0.0000 </r>
        <r>    19.1291     0.0301     0.0347     0.0743     0.0489     0.0000     0.0000     0.0000     0.0000     0.0000 </r>
        <r>    19.2580     0.0343     0.0367     0.0792     0.0490     0.0000     0.0000     0.0000     0.0000     0.0000 </r>
        <r>    19.3869     0.0351     0.0352     0.0877     0.0514     0.0000     0.0000     0.0000     0.0000     0.0000 </r>
        <r>    19.5158     0.0268     0.0319     0.0873     0.0476     0.0000     0.0000     0.0000     0.0000     0.0000 </r>
        <r>    19.6447     0.0218     0.0297     0.0799     0.0437     0.0000     0.0000     0.0000     0.0000     0.0000 </r>
        <r>    19.7736     0.0180     0.0281     0.0801     0.0416     0.0000     0.0000     0.0000     0.0000     0.0000 </r>
        <r>    19.9025     0.0139     0.0255     0.0598     0.0347     0.0000     0.0000     0.0000     0.0000     0.0000 </r>
        <r>    20.0314     0.0115     0.0233     0.0460     0.0289     0.0000     0.0000     0.0000     0.0000     0.0000 </r>
        <r>    20.1604     0.0105     0.0228     0.0423     0.0266     0.0000     0.0000     0.0000     0.0000     0.0000 </r>
        <r>    20.2893     0.0135     0.0271     0.0504     0.0340     0.0000     0.0000     0.0000     0.0000     0.0000 </r>
        <r>    20.4182     0.0144     0.0288     0.0492     0.0339     0.0000     0.0000     0.0000     0.0000     0.0000 </r>
        <r>    20.5471     0.0169     0.0309     0.0517     0.0360     0.0000     0.0000     0.0000     0.0000     0.0000 </r>
        <r>    20.6760     0.0202     0.0351     0.0527     0.0383     0.0000     0.0000     0.0000     0.0000     0.0000 </r>
        <r>    20.8049     0.0224     0.0366     0.0524     0.0390     0.0000     0.0000     0.0000     0.0000     0.0000 </r>
        <r>    20.9338     0.0180     0.0330     0.0477     0.0358     0.0000     0.0000     0.0000     0.0000     0.0000 </r>
        <r>    21.0628     0.0138     0.0291     0.0420     0.0308     0.0000     0.0000     0.0000     0.0000     0.0000 </r>
        <r>    21.1917     0.0097     0.0225     0.0302     0.0241     0.0000     0.0000     0.0000     0.0000     0.0000 </r>
        <r>    21.3206     0.0090     0.0276     0.0287     0.0261     0.0000     0.0000     0.0000     0.0000     0.0000 </r>
        <r>    21.4495     0.0077     0.0267     0.0258     0.0239     0.0000     0.0000     0.0000     0.0000     0.0000 </r>
        <r>    21.5784     0.0072     0.0243     0.0245     0.0217     0.0000     0.0000     0.0000     0.0000     0.0000 </r>
        <r>    21.7073     0.0072     0.0243     0.0267     0.0220     0.0000     0.0000     0.0000     0.0000     0.0000 </r>
        <r>    21.8362     0.0106     0.0269     0.0364     0.0251     0.0000     0.0000     0.0000     0.0000     0.0000 </r>
        <r>    21.9652     0.0157     0.0308     0.0430     0.0292     0.0000     0.0000     0.0000     0.0000     0.0000 </r>
        <r>    22.0941     0.0188     0.0249     0.0342     0.0231     0.0000     0.0000     0.0000     0.0000     0.0000 </r>
        <r>    22.2230     0.0233     0.0238     0.0348     0.0245     0.0000     0.0000     0.0000     0.0000     0.0000 </r>
        <r>    22.3519     0.0223     0.0207     0.0291     0.0238     0.0000     0.0000     0.0000     0.0000     0.0000 </r>
        <r>    22.4808     0.0227     0.0232     0.0272     0.0294     0.0000     0.0000     0.0000     0.0000     0.0000 </r>
        <r>    22.6097     0.0246     0.0278     0.0306     0.0321     0.0000     0.0000     0.0000     0.0000     0.0000 </r>
        <r>    22.7386     0.0214     0.0212     0.0229     0.0261     0.0000     0.0000     0.0000     0.0000     0.0000 </r>
        <r>    22.8675     0.0236     0.0214     0.0271     0.0263     0.0000     0.0000     0.0000     0.0000     0.0000 </r>
        <r>    22.9965     0.0237     0.0218     0.0325     0.0296     0.0000     0.0000     0.0000     0.0000     0.0000 </r>
        <r>    23.1254     0.0260     0.0222     0.0443     0.0360     0.0000     0.0000     0.0000     0.0000     0.0000 </r>
        <r>    23.2543     0.0267     0.0202     0.0465     0.0374     0.0000     0.0000     0.0000     0.0000     0.0000 </r>
        <r>    23.3832     0.0259     0.0192     0.0486     0.0368     0.0000     0.0000     0.0000     0.0000     0.0000 </r>
        <r>    23.5121     0.0251     0.0202     0.0502     0.0369     0.0000     0.0000     0.0000     0.0000     0.0000 </r>
        <r>    23.6410     0.0226     0.0185     0.0450     0.0337     0.0000     0.0000     0.0000     0.0000     0.0000 </r>
        <r>    23.7699     0.0214     0.0185     0.0506     0.0373     0.0000     0.0000     0.0000     0.0000     0.0000 </r>
        <r>    23.8989     0.0144     0.0129     0.0262     0.0227     0.0000     0.0000     0.0000     0.0000     0.0000 </r>
        <r>    24.0278     0.0087     0.0081     0.0153     0.0156     0.0000     0.0000     0.0000     0.0000     0.0000 </r>
        <r>    24.1567     0.0058     0.0056     0.0061     0.0090     0.0000     0.0000     0.0000     0.0000     0.0000 </r>
        <r>    24.2856     0.0046     0.0054     0.0050     0.0077     0.0000     0.0000     0.0000     0.0000     0.0000 </r>
        <r>    24.4145     0.0030     0.0039     0.0037     0.0054     0.0000     0.0000     0.0000     0.0000     0.0000 </r>
        <r>    24.5434     0.0018     0.0025     0.0027     0.0038     0.0000     0.0000     0.0000     0.0000     0.0000 </r>
        <r>    24.6723     0.0017     0.0026     0.0031     0.0038     0.0000     0.0000     0.0000     0.0000     0.0000 </r>
        <r>    24.8012     0.0018     0.0028     0.0036     0.0040     0.0000     0.0000     0.0000     0.0000     0.0000 </r>
        <r>    24.9302     0.0011     0.0018     0.0021     0.0026     0.0000     0.0000     0.0000     0.0000     0.0000 </r>
        <r>    25.0591     0.0010     0.0017     0.0018     0.0023     0.0000     0.0000     0.0000     0.0000     0.0000 </r>
        <r>    25.1880     0.0010     0.0016     0.0017     0.0021     0.0000     0.0000     0.0000     0.0000     0.0000 </r>
        <r>    25.3169     0.0011     0.0016     0.0017     0.0020     0.0000     0.0000     0.0000     0.0000     0.0000 </r>
        <r>    25.4458     0.0003     0.0009     0.0005     0.0009     0.0000     0.0000     0.0000     0.0000     0.0000 </r>
        <r>    25.5747     0.0003     0.0008     0.0004     0.0008     0.0000     0.0000     0.0000     0.0000     0.0000 </r>
        <r>    25.7036     0.0002     0.0007     0.0004     0.0007     0.0000     0.0000     0.0000     0.0000     0.0000 </r>
        <r>    25.8326     0.0002     0.0006     0.0003     0.0006     0.0000     0.0000     0.0000     0.0000     0.0000 </r>
        <r>    25.9615     0.0001     0.0005     0.0002     0.0005     0.0000     0.0000     0.0000     0.0000     0.0000 </r>
        <r>    26.0904     0.0001     0.0005     0.0001     0.0005     0.0000     0.0000     0.0000     0.0000     0.0000 </r>
        <r>    26.2193     0.0000     0.0004     0.0001     0.0005     0.0000     0.0000     0.0000     0.0000     0.0000 </r>
        <r>    26.3482     0.0000     0.0004     0.0001     0.0004     0.0000     0.0000     0.0000     0.0000     0.0000 </r>
        <r>    26.4771     0.0000     0.0004     0.0001     0.0004     0.0000     0.0000     0.0000     0.0000     0.0000 </r>
        <r>    26.6060     0.0000     0.0003     0.0001     0.0003     0.0000     0.0000     0.0000     0.0000     0.0000 </r>
        <r>    26.7350     0.0000     0.0003     0.0001     0.0003     0.0000     0.0000     0.0000     0.0000     0.0000 </r>
        <r>    26.8639     0.0000     0.0003     0.0001     0.0003     0.0000     0.0000     0.0000     0.0000     0.0000 </r>
        <r>    26.9928     0.0000     0.0002     0.0001     0.0002     0.0000     0.0000     0.0000     0.0000     0.0000 </r>
        <r>    27.1217     0.0000     0.0002     0.0001     0.0002     0.0000     0.0000     0.0000     0.0000     0.0000 </r>
        <r>    27.2506     0.0000     0.0002     0.0001     0.0002     0.0000     0.0000     0.0000     0.0000     0.0000 </r>
        <r>    27.3795     0.0000     0.0002     0.0000     0.0001     0.0000     0.0000     0.0000     0.0000     0.0000 </r>
        <r>    27.5084     0.0000     0.0001     0.0000     0.0001     0.0000     0.0000     0.0000     0.0000     0.0000 </r>
        <r>    27.6373     0.0000     0.0001     0.0001     0.0001     0.0000     0.0000     0.0000     0.0000     0.0000 </r>
        <r>    27.7663     0.0000     0.0001     0.0001     0.0001     0.0000     0.0000     0.0000     0.0000     0.0000 </r>
        <r>    27.8952     0.0000     0.0001     0.0001     0.0001     0.0000     0.0000     0.0000     0.0000     0.0000 </r>
        <r>    28.0241     0.0000     0.0001     0.0000     0.0001     0.0000     0.0000     0.0000     0.0000     0.0000 </r>
        <r>    28.1530     0.0000     0.0000     0.0000     0.0000     0.0000     0.0000     0.0000     0.0000     0.0000 </r>
        <r>    28.2819     0.0000     0.0000     0.0000     0.0000     0.0000     0.0000     0.0000     0.0000     0.0000 </r>
        <r>    28.4108     0.0000     0.0000     0.0000     0.0000     0.0000     0.0000     0.0000     0.0000     0.0000 </r>
        <r>    28.5397     0.0000     0.0000     0.0000     0.0000     0.0000     0.0000     0.0000     0.0000     0.0000 </r>
        <r>    28.6687     0.0000     0.0000     0.0000     0.0000     0.0000     0.0000     0.0000     0.0000     0.0000 </r>
        <r>    28.7976     0.0000     0.0000     0.0000     0.0000     0.0000     0.0000     0.0000     0.0000     0.0000 </r>
        <r>    28.9265     0.0000     0.0000     0.0000     0.0000     0.0000     0.0000     0.0000     0.0000     0.0000 </r>
        <r>    29.0554     0.0000     0.0000     0.0000     0.0000     0.0000     0.0000     0.0000     0.0000     0.0000 </r>
        <r>    29.1843     0.0000     0.0000     0.0000     0.0000     0.0000     0.0000     0.0000     0.0000     0.0000 </r>
        <r>    29.3132     0.0000     0.0000     0.0000     0.0000     0.0000     0.0000     0.0000     0.0000     0.0000 </r>
        <r>    29.4421     0.0000     0.0000     0.0000     0.0000     0.0000     0.0000     0.0000     0.0000     0.0000 </r>
        <r>    29.5710     0.0000     0.0000     0.0000     0.0000     0.0000     0.0000     0.0000     0.0000     0.0000 </r>
        <r>    29.7000     0.0000     0.0000     0.0000     0.0000     0.0000     0.0000     0.0000     0.0000     0.0000 </r>
        <r>    29.8289     0.0000     0.0000     0.0000     0.0000     0.0000     0.0000     0.0000     0.0000     0.0000 </r>
        <r>    29.9578     0.0000     0.0000     0.0000     0.0000     0.0000     0.0000     0.0000     0.0000     0.0000 </r>
        <r>    30.0867     0.0000     0.0000     0.0000     0.0000     0.0000     0.0000     0.0000     0.0000     0.0000 </r>
        <r>    30.2156     0.0000     0.0000     0.0000     0.0000     0.0000     0.0000     0.0000     0.0000     0.0000 </r>
        <r>    30.3445     0.0000     0.0000     0.0000     0.0000     0.0000     0.0000     0.0000     0.0000     0.0000 </r>
        <r>    30.4734     0.0000     0.0000     0.0000     0.0000     0.0000     0.0000     0.0000     0.0000     0.0000 </r>
       </set>
      </set>
     </set>
    </array>
   </partial>
  </dos>
  <projected>
   <eigenvalues>
    <array>
     <dimension dim="1">band</dimension>
     <dimension dim="2">kpoint</dimension>
     <dimension dim="3">spin</dimension>
     <field>eigene</field>
     <field>occ</field>
     <set>
      <set comment="spin 1">
       <set comment="kpoint 1">
        <r>   -6.2006    1.0000 </r>
        <r>    5.6130    1.0000 </r>
        <r>    5.6130    1.0000 </r>
        <r>    5.6130    1.0000 </r>
        <r>    8.1713    0.0000 </r>
        <r>    8.1713    0.0000 </r>
        <r>    8.1713    0.0000 </r>
        <r>    8.7444    0.0000 </r>
        <r>   13.3260    0.0000 </r>
        <r>   13.3260    0.0000 </r>
        <r>   13.4840    0.0000 </r>
        <r>   16.7963    0.0000 </r>
        <r>   16.7963    0.0000 </r>
        <r>   16.7963    0.0000 </r>
        <r>   20.8759    0.0000 </r>
        <r>   28.4734    0.0000 </r>
       </set>
       <set comment="kpoint 2">
        <r>   -6.1434    1.0000 </r>
        <r>    5.0200    1.0000 </r>
        <r>    5.5200    1.0000 </r>
        <r>    5.5200    1.0000 </r>
        <r>    8.2059    0.0000 </r>
        <r>    8.3080    0.0000 </r>
        <r>    8.3080    0.0000 </r>
        <r>    9.2057    0.0000 </r>
        <r>   13.1443    0.0000 </r>
        <r>   13.1443    0.0000 </r>
        <r>   13.7324    0.0000 </r>
        <r>   16.5776    0.0000 </r>
        <r>   17.1647    0.0000 </r>
        <r>   17.1647    0.0000 </r>
        <r>   21.2696    0.0000 </r>
        <r>   27.8160    0.0000 </r>
       </set>
       <set comment="kpoint 3">
        <r>   -5.9728    1.0000 </r>
        <r>    3.8693    1.0000 </r>
        <r>    5.2997    1.0000 </r>
        <r>    5.2997    1.0000 </r>
        <r>    8.0264    0.0000 </r>
        <r>    8.6312    0.0000 </r>
        <r>    8.6312    0.0000 </r>
        <r>   10.2912    0.0000 </r>
        <r>   12.8155    0.0000 </r>
        <r>   12.8155    0.0000 </r>
        <r>   14.3422    0.0000 </r>
        <r>   16.2069    0.0000 </r>
        <r>   18.0749    0.0000 </r>
        <r>   18.0749    0.0000 </r>
        <r>   22.2305    0.0000 </r>
        <r>   26.2428    0.0000 </r>
       </set>
       <set comment="kpoint 4">
        <r>   -5.6927    1.0000 </r>
        <r>    2.6313    1.0000 </r>
        <r>    5.0457    1.0000 </r>
        <r>    5.0457    1.0000 </r>
        <r>    7.7651    0.0000 </r>
        <r>    8.9588    0.0000 </r>
        <r>    8.9588    0.0000 </r>
        <r>   11.4893    0.0000 </r>
        <r>   12.6644    0.0000 </r>
        <r>   12.6644    0.0000 </r>
        <r>   14.6847    0.0000 </r>
        <r>   16.4674    0.0000 </r>
        <r>   19.2507    0.0000 </r>
        <r>   19.2507    0.0000 </r>
        <r>   23.3156    0.0000 </r>
        <r>   24.4752    0.0000 </r>
       </set>
       <set comment="kpoint 5">
        <r>   -5.3120    1.0000 </r>
        <r>    1.4358    1.0000 </r>
        <r>    4.8142    1.0000 </r>
        <r>    4.8142    1.0000 </r>
        <r>    7.5118    0.0000 </r>
        <r>    9.1274    0.0000 </r>
        <r>    9.1274    0.0000 </r>
        <r>   12.6346    0.0000 </r>
        <r>   12.9047    0.0000 </r>
        <r>   12.9047    0.0000 </r>
        <r>   14.4810    0.0000 </r>
        <r>   17.6650    0.0000 </r>
        <r>   20.3547    0.0000 </r>
        <r>   20.3547    0.0000 </r>
        <r>   22.9956    0.0000 </r>
        <r>   22.9962    0.0000 </r>
       </set>
       <set comment="kpoint 6">
        <r>   -4.8507    1.0000 </r>
        <r>    0.3440    1.0000 </r>
        <r>    4.6308    1.0000 </r>
        <r>    4.6308    1.0000 </r>
        <r>    7.3048    0.0000 </r>
        <r>    9.1179    0.0000 </r>
        <r>    9.1179    0.0000 </r>
        <r>   13.3937    0.0000 </r>
        <r>   13.5697    0.0000 </r>
        <r>   13.5697    0.0000 </r>
        <r>   14.5903    0.0000 </r>
        <r>   19.0363    0.0000 </r>
        <r>   20.0800    0.0000 </r>
        <r>   20.0800    0.0000 </r>
        <r>   22.2015    0.0000 </r>
        <r>   23.1229    0.0000 </r>
       </set>
       <set comment="kpoint 7">
        <r>   -4.3597    1.0000 </r>
        <r>   -0.5746    1.0000 </r>
        <r>    4.5058    1.0000 </r>
        <r>    4.5058    1.0000 </r>
        <r>    7.1612    0.0000 </r>
        <r>    9.0351    0.0000 </r>
        <r>    9.0351    0.0000 </r>
        <r>   13.4147    0.0000 </r>
        <r>   14.5516    0.0000 </r>
        <r>   14.5516    0.0000 </r>
        <r>   15.5221    0.0000 </r>
        <r>   18.6859    0.0000 </r>
        <r>   18.6860    0.0000 </r>
        <r>   19.3819    0.0000 </r>
        <r>   22.3859    0.0000 </r>
        <r>   24.5877    0.0000 </r>
       </set>
       <set comment="kpoint 8">
        <r>   -3.9821    1.0000 </r>
        <r>   -1.1681    1.0000 </r>
        <r>    4.4428    1.0000 </r>
        <r>    4.4428    1.0000 </r>
        <r>    7.0880    0.0000 </r>
        <r>    8.9726    0.0000 </r>
        <r>    8.9726    0.0000 </r>
        <r>   13.3250    0.0000 </r>
        <r>   15.7122    0.0000 </r>
        <r>   15.7122    0.0000 </r>
        <r>   16.5581    0.0000 </r>
        <r>   17.2662    0.0000 </r>
        <r>   17.2662    0.0000 </r>
        <r>   18.5701    0.0000 </r>
        <r>   24.0123    0.0000 </r>
        <r>   26.1485    0.0000 </r>
       </set>
       <set comment="kpoint 9">
        <r>   -6.1242    1.0000 </r>
        <r>    5.1290    1.0000 </r>
        <r>    5.3271    1.0000 </r>
        <r>    5.3271    1.0000 </r>
        <r>    7.9925    0.0000 </r>
        <r>    8.5512    0.0000 </r>
        <r>    8.5512    0.0000 </r>
        <r>    9.2056    0.0000 </r>
        <r>   12.7950    0.0000 </r>
        <r>   13.4108    0.0000 </r>
        <r>   13.8144    0.0000 </r>
        <r>   16.9297    0.0000 </r>
        <r>   16.9297    0.0000 </r>
        <r>   17.1617    0.0000 </r>
        <r>   21.4234    0.0000 </r>
        <r>   27.4810    0.0000 </r>
       </set>
       <set comment="kpoint 10">
        <r>   -5.9912    1.0000 </r>
        <r>    4.2057    1.0000 </r>
        <r>    5.0544    1.0000 </r>
        <r>    5.2197    1.0000 </r>
        <r>    7.9895    0.0000 </r>
        <r>    8.6143    0.0000 </r>
        <r>    8.9452    0.0000 </r>
        <r>    9.9995    0.0000 </r>
        <r>   12.3876    0.0000 </r>
        <r>   13.3462    0.0000 </r>
        <r>   14.3235    0.0000 </r>
        <r>   16.6116    0.0000 </r>
        <r>   17.4119    0.0000 </r>
        <r>   18.0254    0.0000 </r>
        <r>   22.2285    0.0000 </r>
        <r>   26.1348    0.0000 </r>
       </set>
       <set comment="kpoint 11">
        <r>   -5.7471    1.0000 </r>
        <r>    3.0197    1.0000 </r>
        <r>    4.7841    1.0000 </r>
        <r>    5.0044    1.0000 </r>
        <r>    8.0650    0.0000 </r>
        <r>    8.6124    0.0000 </r>
        <r>    9.3288    0.0000 </r>
        <r>   10.8797    0.0000 </r>
        <r>   12.3545    0.0000 </r>
        <r>   13.2319    0.0000 </r>
        <r>   14.9026    0.0000 </r>
        <r>   16.4623    0.0000 </r>
        <r>   18.3851    0.0000 </r>
        <r>   19.2324    0.0000 </r>
        <r>   23.3074    0.0000 </r>
        <r>   24.3637    0.0000 </r>
       </set>
       <set comment="kpoint 12">
        <r>   -5.3988    1.0000 </r>
        <r>    1.8257    1.0000 </r>
        <r>    4.5596    1.0000 </r>
        <r>    4.7342    1.0000 </r>
        <r>    7.9210    0.0000 </r>
        <r>    8.8012    0.0000 </r>
        <r>    9.5412    0.0000 </r>
        <r>   11.3671    0.0000 </r>
        <r>   13.0753    0.0000 </r>
        <r>   13.4021    0.0000 </r>
        <r>   14.8582    0.0000 </r>
        <r>   17.3047    0.0000 </r>
        <r>   19.5048    0.0000 </r>
        <r>   20.4867    0.0000 </r>
        <r>   22.7214    0.0000 </r>
        <r>   23.1682    0.0000 </r>
       </set>
       <set comment="kpoint 13">
        <r>   -4.9612    1.0000 </r>
        <r>    0.7064    1.0000 </r>
        <r>    4.4004    1.0000 </r>
        <r>    4.4748    1.0000 </r>
        <r>    7.7279    0.0000 </r>
        <r>    8.8958    0.0000 </r>
        <r>    9.5317    0.0000 </r>
        <r>   11.9327    0.0000 </r>
        <r>   13.9838    0.0000 </r>
        <r>   14.0136    0.0000 </r>
        <r>   14.7115    0.0000 </r>
        <r>   18.6130    0.0000 </r>
        <r>   19.7543    0.0000 </r>
        <r>   20.8218    0.0000 </r>
        <r>   22.2160    0.0000 </r>
        <r>   22.6081    0.0000 </r>
       </set>
       <set comment="kpoint 14">
        <r>   -4.4707    1.0000 </r>
        <r>   -0.2733    1.0000 </r>
        <r>    4.2568    1.0000 </r>
        <r>    4.3140    1.0000 </r>
        <r>    7.5726    0.0000 </r>
        <r>    8.8842    0.0000 </r>
        <r>    9.3970    0.0000 </r>
        <r>   12.7332    0.0000 </r>
        <r>   14.1572    0.0000 </r>
        <r>   14.9019    0.0000 </r>
        <r>   15.5638    0.0000 </r>
        <r>   18.4971    0.0000 </r>
        <r>   18.9311    0.0000 </r>
        <r>   20.3714    0.0000 </r>
        <r>   22.2150    0.0000 </r>
        <r>   23.4705    0.0000 </r>
       </set>
       <set comment="kpoint 15">
        <r>   -4.0290    1.0000 </r>
        <r>   -0.9983    1.0000 </r>
        <r>    4.0947    1.0000 </r>
        <r>    4.3012    1.0000 </r>
        <r>    7.4786    0.0000 </r>
        <r>    8.8732    0.0000 </r>
        <r>    9.2480    0.0000 </r>
        <r>   13.3750    0.0000 </r>
        <r>   14.4521    0.0000 </r>
        <r>   15.9847    0.0000 </r>
        <r>   16.6781    0.0000 </r>
        <r>   17.0986    0.0000 </r>
        <r>   17.8521    0.0000 </r>
        <r>   19.5613    0.0000 </r>
        <r>   23.3828    0.0000 </r>
        <r>   25.1537    0.0000 </r>
       </set>
       <set comment="kpoint 16">
        <r>   -3.8781    1.0000 </r>
        <r>   -1.2200    1.0000 </r>
        <r>    3.9970    1.0000 </r>
        <r>    4.3592    1.0000 </r>
        <r>    7.4538    0.0000 </r>
        <r>    8.9216    0.0000 </r>
        <r>    9.1449    0.0000 </r>
        <r>   13.5136    0.0000 </r>
        <r>   15.2570    0.0000 </r>
        <r>   15.5023    0.0000 </r>
        <r>   16.5859    0.0000 </r>
        <r>   17.5126    0.0000 </r>
        <r>   17.7387    0.0000 </r>
        <r>   18.7364    0.0000 </r>
        <r>   24.5010    0.0000 </r>
        <r>   25.4127    0.0000 </r>
       </set>
       <set comment="kpoint 17">
        <r>   -4.1597    1.0000 </r>
        <r>   -0.7959    1.0000 </r>
        <r>    3.9700    1.0000 </r>
        <r>    4.4827    1.0000 </r>
        <r>    7.5000    0.0000 </r>
        <r>    9.0400    0.0000 </r>
        <r>    9.1040    0.0000 </r>
        <r>   13.4846    0.0000 </r>
        <r>   14.2758    0.0000 </r>
        <r>   14.9337    0.0000 </r>
        <r>   16.7498    0.0000 </r>
        <r>   17.2347    0.0000 </r>
        <r>   18.9334    0.0000 </r>
        <r>   19.5326    0.0000 </r>
        <r>   22.7685    0.0000 </r>
        <r>   24.5259    0.0000 </r>
       </set>
       <set comment="kpoint 18">
        <r>   -4.6367    1.0000 </r>
        <r>    0.0343    1.0000 </r>
        <r>    4.0183    1.0000 </r>
        <r>    4.6642    1.0000 </r>
        <r>    7.6152    0.0000 </r>
        <r>    9.1008    0.0000 </r>
        <r>    9.1984    0.0000 </r>
        <r>   13.0765    0.0000 </r>
        <r>   13.2322    0.0000 </r>
        <r>   14.5336    0.0000 </r>
        <r>   15.5503    0.0000 </r>
        <r>   18.4725    0.0000 </r>
        <r>   19.7636    0.0000 </r>
        <r>   20.3874    0.0000 </r>
        <r>   22.0455    0.0000 </r>
        <r>   22.9370    0.0000 </r>
       </set>
       <set comment="kpoint 19">
        <r>   -5.1160    1.0000 </r>
        <r>    1.0687    1.0000 </r>
        <r>    4.1448    1.0000 </r>
        <r>    4.8920    1.0000 </r>
        <r>    7.7935    0.0000 </r>
        <r>    9.0602    0.0000 </r>
        <r>    9.3114    0.0000 </r>
        <r>   12.3212    0.0000 </r>
        <r>   12.4897    0.0000 </r>
        <r>   14.3927    0.0000 </r>
        <r>   14.7223    0.0000 </r>
        <r>   18.1186    0.0000 </r>
        <r>   19.8160    0.0000 </r>
        <r>   21.1960    0.0000 </r>
        <r>   21.7366    0.0000 </r>
        <r>   23.1631    0.0000 </r>
       </set>
       <set comment="kpoint 20">
        <r>   -5.5263    1.0000 </r>
        <r>    2.2162    1.0000 </r>
        <r>    4.3506    1.0000 </r>
        <r>    5.1462    1.0000 </r>
        <r>    8.0200    0.0000 </r>
        <r>    8.8822    0.0000 </r>
        <r>    9.2309    0.0000 </r>
        <r>   11.5842    0.0000 </r>
        <r>   12.1695    0.0000 </r>
        <r>   13.5377    0.0000 </r>
        <r>   14.9654    0.0000 </r>
        <r>   16.8999    0.0000 </r>
        <r>   19.0045    0.0000 </r>
        <r>   20.3305    0.0000 </r>
        <r>   22.7726    0.0000 </r>
        <r>   23.7669    0.0000 </r>
       </set>
       <set comment="kpoint 21">
        <r>   -5.8408    1.0000 </r>
        <r>    3.4026    1.0000 </r>
        <r>    4.6370    1.0000 </r>
        <r>    5.3871    1.0000 </r>
        <r>    8.2611    0.0000 </r>
        <r>    8.5799    0.0000 </r>
        <r>    8.8848    0.0000 </r>
        <r>   10.7695    0.0000 </r>
        <r>   12.2809    0.0000 </r>
        <r>   13.1588    0.0000 </r>
        <r>   14.7544    0.0000 </r>
        <r>   16.4310    0.0000 </r>
        <r>   17.8495    0.0000 </r>
        <r>   19.0862    0.0000 </r>
        <r>   22.8859    0.0000 </r>
        <r>   24.4986    0.0000 </r>
       </set>
       <set comment="kpoint 22">
        <r>   -6.0483    1.0000 </r>
        <r>    4.4575    1.0000 </r>
        <r>    5.0396    1.0000 </r>
        <r>    5.5404    1.0000 </r>
        <r>    8.3286    0.0000 </r>
        <r>    8.4280    0.0000 </r>
        <r>    8.4359    0.0000 </r>
        <r>    9.8338    0.0000 </r>
        <r>   12.6765    0.0000 </r>
        <r>   13.1863    0.0000 </r>
        <r>   14.1122    0.0000 </r>
        <r>   16.6445    0.0000 </r>
        <r>   17.0758    0.0000 </r>
        <r>   17.9686    0.0000 </r>
        <r>   21.8596    0.0000 </r>
        <r>   26.2673    0.0000 </r>
       </set>
       <set comment="kpoint 23">
        <r>   -5.8958    1.0000 </r>
        <r>    4.1235    1.0000 </r>
        <r>    4.7508    1.0000 </r>
        <r>    4.7508    1.0000 </r>
        <r>    7.5701    0.0000 </r>
        <r>    9.4066    0.0000 </r>
        <r>    9.4066    0.0000 </r>
        <r>    9.8770    0.0000 </r>
        <r>   12.0514    0.0000 </r>
        <r>   13.6653    0.0000 </r>
        <r>   14.6860    0.0000 </r>
        <r>   17.3261    0.0000 </r>
        <r>   17.3261    0.0000 </r>
        <r>   17.8259    0.0000 </r>
        <r>   22.8906    0.0000 </r>
        <r>   25.7564    0.0000 </r>
       </set>
       <set comment="kpoint 24">
        <r>   -5.6884    1.0000 </r>
        <r>    3.2499    1.0000 </r>
        <r>    4.4634    1.0000 </r>
        <r>    4.5325    1.0000 </r>
        <r>    7.5364    0.0000 </r>
        <r>    9.4207    0.0000 </r>
        <r>    9.8722    0.0000 </r>
        <r>   10.2154    0.0000 </r>
        <r>   12.3016    0.0000 </r>
        <r>   13.7493    0.0000 </r>
        <r>   15.3147    0.0000 </r>
        <r>   17.0936    0.0000 </r>
        <r>   17.8949    0.0000 </r>
        <r>   18.8509    0.0000 </r>
        <r>   23.8807    0.0000 </r>
        <r>   24.3086    0.0000 </r>
       </set>
       <set comment="kpoint 25">
        <r>   -5.3742    1.0000 </r>
        <r>    2.1592    1.0000 </r>
        <r>    4.2317    1.0000 </r>
        <r>    4.2471    1.0000 </r>
        <r>    7.7267    0.0000 </r>
        <r>    9.3348    0.0000 </r>
        <r>   10.1792    0.0000 </r>
        <r>   10.2640    0.0000 </r>
        <r>   13.2672    0.0000 </r>
        <r>   13.9158    0.0000 </r>
        <r>   15.6502    0.0000 </r>
        <r>   17.3189    0.0000 </r>
        <r>   18.8430    0.0000 </r>
        <r>   20.1702    0.0000 </r>
        <r>   22.6222    0.0000 </r>
        <r>   23.1603    0.0000 </r>
       </set>
       <set comment="kpoint 26">
        <r>   -4.9644    1.0000 </r>
        <r>    1.0695    1.0000 </r>
        <r>    3.9207    1.0000 </r>
        <r>    4.0742    1.0000 </r>
        <r>    7.8231    0.0000 </r>
        <r>    9.3503    0.0000 </r>
        <r>   10.2295    0.0000 </r>
        <r>   10.4754    0.0000 </r>
        <r>   14.4307    0.0000 </r>
        <r>   14.4500    0.0000 </r>
        <r>   15.4270    0.0000 </r>
        <r>   18.3628    0.0000 </r>
        <r>   19.3972    0.0000 </r>
        <r>   20.8578    0.0000 </r>
        <r>   21.6480    0.0000 </r>
        <r>   22.6085    0.0000 </r>
       </set>
       <set comment="kpoint 27">
        <r>   -4.4851    1.0000 </r>
        <r>    0.0696    1.0000 </r>
        <r>    3.6172    1.0000 </r>
        <r>    3.9987    1.0000 </r>
        <r>    7.7958    0.0000 </r>
        <r>    9.2905    0.0000 </r>
        <r>   10.0925    0.0000 </r>
        <r>   11.1764    0.0000 </r>
        <r>   14.9844    0.0000 </r>
        <r>   15.2936    0.0000 </r>
        <r>   15.8256    0.0000 </r>
        <r>   18.3673    0.0000 </r>
        <r>   18.8281    0.0000 </r>
        <r>   20.7802    0.0000 </r>
        <r>   22.5458    0.0000 </r>
        <r>   23.0768    0.0000 </r>
       </set>
       <set comment="kpoint 28">
        <r>   -4.0072    1.0000 </r>
        <r>   -0.7419    1.0000 </r>
        <r>    3.3675    1.0000 </r>
        <r>    4.0068    1.0000 </r>
        <r>    7.7652    0.0000 </r>
        <r>    9.2139    0.0000 </r>
        <r>    9.8957    0.0000 </r>
        <r>   12.1847    0.0000 </r>
        <r>   14.7480    0.0000 </r>
        <r>   16.2862    0.0000 </r>
        <r>   16.9708    0.0000 </r>
        <r>   17.0252    0.0000 </r>
        <r>   17.9464    0.0000 </r>
        <r>   21.1663    0.0000 </r>
        <r>   22.9198    0.0000 </r>
        <r>   24.1164    0.0000 </r>
       </set>
       <set comment="kpoint 29">
        <r>   -3.7256    1.0000 </r>
        <r>   -1.1570    1.0000 </r>
        <r>    3.1883    1.0000 </r>
        <r>    4.0955    1.0000 </r>
        <r>    7.7922    0.0000 </r>
        <r>    9.1914    0.0000 </r>
        <r>    9.7189    0.0000 </r>
        <r>   13.2883    0.0000 </r>
        <r>   14.4768    0.0000 </r>
        <r>   15.3732    0.0000 </r>
        <r>   16.7005    0.0000 </r>
        <r>   17.8120    0.0000 </r>
        <r>   18.5000    0.0000 </r>
        <r>   20.0445    0.0000 </r>
        <r>   24.4393    0.0000 </r>
        <r>   24.8161    0.0000 </r>
       </set>
       <set comment="kpoint 30">
        <r>   -3.8811    1.0000 </r>
        <r>   -0.9310    1.0000 </r>
        <r>    3.0908    1.0000 </r>
        <r>    4.2585    1.0000 </r>
        <r>    7.8894    0.0000 </r>
        <r>    9.2442    0.0000 </r>
        <r>    9.5915    0.0000 </r>
        <r>   13.7202    0.0000 </r>
        <r>   14.0919    0.0000 </r>
        <r>   14.4619    0.0000 </r>
        <r>   16.4556    0.0000 </r>
        <r>   18.6083    0.0000 </r>
        <r>   19.2262    0.0000 </r>
        <r>   19.7986    0.0000 </r>
        <r>   22.8515    0.0000 </r>
        <r>   24.7958    0.0000 </r>
       </set>
       <set comment="kpoint 31">
        <r>   -4.3256    1.0000 </r>
        <r>   -0.2155    1.0000 </r>
        <r>    3.0849    1.0000 </r>
        <r>    4.4842    1.0000 </r>
        <r>    8.0487    0.0000 </r>
        <r>    9.3630    0.0000 </r>
        <r>    9.5003    0.0000 </r>
        <r>   12.8754    0.0000 </r>
        <r>   12.9961    0.0000 </r>
        <r>   15.0117    0.0000 </r>
        <r>   17.1816    0.0000 </r>
        <r>   17.3192    0.0000 </r>
        <r>   20.2154    0.0000 </r>
        <r>   20.6996    0.0000 </r>
        <r>   21.8191    0.0000 </r>
        <r>   23.1416    0.0000 </r>
       </set>
       <set comment="kpoint 32">
        <r>   -4.8157    1.0000 </r>
        <r>    0.7311    1.0000 </r>
        <r>    3.1834    1.0000 </r>
        <r>    4.7545    1.0000 </r>
        <r>    8.2515    0.0000 </r>
        <r>    9.3790    0.0000 </r>
        <r>    9.4807    0.0000 </r>
        <r>   11.9769    0.0000 </r>
        <r>   12.1983    0.0000 </r>
        <r>   15.3955    0.0000 </r>
        <r>   16.0534    0.0000 </r>
        <r>   17.9483    0.0000 </r>
        <r>   19.4629    0.0000 </r>
        <r>   21.0782    0.0000 </r>
        <r>   21.8540    0.0000 </r>
        <r>   23.1822    0.0000 </r>
       </set>
       <set comment="kpoint 33">
        <r>   -5.2517    1.0000 </r>
        <r>    1.7668    1.0000 </r>
        <r>    3.4149    1.0000 </r>
        <r>    5.0377    1.0000 </r>
        <r>    8.4679    0.0000 </r>
        <r>    9.1330    0.0000 </r>
        <r>    9.4054    0.0000 </r>
        <r>   11.3608    0.0000 </r>
        <r>   11.8301    0.0000 </r>
        <r>   14.8112    0.0000 </r>
        <r>   15.7087    0.0000 </r>
        <r>   17.2573    0.0000 </r>
        <r>   19.0515    0.0000 </r>
        <r>   21.1219    0.0000 </r>
        <r>   21.4794    0.0000 </r>
        <r>   23.9948    0.0000 </r>
       </set>
       <set comment="kpoint 34">
        <r>   -5.5983    1.0000 </r>
        <r>    2.7276    1.0000 </r>
        <r>    3.8694    1.0000 </r>
        <r>    5.2775    1.0000 </r>
        <r>    8.5952    0.0000 </r>
        <r>    8.7995    0.0000 </r>
        <r>    9.0316    0.0000 </r>
        <r>   11.1076    0.0000 </r>
        <r>   11.9031    0.0000 </r>
        <r>   13.7782    0.0000 </r>
        <r>   15.4271    0.0000 </r>
        <r>   16.7726    0.0000 </r>
        <r>   18.0659    0.0000 </r>
        <r>   20.2841    0.0000 </r>
        <r>   22.6918    0.0000 </r>
        <r>   23.7850    0.0000 </r>
       </set>
       <set comment="kpoint 35">
        <r>   -5.5176    1.0000 </r>
        <r>    2.9783    1.0000 </r>
        <r>    4.1592    1.0000 </r>
        <r>    4.1592    1.0000 </r>
        <r>    7.0896    0.0000 </r>
        <r>    9.4661    0.0000 </r>
        <r>   10.4548    0.0000 </r>
        <r>   10.4548    0.0000 </r>
        <r>   12.5512    0.0000 </r>
        <r>   14.0892    0.0000 </r>
        <r>   15.8918    0.0000 </r>
        <r>   17.9614    0.0000 </r>
        <r>   17.9614    0.0000 </r>
        <r>   18.5759    0.0000 </r>
        <r>   24.0088    0.0000 </r>
        <r>   24.0088    0.0000 </r>
       </set>
       <set comment="kpoint 36">
        <r>   -5.2385    1.0000 </r>
        <r>    2.2126    1.0000 </r>
        <r>    3.8509    1.0000 </r>
        <r>    3.9122    1.0000 </r>
        <r>    7.0805    0.0000 </r>
        <r>    9.1122    0.0000 </r>
        <r>   10.7252    0.0000 </r>
        <r>   10.9140    0.0000 </r>
        <r>   13.4182    0.0000 </r>
        <r>   14.3493    0.0000 </r>
        <r>   16.4987    0.0000 </r>
        <r>   17.9069    0.0000 </r>
        <r>   18.5502    0.0000 </r>
        <r>   19.6646    0.0000 </r>
        <r>   22.6307    0.0000 </r>
        <r>   22.9731    0.0000 </r>
       </set>
       <set comment="kpoint 37">
        <r>   -4.8592    1.0000 </r>
        <r>    1.2838    1.0000 </r>
        <r>    3.4478    1.0000 </r>
        <r>    3.7425    1.0000 </r>
        <r>    7.2924    0.0000 </r>
        <r>    9.1291    0.0000 </r>
        <r>   10.6406    0.0000 </r>
        <r>   11.0942    0.0000 </r>
        <r>   14.6571    0.0000 </r>
        <r>   14.8363    0.0000 </r>
        <r>   16.5204    0.0000 </r>
        <r>   18.4645    0.0000 </r>
        <r>   19.0958    0.0000 </r>
        <r>   20.5924    0.0000 </r>
        <r>   21.4294    0.0000 </r>
        <r>   22.3123    0.0000 </r>
       </set>
       <set comment="kpoint 38">
        <r>   -4.3988    1.0000 </r>
        <r>    0.3499    1.0000 </r>
        <r>    3.0366    1.0000 </r>
        <r>    3.6592    1.0000 </r>
        <r>    7.4000    0.0000 </r>
        <r>    9.6828    0.0000 </r>
        <r>   10.4734    0.0000 </r>
        <r>   11.0103    0.0000 </r>
        <r>   15.6672    0.0000 </r>
        <r>   15.9008    0.0000 </r>
        <r>   16.2355    0.0000 </r>
        <r>   18.2940    0.0000 </r>
        <r>   18.9395    0.0000 </r>
        <r>   20.5917    0.0000 </r>
        <r>   21.8980    0.0000 </r>
        <r>   23.3968    0.0000 </r>
       </set>
       <set comment="kpoint 39">
        <r>   -3.9062    1.0000 </r>
        <r>   -0.4792    1.0000 </r>
        <r>    2.6819    1.0000 </r>
        <r>    3.6650    1.0000 </r>
        <r>    7.4344    0.0000 </r>
        <r>   10.3128    0.0000 </r>
        <r>   10.6433    0.0000 </r>
        <r>   10.8051    0.0000 </r>
        <r>   15.6243    0.0000 </r>
        <r>   16.5636    0.0000 </r>
        <r>   17.0523    0.0000 </r>
        <r>   17.3141    0.0000 </r>
        <r>   18.1859    0.0000 </r>
        <r>   21.7864    0.0000 </r>
        <r>   23.2503    0.0000 </r>
        <r>   23.5569    0.0000 </r>
       </set>
       <set comment="kpoint 40">
        <r>   -3.5257    1.0000 </r>
        <r>   -1.0293    1.0000 </r>
        <r>    2.4121    1.0000 </r>
        <r>    3.7585    1.0000 </r>
        <r>    7.5116    0.0000 </r>
        <r>   10.2076    0.0000 </r>
        <r>   10.5855    0.0000 </r>
        <r>   11.8164    0.0000 </r>
        <r>   14.8940    0.0000 </r>
        <r>   15.3325    0.0000 </r>
        <r>   17.3491    0.0000 </r>
        <r>   18.1231    0.0000 </r>
        <r>   18.7709    0.0000 </r>
        <r>   21.8710    0.0000 </r>
        <r>   23.8365    0.0000 </r>
        <r>   24.5192    0.0000 </r>
       </set>
       <set comment="kpoint 41">
        <r>   -3.5381    1.0000 </r>
        <r>   -1.0082    1.0000 </r>
        <r>    2.2441    1.0000 </r>
        <r>    3.9337    1.0000 </r>
        <r>    7.6716    0.0000 </r>
        <r>   10.1592    0.0000 </r>
        <r>   10.3948    0.0000 </r>
        <r>   13.1075    0.0000 </r>
        <r>   13.8813    0.0000 </r>
        <r>   14.0090    0.0000 </r>
        <r>   17.1268    0.0000 </r>
        <r>   19.5352    0.0000 </r>
        <r>   20.0212    0.0000 </r>
        <r>   20.5553    0.0000 </r>
        <r>   22.6384    0.0000 </r>
        <r>   24.9836    0.0000 </r>
       </set>
       <set comment="kpoint 42">
        <r>   -3.9295    1.0000 </r>
        <r>   -0.4365    1.0000 </r>
        <r>    2.1971    1.0000 </r>
        <r>    4.1791    1.0000 </r>
        <r>    7.9119    0.0000 </r>
        <r>   10.1651    0.0000 </r>
        <r>   10.2218    0.0000 </r>
        <r>   12.7537    0.0000 </r>
        <r>   12.8802    0.0000 </r>
        <r>   14.4465    0.0000 </r>
        <r>   17.2655    0.0000 </r>
        <r>   19.1596    0.0000 </r>
        <r>   20.4198    0.0000 </r>
        <r>   21.0082    0.0000 </r>
        <r>   21.6978    0.0000 </r>
        <r>   23.6336    0.0000 </r>
       </set>
       <set comment="kpoint 43">
        <r>   -4.4210    1.0000 </r>
        <r>    0.3697    1.0000 </r>
        <r>    2.3101    1.0000 </r>
        <r>    4.4743    1.0000 </r>
        <r>    8.2017    0.0000 </r>
        <r>    9.9829    0.0000 </r>
        <r>   10.1605    0.0000 </r>
        <r>   11.7680    0.0000 </r>
        <r>   12.0780    0.0000 </r>
        <r>   15.6066    0.0000 </r>
        <r>   17.5251    0.0000 </r>
        <r>   17.8368    0.0000 </r>
        <r>   19.2588    0.0000 </r>
        <r>   21.5539    0.0000 </r>
        <r>   22.2820    0.0000 </r>
        <r>   23.0301    0.0000 </r>
       </set>
       <set comment="kpoint 44">
        <r>   -4.8772    1.0000 </r>
        <r>    1.1667    1.0000 </r>
        <r>    2.6802    1.0000 </r>
        <r>    4.7822    1.0000 </r>
        <r>    8.4643    0.0000 </r>
        <r>    9.5799    0.0000 </r>
        <r>    9.8817    0.0000 </r>
        <r>   11.2690    0.0000 </r>
        <r>   11.7466    0.0000 </r>
        <r>   16.2129    0.0000 </r>
        <r>   16.2370    0.0000 </r>
        <r>   17.4411    0.0000 </r>
        <r>   19.2673    0.0000 </r>
        <r>   20.4198    0.0000 </r>
        <r>   22.4116    0.0000 </r>
        <r>   23.7133    0.0000 </r>
       </set>
       <set comment="kpoint 45">
        <r>   -4.9939    1.0000 </r>
        <r>    1.7991    1.0000 </r>
        <r>    3.6466    1.0000 </r>
        <r>    3.6466    1.0000 </r>
        <r>    6.6693    0.0000 </r>
        <r>    8.5081    0.0000 </r>
        <r>   11.5942    0.0000 </r>
        <r>   11.5942    0.0000 </r>
        <r>   13.8208    0.0000 </r>
        <r>   14.6816    0.0000 </r>
        <r>   17.2534    0.0000 </r>
        <r>   18.7143    0.0000 </r>
        <r>   18.7143    0.0000 </r>
        <r>   19.4847    0.0000 </r>
        <r>   22.4966    0.0000 </r>
        <r>   22.4966    0.0000 </r>
       </set>
       <set comment="kpoint 46">
        <r>   -4.6467    1.0000 </r>
        <r>    1.1198    1.0000 </r>
        <r>    3.2991    1.0000 </r>
        <r>    3.4577    1.0000 </r>
        <r>    6.7117    0.0000 </r>
        <r>    8.2056    0.0000 </r>
        <r>   11.8721    0.0000 </r>
        <r>   12.0104    0.0000 </r>
        <r>   14.8066    0.0000 </r>
        <r>   15.1359    0.0000 </r>
        <r>   17.6279    0.0000 </r>
        <r>   18.9445    0.0000 </r>
        <r>   18.9949    0.0000 </r>
        <r>   20.2601    0.0000 </r>
        <r>   21.4942    0.0000 </r>
        <r>   22.0384    0.0000 </r>
       </set>
       <set comment="kpoint 47">
        <r>   -4.2104    1.0000 </r>
        <r>    0.3601    1.0000 </r>
        <r>    2.7902    1.0000 </r>
        <r>    3.3566    1.0000 </r>
        <r>    6.9219    0.0000 </r>
        <r>    8.4034    0.0000 </r>
        <r>   11.8069    0.0000 </r>
        <r>   12.0627    0.0000 </r>
        <r>   15.9406    0.0000 </r>
        <r>   16.1116    0.0000 </r>
        <r>   17.2063    0.0000 </r>
        <r>   18.2849    0.0000 </r>
        <r>   19.5073    0.0000 </r>
        <r>   20.2587    0.0000 </r>
        <r>   21.5602    0.0000 </r>
        <r>   22.9540    0.0000 </r>
       </set>
       <set comment="kpoint 48">
        <r>   -3.7185    1.0000 </r>
        <r>   -0.3812    1.0000 </r>
        <r>    2.2896    1.0000 </r>
        <r>    3.3474    1.0000 </r>
        <r>    7.0167    0.0000 </r>
        <r>    9.1687    0.0000 </r>
        <r>   11.6625    0.0000 </r>
        <r>   11.8932    0.0000 </r>
        <r>   16.3253    0.0000 </r>
        <r>   16.7822    0.0000 </r>
        <r>   17.1379    0.0000 </r>
        <r>   17.5375    0.0000 </r>
        <r>   18.9795    0.0000 </r>
        <r>   21.3973    0.0000 </r>
        <r>   22.4667    0.0000 </r>
        <r>   24.0796    0.0000 </r>
       </set>
       <set comment="kpoint 49">
        <r>   -3.2727    1.0000 </r>
        <r>   -0.9693    1.0000 </r>
        <r>    1.8893    1.0000 </r>
        <r>    3.4299    1.0000 </r>
        <r>    7.1099    0.0000 </r>
        <r>   10.2530    0.0000 </r>
        <r>   11.5411    0.0000 </r>
        <r>   11.6558    0.0000 </r>
        <r>   15.2132    0.0000 </r>
        <r>   15.3806    0.0000 </r>
        <r>   18.3830    0.0000 </r>
        <r>   18.5465    0.0000 </r>
        <r>   18.9274    0.0000 </r>
        <r>   22.8516    0.0000 </r>
        <r>   23.1396    0.0000 </r>
        <r>   23.6936    0.0000 </r>
       </set>
       <set comment="kpoint 50">
        <r>   -3.1467    1.0000 </r>
        <r>   -1.1166    1.0000 </r>
        <r>    1.6304    1.0000 </r>
        <r>    3.5994    1.0000 </r>
        <r>    7.2836    0.0000 </r>
        <r>   11.2294    0.0000 </r>
        <r>   11.4134    0.0000 </r>
        <r>   11.7450    0.0000 </r>
        <r>   13.9714    0.0000 </r>
        <r>   14.0353    0.0000 </r>
        <r>   18.4444    0.0000 </r>
        <r>   19.8082    0.0000 </r>
        <r>   20.1622    0.0000 </r>
        <r>   22.2469    0.0000 </r>
        <r>   22.6059    0.0000 </r>
        <r>   23.3701    0.0000 </r>
       </set>
       <set comment="kpoint 51">
        <r>   -3.4706    1.0000 </r>
        <r>   -0.7107    1.0000 </r>
        <r>    1.5548    1.0000 </r>
        <r>    3.8457    1.0000 </r>
        <r>    7.5488    0.0000 </r>
        <r>   11.1340    0.0000 </r>
        <r>   11.2714    0.0000 </r>
        <r>   12.6600    0.0000 </r>
        <r>   12.9219    0.0000 </r>
        <r>   13.1197    0.0000 </r>
        <r>   18.5132    0.0000 </r>
        <r>   20.3218    0.0000 </r>
        <r>   20.8622    0.0000 </r>
        <r>   21.2600    0.0000 </r>
        <r>   21.7920    0.0000 </r>
        <r>   23.3921    0.0000 </r>
       </set>
       <set comment="kpoint 52">
        <r>   -3.9537    1.0000 </r>
        <r>   -0.1196    1.0000 </r>
        <r>    1.7466    1.0000 </r>
        <r>    4.1494    1.0000 </r>
        <r>    7.8809    0.0000 </r>
        <r>   10.6607    0.0000 </r>
        <r>   10.9980    0.0000 </r>
        <r>   11.8544    0.0000 </r>
        <r>   12.2491    0.0000 </r>
        <r>   14.4738    0.0000 </r>
        <r>   18.4462    0.0000 </r>
        <r>   19.1435    0.0000 </r>
        <r>   19.4019    0.0000 </r>
        <r>   22.2986    0.0000 </r>
        <r>   22.5159    0.0000 </r>
        <r>   22.7480    0.0000 </r>
       </set>
       <set comment="kpoint 53">
        <r>   -4.3310    1.0000 </r>
        <r>    0.6230    1.0000 </r>
        <r>    3.2468    1.0000 </r>
        <r>    3.2468    1.0000 </r>
        <r>    6.3712    0.0000 </r>
        <r>    7.6345    0.0000 </r>
        <r>   12.7864    0.0000 </r>
        <r>   12.7864    0.0000 </r>
        <r>   15.2235    0.0000 </r>
        <r>   15.4405    0.0000 </r>
        <r>   18.5299    0.0000 </r>
        <r>   18.9727    0.0000 </r>
        <r>   18.9727    0.0000 </r>
        <r>   20.6180    0.0000 </r>
        <r>   21.6614    0.0000 </r>
        <r>   21.8644    0.0000 </r>
       </set>
       <set comment="kpoint 54">
        <r>   -3.9214    1.0000 </r>
        <r>    0.0081    1.0000 </r>
        <r>    2.9030    1.0000 </r>
        <r>    3.1230    1.0000 </r>
        <r>    6.4743    0.0000 </r>
        <r>    7.4592    0.0000 </r>
        <r>   13.0879    0.0000 </r>
        <r>   13.1448    0.0000 </r>
        <r>   16.0926    0.0000 </r>
        <r>   16.2122    0.0000 </r>
        <r>   17.9722    0.0000 </r>
        <r>   18.3120    0.0000 </r>
        <r>   19.6420    0.0000 </r>
        <r>   20.7166    0.0000 </r>
        <r>   21.1039    0.0000 </r>
        <r>   22.4507    0.0000 </r>
       </set>
       <set comment="kpoint 55">
        <r>   -3.4408    1.0000 </r>
        <r>   -0.6139    1.0000 </r>
        <r>    2.3466    1.0000 </r>
        <r>    3.0921    1.0000 </r>
        <r>    6.6583    0.0000 </r>
        <r>    7.8962    0.0000 </r>
        <r>   13.0428    0.0000 </r>
        <r>   13.0944    0.0000 </r>
        <r>   16.7198    0.0000 </r>
        <r>   16.9595    0.0000 </r>
        <r>   17.1857    0.0000 </r>
        <r>   17.6143    0.0000 </r>
        <r>   20.2840    0.0000 </r>
        <r>   20.7543    0.0000 </r>
        <r>   21.2721    0.0000 </r>
        <r>   23.4475    0.0000 </r>
       </set>
       <set comment="kpoint 56">
        <r>   -2.9581    1.0000 </r>
        <r>   -1.1579    1.0000 </r>
        <r>    1.8076    1.0000 </r>
        <r>    3.1552    1.0000 </r>
        <r>    6.7640    0.0000 </r>
        <r>    8.8623    0.0000 </r>
        <r>   12.8672    0.0000 </r>
        <r>   12.9111    0.0000 </r>
        <r>   15.4250    0.0000 </r>
        <r>   15.5127    0.0000 </r>
        <r>   18.5206    0.0000 </r>
        <r>   18.9316    0.0000 </r>
        <r>   20.1072    0.0000 </r>
        <r>   21.5354    0.0000 </r>
        <r>   21.7595    0.0000 </r>
        <r>   23.9090    0.0000 </r>
       </set>
       <set comment="kpoint 57">
        <r>   -2.7269    1.0000 </r>
        <r>   -1.3873    1.0000 </r>
        <r>    1.4250    1.0000 </r>
        <r>    3.3089    1.0000 </r>
        <r>    6.9338    0.0000 </r>
        <r>   10.0801    0.0000 </r>
        <r>   12.5572    0.0000 </r>
        <r>   12.7835    0.0000 </r>
        <r>   14.0665    0.0000 </r>
        <r>   14.1943    0.0000 </r>
        <r>   19.9425    0.0000 </r>
        <r>   19.9728    0.0000 </r>
        <r>   20.2187    0.0000 </r>
        <r>   21.7098    0.0000 </r>
        <r>   22.0658    0.0000 </r>
        <r>   22.8369    0.0000 </r>
       </set>
       <set comment="kpoint 58">
        <r>   -3.0043    1.0000 </r>
        <r>   -1.0999    1.0000 </r>
        <r>    1.3032    1.0000 </r>
        <r>    3.5448    1.0000 </r>
        <r>    7.2010    0.0000 </r>
        <r>   11.3899    0.0000 </r>
        <r>   12.0221    0.0000 </r>
        <r>   12.5835    0.0000 </r>
        <r>   12.9077    0.0000 </r>
        <r>   13.2678    0.0000 </r>
        <r>   19.8504    0.0000 </r>
        <r>   20.4256    0.0000 </r>
        <r>   21.0752    0.0000 </r>
        <r>   21.1862    0.0000 </r>
        <r>   22.0382    0.0000 </r>
        <r>   22.9700    0.0000 </r>
       </set>
       <set comment="kpoint 59">
        <r>   -3.5379    1.0000 </r>
        <r>   -0.5237    1.0000 </r>
        <r>    2.9745    1.0000 </r>
        <r>    2.9745    1.0000 </r>
        <r>    6.2306    0.0000 </r>
        <r>    6.9623    0.0000 </r>
        <r>   14.0138    0.0000 </r>
        <r>   14.0138    0.0000 </r>
        <r>   16.3658    0.0000 </r>
        <r>   16.6011    0.0000 </r>
        <r>   18.0772    0.0000 </r>
        <r>   18.0772    0.0000 </r>
        <r>   19.2111    0.0000 </r>
        <r>   20.1086    0.0000 </r>
        <r>   22.0010    0.0000 </r>
        <r>   22.7736    0.0000 </r>
       </set>
       <set comment="kpoint 60">
        <r>   -3.0743    1.0000 </r>
        <r>   -1.0835    1.0000 </r>
        <r>    2.6656    1.0000 </r>
        <r>    2.9188    1.0000 </r>
        <r>    6.3866    0.0000 </r>
        <r>    6.9425    0.0000 </r>
        <r>   14.3072    0.0000 </r>
        <r>   14.3318    0.0000 </r>
        <r>   16.9409    0.0000 </r>
        <r>   17.0568    0.0000 </r>
        <r>   17.2107    0.0000 </r>
        <r>   17.6535    0.0000 </r>
        <r>   19.6142    0.0000 </r>
        <r>   19.8008    0.0000 </r>
        <r>   22.1102    0.0000 </r>
        <r>   23.6862    0.0000 </r>
       </set>
       <set comment="kpoint 61">
        <r>   -2.5759    1.0000 </r>
        <r>   -1.5920    1.0000 </r>
        <r>    2.1280    1.0000 </r>
        <r>    2.9581    1.0000 </r>
        <r>    6.5218    0.0000 </r>
        <r>    7.6417    0.0000 </r>
        <r>   14.1430    0.0000 </r>
        <r>   14.3033    0.0000 </r>
        <r>   15.6094    0.0000 </r>
        <r>   15.7247    0.0000 </r>
        <r>   18.5101    0.0000 </r>
        <r>   18.8244    0.0000 </r>
        <r>   19.9160    0.0000 </r>
        <r>   20.2611    0.0000 </r>
        <r>   22.0016    0.0000 </r>
        <r>   23.8433    0.0000 </r>
       </set>
       <set comment="kpoint 62">
        <r>   -2.3627    1.0000 </r>
        <r>   -1.7595    1.0000 </r>
        <r>    1.6446    1.0000 </r>
        <r>    3.0904    1.0000 </r>
        <r>    6.6765    0.0000 </r>
        <r>    8.7617    0.0000 </r>
        <r>   13.6108    0.0000 </r>
        <r>   14.1846    0.0000 </r>
        <r>   14.1849    0.0000 </r>
        <r>   14.6426    0.0000 </r>
        <r>   19.7039    0.0000 </r>
        <r>   19.8660    0.0000 </r>
        <r>   20.2033    0.0000 </r>
        <r>   21.2053    0.0000 </r>
        <r>   21.7674    0.0000 </r>
        <r>   22.3196    0.0000 </r>
       </set>
       <set comment="kpoint 63">
        <r>   -2.6271    1.0000 </r>
        <r>   -1.6153    1.0000 </r>
        <r>    2.8369    1.0000 </r>
        <r>    2.8369    1.0000 </r>
        <r>    6.2707    0.0000 </r>
        <r>    6.5098    0.0000 </r>
        <r>   15.2122    0.0000 </r>
        <r>   15.2122    0.0000 </r>
        <r>   16.8658    0.0000 </r>
        <r>   16.8658    0.0000 </r>
        <r>   17.4547    0.0000 </r>
        <r>   17.8632    0.0000 </r>
        <r>   18.7039    0.0000 </r>
        <r>   18.8621    0.0000 </r>
        <r>   23.5654    0.0000 </r>
        <r>   24.4108    0.0000 </r>
       </set>
       <set comment="kpoint 64">
        <r>   -2.1504    1.0000 </r>
        <r>   -2.0911    1.0000 </r>
        <r>    2.5866    1.0000 </r>
        <r>    2.8502    1.0000 </r>
        <r>    6.3996    0.0000 </r>
        <r>    6.7264    0.0000 </r>
        <r>   15.1871    0.0000 </r>
        <r>   15.3317    0.0000 </r>
        <r>   16.0065    0.0000 </r>
        <r>   16.1281    0.0000 </r>
        <r>   18.4453    0.0000 </r>
        <r>   18.4478    0.0000 </r>
        <r>   18.6220    0.0000 </r>
        <r>   18.9903    0.0000 </r>
        <r>   23.6753    0.0000 </r>
        <r>   23.9234    0.0000 </r>
       </set>
       <set comment="kpoint 65">
        <r>   -5.8211    1.0000 </r>
        <r>    3.5542    1.0000 </r>
        <r>    4.4587    1.0000 </r>
        <r>    5.1436    1.0000 </r>
        <r>    7.9753    0.0000 </r>
        <r>    8.8746    0.0000 </r>
        <r>    9.2690    0.0000 </r>
        <r>   10.4898    0.0000 </r>
        <r>   12.1720    0.0000 </r>
        <r>   13.4449    0.0000 </r>
        <r>   14.8930    0.0000 </r>
        <r>   16.8152    0.0000 </r>
        <r>   17.5132    0.0000 </r>
        <r>   18.9167    0.0000 </r>
        <r>   23.1214    0.0000 </r>
        <r>   24.4725    0.0000 </r>
       </set>
       <set comment="kpoint 66">
        <r>   -5.5420    1.0000 </r>
        <r>    2.5435    1.0000 </r>
        <r>    4.0218    1.0000 </r>
        <r>    4.9655    1.0000 </r>
        <r>    8.1591    0.0000 </r>
        <r>    8.8668    0.0000 </r>
        <r>    9.6592    0.0000 </r>
        <r>   10.7210    0.0000 </r>
        <r>   12.4330    0.0000 </r>
        <r>   13.7918    0.0000 </r>
        <r>   15.4399    0.0000 </r>
        <r>   16.8881    0.0000 </r>
        <r>   18.3900    0.0000 </r>
        <r>   20.1451    0.0000 </r>
        <r>   22.7237    0.0000 </r>
        <r>   23.9970    0.0000 </r>
       </set>
       <set comment="kpoint 67">
        <r>   -5.1624    1.0000 </r>
        <r>    1.4367    1.0000 </r>
        <r>    3.7476    1.0000 </r>
        <r>    4.7129    1.0000 </r>
        <r>    8.1920    0.0000 </r>
        <r>    8.9191    0.0000 </r>
        <r>    9.8557    0.0000 </r>
        <r>   10.9565    0.0000 </r>
        <r>   12.9354    0.0000 </r>
        <r>   14.6697    0.0000 </r>
        <r>   15.3424    0.0000 </r>
        <r>   17.7531    0.0000 </r>
        <r>   19.4027    0.0000 </r>
        <r>   21.1835    0.0000 </r>
        <r>   21.4109    0.0000 </r>
        <r>   23.3310    0.0000 </r>
       </set>
       <set comment="kpoint 68">
        <r>   -4.7018    1.0000 </r>
        <r>    0.3868    1.0000 </r>
        <r>    3.5715    1.0000 </r>
        <r>    4.4664    1.0000 </r>
        <r>    8.0824    0.0000 </r>
        <r>    8.9254    0.0000 </r>
        <r>    9.8318    0.0000 </r>
        <r>   11.5733    0.0000 </r>
        <r>   13.6749    0.0000 </r>
        <r>   15.0553    0.0000 </r>
        <r>   15.8143    0.0000 </r>
        <r>   18.2809    0.0000 </r>
        <r>   19.5385    0.0000 </r>
        <r>   20.8739    0.0000 </r>
        <r>   21.8977    0.0000 </r>
        <r>   23.0326    0.0000 </r>
       </set>
       <set comment="kpoint 69">
        <r>   -4.2104    1.0000 </r>
        <r>   -0.5116    1.0000 </r>
        <r>    3.4707    1.0000 </r>
        <r>    4.2739    1.0000 </r>
        <r>    7.9753    0.0000 </r>
        <r>    8.8536    0.0000 </r>
        <r>    9.7345    0.0000 </r>
        <r>   12.4892    0.0000 </r>
        <r>   14.3600    0.0000 </r>
        <r>   15.0721    0.0000 </r>
        <r>   17.0414    0.0000 </r>
        <r>   17.1958    0.0000 </r>
        <r>   19.0609    0.0000 </r>
        <r>   20.7728    0.0000 </r>
        <r>   22.3357    0.0000 </r>
        <r>   23.6786    0.0000 </r>
       </set>
       <set comment="kpoint 70">
        <r>   -3.8302    1.0000 </r>
        <r>   -1.0987    1.0000 </r>
        <r>    3.4273    1.0000 </r>
        <r>    4.1676    1.0000 </r>
        <r>    7.9165    0.0000 </r>
        <r>    8.7957    0.0000 </r>
        <r>    9.6645    0.0000 </r>
        <r>   13.4460    0.0000 </r>
        <r>   14.3559    0.0000 </r>
        <r>   15.4743    0.0000 </r>
        <r>   16.6262    0.0000 </r>
        <r>   17.6561    0.0000 </r>
        <r>   18.4482    0.0000 </r>
        <r>   19.8106    0.0000 </r>
        <r>   23.7571    0.0000 </r>
        <r>   25.3493    0.0000 </r>
       </set>
       <set comment="kpoint 71">
        <r>   -5.4455    1.0000 </r>
        <r>    2.5888    1.0000 </r>
        <r>    3.8644    1.0000 </r>
        <r>    4.4527    1.0000 </r>
        <r>    7.5138    0.0000 </r>
        <r>    9.4845    0.0000 </r>
        <r>   10.1453    0.0000 </r>
        <r>   10.3508    0.0000 </r>
        <r>   12.8531    0.0000 </r>
        <r>   14.0692    0.0000 </r>
        <r>   15.9487    0.0000 </r>
        <r>   17.3426    0.0000 </r>
        <r>   18.2234    0.0000 </r>
        <r>   19.7438    0.0000 </r>
        <r>   22.7344    0.0000 </r>
        <r>   24.0525    0.0000 </r>
       </set>
       <set comment="kpoint 72">
        <r>   -5.0987    1.0000 </r>
        <r>    1.6804    1.0000 </r>
        <r>    3.4262    1.0000 </r>
        <r>    4.2528    1.0000 </r>
        <r>    7.7461    0.0000 </r>
        <r>    9.4734    0.0000 </r>
        <r>    9.9968    0.0000 </r>
        <r>   10.7206    0.0000 </r>
        <r>   13.4545    0.0000 </r>
        <r>   14.8720    0.0000 </r>
        <r>   16.2363    0.0000 </r>
        <r>   17.6962    0.0000 </r>
        <r>   19.0785    0.0000 </r>
        <r>   20.8389    0.0000 </r>
        <r>   21.2618    0.0000 </r>
        <r>   23.2237    0.0000 </r>
       </set>
       <set comment="kpoint 73">
        <r>   -4.6626    1.0000 </r>
        <r>    0.7022    1.0000 </r>
        <r>    3.1300    1.0000 </r>
        <r>    4.0206    1.0000 </r>
        <r>    7.8981    0.0000 </r>
        <r>    9.5876    0.0000 </r>
        <r>   10.0853    0.0000 </r>
        <r>   10.8216    0.0000 </r>
        <r>   14.1827    0.0000 </r>
        <r>   15.9386    0.0000 </r>
        <r>   16.0534    0.0000 </r>
        <r>   18.1978    0.0000 </r>
        <r>   19.3879    0.0000 </r>
        <r>   20.6726    0.0000 </r>
        <r>   21.4535    0.0000 </r>
        <r>   23.3853    0.0000 </r>
       </set>
       <set comment="kpoint 74">
        <r>   -4.1721    1.0000 </r>
        <r>   -0.2054    1.0000 </r>
        <r>    2.9111    1.0000 </r>
        <r>    3.8531    1.0000 </r>
        <r>    7.9320    0.0000 </r>
        <r>    9.4049    0.0000 </r>
        <r>   10.7020    0.0000 </r>
        <r>   10.9458    0.0000 </r>
        <r>   15.0687    0.0000 </r>
        <r>   15.5258    0.0000 </r>
        <r>   17.3094    0.0000 </r>
        <r>   17.3422    0.0000 </r>
        <r>   19.0196    0.0000 </r>
        <r>   21.0608    0.0000 </r>
        <r>   22.7003    0.0000 </r>
        <r>   23.4648    0.0000 </r>
       </set>
       <set comment="kpoint 75">
        <r>   -3.7271    1.0000 </r>
        <r>   -0.8980    1.0000 </r>
        <r>    2.7437    1.0000 </r>
        <r>    3.7957    1.0000 </r>
        <r>    7.9742    0.0000 </r>
        <r>    9.2158    0.0000 </r>
        <r>   10.6256    0.0000 </r>
        <r>   12.0198    0.0000 </r>
        <r>   14.6331    0.0000 </r>
        <r>   15.8619    0.0000 </r>
        <r>   16.8674    0.0000 </r>
        <r>   17.8228    0.0000 </r>
        <r>   18.7197    0.0000 </r>
        <r>   21.5254    0.0000 </r>
        <r>   23.0656    0.0000 </r>
        <r>   24.5745    0.0000 </r>
       </set>
       <set comment="kpoint 76">
        <r>   -3.5764    1.0000 </r>
        <r>   -1.1091    1.0000 </r>
        <r>    2.6309    1.0000 </r>
        <r>    3.8555    1.0000 </r>
        <r>    8.0802    0.0000 </r>
        <r>    9.0842    0.0000 </r>
        <r>   10.5536    0.0000 </r>
        <r>   13.2444    0.0000 </r>
        <r>   13.5248    0.0000 </r>
        <r>   15.3992    0.0000 </r>
        <r>   16.8863    0.0000 </r>
        <r>   18.0245    0.0000 </r>
        <r>   20.0290    0.0000 </r>
        <r>   20.3069    0.0000 </r>
        <r>   23.6838    0.0000 </r>
        <r>   24.6876    0.0000 </r>
       </set>
       <set comment="kpoint 77">
        <r>   -3.8661    1.0000 </r>
        <r>   -0.6900    1.0000 </r>
        <r>    2.5911    1.0000 </r>
        <r>    4.0177    1.0000 </r>
        <r>    8.2537    0.0000 </r>
        <r>    9.0221    0.0000 </r>
        <r>   10.5232    0.0000 </r>
        <r>   12.3624    0.0000 </r>
        <r>   14.3973    0.0000 </r>
        <r>   14.5296    0.0000 </r>
        <r>   16.8366    0.0000 </r>
        <r>   18.9114    0.0000 </r>
        <r>   19.3451    0.0000 </r>
        <r>   21.1121    0.0000 </r>
        <r>   22.1751    0.0000 </r>
        <r>   24.1538    0.0000 </r>
       </set>
       <set comment="kpoint 78">
        <r>   -4.3458    1.0000 </r>
        <r>    0.0967    1.0000 </r>
        <r>    2.6490    1.0000 </r>
        <r>    4.2578    1.0000 </r>
        <r>    8.4681    0.0000 </r>
        <r>    9.0058    0.0000 </r>
        <r>   10.4966    0.0000 </r>
        <r>   11.3610    0.0000 </r>
        <r>   13.4620    0.0000 </r>
        <r>   15.4493    0.0000 </r>
        <r>   17.3586    0.0000 </r>
        <r>   17.5851    0.0000 </r>
        <r>   19.8523    0.0000 </r>
        <r>   20.9160    0.0000 </r>
        <r>   22.0976    0.0000 </r>
        <r>   23.2461    0.0000 </r>
       </set>
       <set comment="kpoint 79">
        <r>   -4.8233    1.0000 </r>
        <r>    1.0176    1.0000 </r>
        <r>    2.8453    1.0000 </r>
        <r>    4.5406    1.0000 </r>
        <r>    8.6531    0.0000 </r>
        <r>    8.9360    0.0000 </r>
        <r>   10.3829    0.0000 </r>
        <r>   10.6954    0.0000 </r>
        <r>   12.7261    0.0000 </r>
        <r>   16.0070    0.0000 </r>
        <r>   16.2391    0.0000 </r>
        <r>   17.7080    0.0000 </r>
        <r>   19.3369    0.0000 </r>
        <r>   20.6281    0.0000 </r>
        <r>   21.8826    0.0000 </r>
        <r>   23.7610    0.0000 </r>
       </set>
       <set comment="kpoint 80">
        <r>   -5.2304    1.0000 </r>
        <r>    1.8920    1.0000 </r>
        <r>    3.2725    1.0000 </r>
        <r>    4.8082    1.0000 </r>
        <r>    8.4886    0.0000 </r>
        <r>    8.9252    0.0000 </r>
        <r>   10.0860    0.0000 </r>
        <r>   10.5104    0.0000 </r>
        <r>   12.4372    0.0000 </r>
        <r>   14.8877    0.0000 </r>
        <r>   16.1069    0.0000 </r>
        <r>   17.1561    0.0000 </r>
        <r>   18.9088    0.0000 </r>
        <r>   21.0909    0.0000 </r>
        <r>   21.2813    0.0000 </r>
        <r>   24.0918    0.0000 </r>
       </set>
       <set comment="kpoint 81">
        <r>   -4.9258    1.0000 </r>
        <r>    1.5717    1.0000 </r>
        <r>    3.3549    1.0000 </r>
        <r>    3.7850    1.0000 </r>
        <r>    7.1036    0.0000 </r>
        <r>    8.7711    0.0000 </r>
        <r>   10.8925    0.0000 </r>
        <r>   11.5273    0.0000 </r>
        <r>   14.0262    0.0000 </r>
        <r>   14.9905    0.0000 </r>
        <r>   17.0513    0.0000 </r>
        <r>   18.1256    0.0000 </r>
        <r>   19.0635    0.0000 </r>
        <r>   20.3831    0.0000 </r>
        <r>   21.3390    0.0000 </r>
        <r>   22.7935    0.0000 </r>
       </set>
       <set comment="kpoint 82">
        <r>   -4.5179    1.0000 </r>
        <r>    0.7917    1.0000 </r>
        <r>    2.9063    1.0000 </r>
        <r>    3.5798    1.0000 </r>
        <r>    7.3669    0.0000 </r>
        <r>    8.8222    0.0000 </r>
        <r>   10.7406    0.0000 </r>
        <r>   11.8752    0.0000 </r>
        <r>   14.6469    0.0000 </r>
        <r>   16.1746    0.0000 </r>
        <r>   16.8990    0.0000 </r>
        <r>   18.3837    0.0000 </r>
        <r>   19.4145    0.0000 </r>
        <r>   20.4386    0.0000 </r>
        <r>   21.1303    0.0000 </r>
        <r>   23.0494    0.0000 </r>
       </set>
       <set comment="kpoint 83">
        <r>   -4.0394    1.0000 </r>
        <r>   -0.0184    1.0000 </r>
        <r>    2.5159    1.0000 </r>
        <r>    3.4316    1.0000 </r>
        <r>    7.5102    0.0000 </r>
        <r>    9.4414    0.0000 </r>
        <r>   10.5100    0.0000 </r>
        <r>   11.9033    0.0000 </r>
        <r>   15.5679    0.0000 </r>
        <r>   16.0974    0.0000 </r>
        <r>   17.5269    0.0000 </r>
        <r>   17.7473    0.0000 </r>
        <r>   19.2191    0.0000 </r>
        <r>   20.6435    0.0000 </r>
        <r>   22.3145    0.0000 </r>
        <r>   23.6845    0.0000 </r>
       </set>
       <set comment="kpoint 84">
        <r>   -3.5584    1.0000 </r>
        <r>   -0.7266    1.0000 </r>
        <r>    2.1928    1.0000 </r>
        <r>    3.4006    1.0000 </r>
        <r>    7.5890    0.0000 </r>
        <r>   10.1949    0.0000 </r>
        <r>   10.5427    0.0000 </r>
        <r>   11.8048    0.0000 </r>
        <r>   14.9010    0.0000 </r>
        <r>   16.4403    0.0000 </r>
        <r>   17.1235    0.0000 </r>
        <r>   18.3928    0.0000 </r>
        <r>   18.9118    0.0000 </r>
        <r>   22.0323    0.0000 </r>
        <r>   23.3559    0.0000 </r>
        <r>   23.9172    0.0000 </r>
       </set>
       <set comment="kpoint 85">
        <r>   -3.2773    1.0000 </r>
        <r>   -1.0958    1.0000 </r>
        <r>    1.9606    1.0000 </r>
        <r>    3.4860    1.0000 </r>
        <r>    7.7228    0.0000 </r>
        <r>   10.0457    0.0000 </r>
        <r>   11.6475    0.0000 </r>
        <r>   11.7657    0.0000 </r>
        <r>   13.5971    0.0000 </r>
        <r>   15.5982    0.0000 </r>
        <r>   17.7632    0.0000 </r>
        <r>   18.3860    0.0000 </r>
        <r>   20.2773    0.0000 </r>
        <r>   22.1682    0.0000 </r>
        <r>   23.2706    0.0000 </r>
        <r>   23.6321    0.0000 </r>
       </set>
       <set comment="kpoint 86">
        <r>   -3.4539    1.0000 </r>
        <r>   -0.8606    1.0000 </r>
        <r>    1.8471    1.0000 </r>
        <r>    3.6722    1.0000 </r>
        <r>    7.9412    0.0000 </r>
        <r>    9.8990    0.0000 </r>
        <r>   11.5718    0.0000 </r>
        <r>   12.3194    0.0000 </r>
        <r>   13.1230    0.0000 </r>
        <r>   14.4305    0.0000 </r>
        <r>   17.8402    0.0000 </r>
        <r>   19.5990    0.0000 </r>
        <r>   20.7766    0.0000 </r>
        <r>   21.2765    0.0000 </r>
        <r>   22.0042    0.0000 </r>
        <r>   23.8212    0.0000 </r>
       </set>
       <set comment="kpoint 87">
        <r>   -3.9084    1.0000 </r>
        <r>   -0.2286    1.0000 </r>
        <r>    1.8959    1.0000 </r>
        <r>    3.9374    1.0000 </r>
        <r>    8.2332    0.0000 </r>
        <r>    9.7482    0.0000 </r>
        <r>   11.1861    0.0000 </r>
        <r>   11.5321    0.0000 </r>
        <r>   13.3903    0.0000 </r>
        <r>   14.5079    0.0000 </r>
        <r>   18.0147    0.0000 </r>
        <r>   19.3040    0.0000 </r>
        <r>   19.7967    0.0000 </r>
        <r>   21.0299    0.0000 </r>
        <r>   22.8059    0.0000 </r>
        <r>   23.1487    0.0000 </r>
       </set>
       <set comment="kpoint 88">
        <r>   -4.3948    1.0000 </r>
        <r>    0.4656    1.0000 </r>
        <r>    2.1964    1.0000 </r>
        <r>    4.2473    1.0000 </r>
        <r>    8.5532    0.0000 </r>
        <r>    9.3863    0.0000 </r>
        <r>   10.6457    0.0000 </r>
        <r>   11.1037    0.0000 </r>
        <r>   12.7911    0.0000 </r>
        <r>   15.7524    0.0000 </r>
        <r>   17.6754    0.0000 </r>
        <r>   18.0872    0.0000 </r>
        <r>   18.9589    0.0000 </r>
        <r>   21.5017    0.0000 </r>
        <r>   21.8836    0.0000 </r>
        <r>   23.8488    0.0000 </r>
       </set>
       <set comment="kpoint 89">
        <r>   -4.2692    1.0000 </r>
        <r>    0.5123    1.0000 </r>
        <r>    2.9662    1.0000 </r>
        <r>    3.2488    1.0000 </r>
        <r>    6.8062    0.0000 </r>
        <r>    7.9439    0.0000 </r>
        <r>   11.9449    0.0000 </r>
        <r>   12.7546    0.0000 </r>
        <r>   15.2050    0.0000 </r>
        <r>   16.1741    0.0000 </r>
        <r>   17.5981    0.0000 </r>
        <r>   18.8372    0.0000 </r>
        <r>   19.4358    0.0000 </r>
        <r>   20.3267    0.0000 </r>
        <r>   21.1953    0.0000 </r>
        <r>   22.5848    0.0000 </r>
       </set>
       <set comment="kpoint 90">
        <r>   -3.8101    1.0000 </r>
        <r>   -0.1446    1.0000 </r>
        <r>    2.4928    1.0000 </r>
        <r>    3.0866    1.0000 </r>
        <r>    7.0848    0.0000 </r>
        <r>    8.1813    0.0000 </r>
        <r>   11.7549    0.0000 </r>
        <r>   13.0921    0.0000 </r>
        <r>   15.9107    0.0000 </r>
        <r>   16.5011    0.0000 </r>
        <r>   17.5448    0.0000 </r>
        <r>   18.2719    0.0000 </r>
        <r>   19.9510    0.0000 </r>
        <r>   20.1077    0.0000 </r>
        <r>   21.9567    0.0000 </r>
        <r>   22.5662    0.0000 </r>
       </set>
       <set comment="kpoint 91">
        <r>   -3.3151    1.0000 </r>
        <r>   -0.7721    1.0000 </r>
        <r>    1.9997    1.0000 </r>
        <r>    3.0586    1.0000 </r>
        <r>    7.2122    0.0000 </r>
        <r>    9.0236    0.0000 </r>
        <r>   11.5134    0.0000 </r>
        <r>   13.0823    0.0000 </r>
        <r>   15.1139    0.0000 </r>
        <r>   16.7939    0.0000 </r>
        <r>   17.3191    0.0000 </r>
        <r>   18.9778    0.0000 </r>
        <r>   19.5778    0.0000 </r>
        <r>   21.1441    0.0000 </r>
        <r>   22.6783    0.0000 </r>
        <r>   23.3559    0.0000 </r>
       </set>
       <set comment="kpoint 92">
        <r>   -2.9364    1.0000 </r>
        <r>   -1.2044    1.0000 </r>
        <r>    1.6163    1.0000 </r>
        <r>    3.1477    1.0000 </r>
        <r>    7.3487    0.0000 </r>
        <r>   10.1620    0.0000 </r>
        <r>   11.3027    0.0000 </r>
        <r>   12.9415    0.0000 </r>
        <r>   13.7366    0.0000 </r>
        <r>   15.7149    0.0000 </r>
        <r>   18.3855    0.0000 </r>
        <r>   19.3574    0.0000 </r>
        <r>   20.3970    0.0000 </r>
        <r>   21.8768    0.0000 </r>
        <r>   23.1539    0.0000 </r>
        <r>   23.5536    0.0000 </r>
       </set>
       <set comment="kpoint 93">
        <r>   -3.0012    1.0000 </r>
        <r>   -1.1234    1.0000 </r>
        <r>    1.4155    1.0000 </r>
        <r>    3.3382    1.0000 </r>
        <r>    7.5704    0.0000 </r>
        <r>   10.9371    0.0000 </r>
        <r>   11.6213    0.0000 </r>
        <r>   12.3439    0.0000 </r>
        <r>   12.8887    0.0000 </r>
        <r>   14.4892    0.0000 </r>
        <r>   19.2823    0.0000 </r>
        <r>   19.7260    0.0000 </r>
        <r>   21.1851    0.0000 </r>
        <r>   21.5978    0.0000 </r>
        <r>   22.4857    0.0000 </r>
        <r>   22.8511    0.0000 </r>
       </set>
       <set comment="kpoint 94">
        <r>   -3.4247    1.0000 </r>
        <r>   -0.6684    1.0000 </r>
        <r>    1.4772    1.0000 </r>
        <r>    3.6115    1.0000 </r>
        <r>    7.8776    0.0000 </r>
        <r>   10.5957    0.0000 </r>
        <r>   11.4476    0.0000 </r>
        <r>   12.3266    0.0000 </r>
        <r>   13.1105    0.0000 </r>
        <r>   13.6256    0.0000 </r>
        <r>   19.2130    0.0000 </r>
        <r>   19.7826    0.0000 </r>
        <r>   20.5419    0.0000 </r>
        <r>   21.2521    0.0000 </r>
        <r>   22.5648    0.0000 </r>
        <r>   22.9678    0.0000 </r>
       </set>
       <set comment="kpoint 95">
        <r>   -3.4861    1.0000 </r>
        <r>   -0.5601    1.0000 </r>
        <r>    2.7152    1.0000 </r>
        <r>    2.8738    1.0000 </r>
        <r>    6.6570    0.0000 </r>
        <r>    7.3110    0.0000 </r>
        <r>   13.0613    0.0000 </r>
        <r>   14.0080    0.0000 </r>
        <r>   16.3708    0.0000 </r>
        <r>   16.8202    0.0000 </r>
        <r>   17.4251    0.0000 </r>
        <r>   18.2187    0.0000 </r>
        <r>   19.5678    0.0000 </r>
        <r>   20.9994    0.0000 </r>
        <r>   21.1446    0.0000 </r>
        <r>   22.5567    0.0000 </r>
       </set>
       <set comment="kpoint 96">
        <r>   -2.9924    1.0000 </r>
        <r>   -1.1131    1.0000 </r>
        <r>    2.2248    1.0000 </r>
        <r>    2.8018    1.0000 </r>
        <r>    6.9180    0.0000 </r>
        <r>    7.7802    0.0000 </r>
        <r>   12.8468    0.0000 </r>
        <r>   14.3084    0.0000 </r>
        <r>   15.3805    0.0000 </r>
        <r>   16.9091    0.0000 </r>
        <r>   17.4484    0.0000 </r>
        <r>   18.9511    0.0000 </r>
        <r>   19.8289    0.0000 </r>
        <r>   21.1395    0.0000 </r>
        <r>   21.4700    0.0000 </r>
        <r>   23.2817    0.0000 </r>
       </set>
       <set comment="kpoint 97">
        <r>   -2.5522    1.0000 </r>
        <r>   -1.5457    1.0000 </r>
        <r>    1.7133    1.0000 </r>
        <r>    2.8823    1.0000 </r>
        <r>    7.0539    0.0000 </r>
        <r>    8.8187    0.0000 </r>
        <r>   12.5951    0.0000 </r>
        <r>   13.7752    0.0000 </r>
        <r>   14.4077    0.0000 </r>
        <r>   15.8156    0.0000 </r>
        <r>   18.4855    0.0000 </r>
        <r>   19.9414    0.0000 </r>
        <r>   20.5932    0.0000 </r>
        <r>   21.1093    0.0000 </r>
        <r>   22.0555    0.0000 </r>
        <r>   23.0634    0.0000 </r>
       </set>
       <set comment="kpoint 98">
        <r>   -2.5841    1.0000 </r>
        <r>   -1.4887    1.0000 </r>
        <r>    1.3956    1.0000 </r>
        <r>    3.0664    1.0000 </r>
        <r>    7.2651    0.0000 </r>
        <r>   10.0823    0.0000 </r>
        <r>   12.1915    0.0000 </r>
        <r>   12.6643    0.0000 </r>
        <r>   13.9225    0.0000 </r>
        <r>   14.7989    0.0000 </r>
        <r>   19.4667    0.0000 </r>
        <r>   20.5607    0.0000 </r>
        <r>   20.7085    0.0000 </r>
        <r>   21.5905    0.0000 </r>
        <r>   21.7039    0.0000 </r>
        <r>   22.9801    0.0000 </r>
       </set>
       <set comment="kpoint 99">
        <r>   -2.5917    1.0000 </r>
        <r>   -1.6068    1.0000 </r>
        <r>    2.6117    1.0000 </r>
        <r>    2.6627    1.0000 </r>
        <r>    6.6795    0.0000 </r>
        <r>    6.8923    0.0000 </r>
        <r>   14.2253    0.0000 </r>
        <r>   15.0749    0.0000 </r>
        <r>   15.8240    0.0000 </r>
        <r>   16.7288    0.0000 </r>
        <r>   17.6557    0.0000 </r>
        <r>   18.8157    0.0000 </r>
        <r>   18.8479    0.0000 </r>
        <r>   20.0005    0.0000 </r>
        <r>   22.7253    0.0000 </r>
        <r>   23.8818    0.0000 </r>
       </set>
       <set comment="kpoint 100">
        <r>   -2.1747    1.0000 </r>
        <r>   -1.9846    1.0000 </r>
        <r>    2.1325    1.0000 </r>
        <r>    2.7097    1.0000 </r>
        <r>    6.8643    0.0000 </r>
        <r>    7.6435    0.0000 </r>
        <r>   13.9151    0.0000 </r>
        <r>   14.0978    0.0000 </r>
        <r>   15.5646    0.0000 </r>
        <r>   15.9592    0.0000 </r>
        <r>   18.3722    0.0000 </r>
        <r>   18.8482    0.0000 </r>
        <r>   20.1288    0.0000 </r>
        <r>   20.5360    0.0000 </r>
        <r>   22.7410    0.0000 </r>
        <r>   23.0923    0.0000 </r>
       </set>
       <set comment="kpoint 101">
        <r>   -4.7236    1.0000 </r>
        <r>    1.0594    1.0000 </r>
        <r>    2.7711    1.0000 </r>
        <r>    4.0523    1.0000 </r>
        <r>    8.1128    0.0000 </r>
        <r>    9.4539    0.0000 </r>
        <r>    9.7451    0.0000 </r>
        <r>   11.3463    0.0000 </r>
        <r>   13.5328    0.0000 </r>
        <r>   16.2408    0.0000 </r>
        <r>   16.6037    0.0000 </r>
        <r>   17.8349    0.0000 </r>
        <r>   19.3489    0.0000 </r>
        <r>   20.6086    0.0000 </r>
        <r>   21.3053    0.0000 </r>
        <r>   23.7517    0.0000 </r>
       </set>
       <set comment="kpoint 102">
        <r>   -4.2667    1.0000 </r>
        <r>    0.2959    1.0000 </r>
        <r>    2.3768    1.0000 </r>
        <r>    3.7771    1.0000 </r>
        <r>    8.4327    0.0000 </r>
        <r>    9.4027    0.0000 </r>
        <r>    9.8857    0.0000 </r>
        <r>   11.7049    0.0000 </r>
        <r>   14.0461    0.0000 </r>
        <r>   15.8730    0.0000 </r>
        <r>   17.6547    0.0000 </r>
        <r>   17.9933    0.0000 </r>
        <r>   19.5080    0.0000 </r>
        <r>   20.6541    0.0000 </r>
        <r>   21.8359    0.0000 </r>
        <r>   23.8773    0.0000 </r>
       </set>
       <set comment="kpoint 103">
        <r>   -3.7744    1.0000 </r>
        <r>   -0.4674    1.0000 </r>
        <r>    2.1784    1.0000 </r>
        <r>    3.5409    1.0000 </r>
        <r>    8.5607    0.0000 </r>
        <r>    9.1094    0.0000 </r>
        <r>   10.7807    0.0000 </r>
        <r>   11.7875    0.0000 </r>
        <r>   14.6347    0.0000 </r>
        <r>   14.9810    0.0000 </r>
        <r>   17.5860    0.0000 </r>
        <r>   19.1016    0.0000 </r>
        <r>   19.3577    0.0000 </r>
        <r>   20.9748    0.0000 </r>
        <r>   23.1455    0.0000 </r>
        <r>   23.4401    0.0000 </r>
       </set>
       <set comment="kpoint 104">
        <r>   -3.3845    1.0000 </r>
        <r>   -1.0094    1.0000 </r>
        <r>    2.0981    1.0000 </r>
        <r>    3.4073    1.0000 </r>
        <r>    8.6751    0.0000 </r>
        <r>    8.8628    0.0000 </r>
        <r>   11.7593    0.0000 </r>
        <r>   11.9674    0.0000 </r>
        <r>   13.2892    0.0000 </r>
        <r>   16.0051    0.0000 </r>
        <r>   17.3040    0.0000 </r>
        <r>   18.2572    0.0000 </r>
        <r>   20.5302    0.0000 </r>
        <r>   21.8305    0.0000 </r>
        <r>   22.7296    0.0000 </r>
        <r>   24.0414    0.0000 </r>
       </set>
       <set comment="kpoint 105">
        <r>   -4.0875    1.0000 </r>
        <r>    0.2077    1.0000 </r>
        <r>    2.4057    1.0000 </r>
        <r>    3.3055    1.0000 </r>
        <r>    7.8294    0.0000 </r>
        <r>    8.7801    0.0000 </r>
        <r>   10.5075    0.0000 </r>
        <r>   12.6621    0.0000 </r>
        <r>   14.7981    0.0000 </r>
        <r>   16.1837    0.0000 </r>
        <r>   17.6727    0.0000 </r>
        <r>   18.6833    0.0000 </r>
        <r>   19.4270    0.0000 </r>
        <r>   20.2726    0.0000 </r>
        <r>   21.6551    0.0000 </r>
        <r>   23.0726    0.0000 </r>
       </set>
       <set comment="kpoint 106">
        <r>   -3.5989    1.0000 </r>
        <r>   -0.4309    1.0000 </r>
        <r>    2.0366    1.0000 </r>
        <r>    3.0552    1.0000 </r>
        <r>    8.1511    0.0000 </r>
        <r>    9.3224    0.0000 </r>
        <r>   10.2330    0.0000 </r>
        <r>   13.0300    0.0000 </r>
        <r>   14.8165    0.0000 </r>
        <r>   15.4818    0.0000 </r>
        <r>   18.4170    0.0000 </r>
        <r>   19.0834    0.0000 </r>
        <r>   19.7116    0.0000 </r>
        <r>   20.2978    0.0000 </r>
        <r>   22.4731    0.0000 </r>
        <r>   23.3036    0.0000 </r>
       </set>
       <set comment="kpoint 107">
        <r>   -3.1447    1.0000 </r>
        <r>   -0.9889    1.0000 </r>
        <r>    1.7829    1.0000 </r>
        <r>    2.9399    1.0000 </r>
        <r>    8.2944    0.0000 </r>
        <r>    9.8581    0.0000 </r>
        <r>   10.4904    0.0000 </r>
        <r>   13.0746    0.0000 </r>
        <r>   13.3991    0.0000 </r>
        <r>   16.4779    0.0000 </r>
        <r>   17.5509    0.0000 </r>
        <r>   19.0938    0.0000 </r>
        <r>   20.6707    0.0000 </r>
        <r>   21.5254    0.0000 </r>
        <r>   22.8204    0.0000 </r>
        <r>   24.0999    0.0000 </r>
       </set>
       <set comment="kpoint 108">
        <r>   -2.9960    1.0000 </r>
        <r>   -1.1601    1.0000 </r>
        <r>    1.6410    1.0000 </r>
        <r>    2.9845    1.0000 </r>
        <r>    8.4784    0.0000 </r>
        <r>    9.6779    0.0000 </r>
        <r>   11.6518    0.0000 </r>
        <r>   12.0942    0.0000 </r>
        <r>   13.0577    0.0000 </r>
        <r>   16.0710    0.0000 </r>
        <r>   17.9527    0.0000 </r>
        <r>   19.0419    0.0000 </r>
        <r>   21.6242    0.0000 </r>
        <r>   22.0393    0.0000 </r>
        <r>   22.5666    0.0000 </r>
        <r>   23.1424    0.0000 </r>
       </set>
       <set comment="kpoint 109">
        <r>   -3.3138    1.0000 </r>
        <r>   -0.7846    1.0000 </r>
        <r>    1.6455    1.0000 </r>
        <r>    3.1690    1.0000 </r>
        <r>    8.7399    0.0000 </r>
        <r>    9.4975    0.0000 </r>
        <r>   10.7785    0.0000 </r>
        <r>   12.9098    0.0000 </r>
        <r>   13.1896    0.0000 </r>
        <r>   14.9660    0.0000 </r>
        <r>   18.7438    0.0000 </r>
        <r>   19.4997    0.0000 </r>
        <r>   20.6261    0.0000 </r>
        <r>   20.9856    0.0000 </r>
        <r>   22.4125    0.0000 </r>
        <r>   23.6711    0.0000 </r>
       </set>
       <set comment="kpoint 110">
        <r>   -3.7982    1.0000 </r>
        <r>   -0.2142    1.0000 </r>
        <r>    1.8674    1.0000 </r>
        <r>    3.4544    1.0000 </r>
        <r>    9.0657    0.0000 </r>
        <r>    9.1376    0.0000 </r>
        <r>   10.0012    0.0000 </r>
        <r>   12.5212    0.0000 </r>
        <r>   14.2188    0.0000 </r>
        <r>   14.6209    0.0000 </r>
        <r>   18.7809    0.0000 </r>
        <r>   19.2985    0.0000 </r>
        <r>   19.4464    0.0000 </r>
        <r>   20.5108    0.0000 </r>
        <r>   22.3780    0.0000 </r>
        <r>   23.4995    0.0000 </r>
       </set>
       <set comment="kpoint 111">
        <r>   -3.3373    1.0000 </r>
        <r>   -0.6819    1.0000 </r>
        <r>    2.1989    1.0000 </r>
        <r>    2.7147    1.0000 </r>
        <r>    7.6766    0.0000 </r>
        <r>    8.2171    0.0000 </r>
        <r>   11.4827    0.0000 </r>
        <r>   13.9869    0.0000 </r>
        <r>   15.0643    0.0000 </r>
        <r>   16.1030    0.0000 </r>
        <r>   18.3245    0.0000 </r>
        <r>   19.1999    0.0000 </r>
        <r>   19.6991    0.0000 </r>
        <r>   20.4410    0.0000 </r>
        <r>   22.1589    0.0000 </r>
        <r>   22.7121    0.0000 </r>
       </set>
       <set comment="kpoint 112">
        <r>   -2.8494    1.0000 </r>
        <r>   -1.1925    1.0000 </r>
        <r>    1.8360    1.0000 </r>
        <r>    2.5571    1.0000 </r>
        <r>    7.9694    0.0000 </r>
        <r>    8.9957    0.0000 </r>
        <r>   11.2054    0.0000 </r>
        <r>   13.5265    0.0000 </r>
        <r>   14.4040    0.0000 </r>
        <r>   16.7071    0.0000 </r>
        <r>   17.6757    0.0000 </r>
        <r>   19.8065    0.0000 </r>
        <r>   20.5633    0.0000 </r>
        <r>   20.8992    0.0000 </r>
        <r>   22.5732    0.0000 </r>
        <r>   23.4939    0.0000 </r>
       </set>
       <set comment="kpoint 113">
        <r>   -2.5788    1.0000 </r>
        <r>   -1.4556    1.0000 </r>
        <r>    1.5278    1.0000 </r>
        <r>    2.6275    1.0000 </r>
        <r>    8.1492    0.0000 </r>
        <r>   10.1472    0.0000 </r>
        <r>   11.0079    0.0000 </r>
        <r>   12.1424    0.0000 </r>
        <r>   14.3571    0.0000 </r>
        <r>   16.0916    0.0000 </r>
        <r>   18.2490    0.0000 </r>
        <r>   20.0029    0.0000 </r>
        <r>   20.7236    0.0000 </r>
        <r>   22.1071    0.0000 </r>
        <r>   22.6649    0.0000 </r>
        <r>   23.7225    0.0000 </r>
       </set>
       <set comment="kpoint 114">
        <r>   -2.8449    1.0000 </r>
        <r>   -1.1882    1.0000 </r>
        <r>    1.4317    1.0000 </r>
        <r>    2.8461    1.0000 </r>
        <r>    8.4067    0.0000 </r>
        <r>   10.4441    0.0000 </r>
        <r>   11.0247    0.0000 </r>
        <r>   11.7331    0.0000 </r>
        <r>   13.9291    0.0000 </r>
        <r>   15.2309    0.0000 </r>
        <r>   19.1465    0.0000 </r>
        <r>   20.1928    0.0000 </r>
        <r>   20.2310    0.0000 </r>
        <r>   21.7320    0.0000 </r>
        <r>   22.6160    0.0000 </r>
        <r>   23.6531    0.0000 </r>
       </set>
       <set comment="kpoint 115">
        <r>   -2.4958    1.0000 </r>
        <r>   -1.5964    1.0000 </r>
        <r>    2.1690    1.0000 </r>
        <r>    2.3352    1.0000 </r>
        <r>    7.6785    0.0000 </r>
        <r>    7.8535    0.0000 </r>
        <r>   12.5706    0.0000 </r>
        <r>   13.7499    0.0000 </r>
        <r>   15.4102    0.0000 </r>
        <r>   16.6316    0.0000 </r>
        <r>   17.8272    0.0000 </r>
        <r>   18.9270    0.0000 </r>
        <r>   20.5661    0.0000 </r>
        <r>   21.7657    0.0000 </r>
        <r>   21.9224    0.0000 </r>
        <r>   23.2873    0.0000 </r>
       </set>
       <set comment="kpoint 116">
        <r>   -2.1986    1.0000 </r>
        <r>   -1.8446    1.0000 </r>
        <r>    1.7718    1.0000 </r>
        <r>    2.3801    1.0000 </r>
        <r>    7.9072    0.0000 </r>
        <r>    8.8869    0.0000 </r>
        <r>   12.2398    0.0000 </r>
        <r>   12.3922    0.0000 </r>
        <r>   15.4664    0.0000 </r>
        <r>   16.1422    0.0000 </r>
        <r>   18.2579    0.0000 </r>
        <r>   19.0608    0.0000 </r>
        <r>   21.5341    0.0000 </r>
        <r>   22.2682    0.0000 </r>
        <r>   22.3858    0.0000 </r>
        <r>   22.5648    0.0000 </r>
       </set>
       <set comment="kpoint 117">
        <r>   -3.1115    1.0000 </r>
        <r>   -0.9009    1.0000 </r>
        <r>    1.7247    1.0000 </r>
        <r>    2.6917    1.0000 </r>
        <r>    8.9956    0.0000 </r>
        <r>    9.3926    0.0000 </r>
        <r>    9.9851    0.0000 </r>
        <r>   13.3164    0.0000 </r>
        <r>   13.9704    0.0000 </r>
        <r>   15.6945    0.0000 </r>
        <r>   18.7498    0.0000 </r>
        <r>   19.8955    0.0000 </r>
        <r>   19.9993    0.0000 </r>
        <r>   21.0391    0.0000 </r>
        <r>   21.9610    0.0000 </r>
        <r>   24.1068    0.0000 </r>
       </set>
       <set comment="kpoint 118">
        <r>   -2.6903    1.0000 </r>
        <r>   -1.3222    1.0000 </r>
        <r>    1.5871    1.0000 </r>
        <r>    2.4756    1.0000 </r>
        <r>    9.2643    0.0000 </r>
        <r>    9.5879    0.0000 </r>
        <r>   10.5249    0.0000 </r>
        <r>   11.8874    0.0000 </r>
        <r>   14.3728    0.0000 </r>
        <r>   16.4150    0.0000 </r>
        <r>   17.9616    0.0000 </r>
        <r>   19.8756    0.0000 </r>
        <r>   20.5838    0.0000 </r>
        <r>   22.3306    0.0000 </r>
        <r>   22.5780    0.0000 </r>
        <r>   23.9172    0.0000 </r>
       </set>
       <set comment="kpoint 119">
        <r>   -2.3706    1.0000 </r>
        <r>   -1.6212    1.0000 </r>
        <r>    1.7992    1.0000 </r>
        <r>    2.1200    1.0000 </r>
        <r>    8.9873    0.0000 </r>
        <r>    9.1274    0.0000 </r>
        <r>   10.9263    0.0000 </r>
        <r>   12.0604    0.0000 </r>
        <r>   15.4033    0.0000 </r>
        <r>   16.5112    0.0000 </r>
        <r>   18.0099    0.0000 </r>
        <r>   19.0634    0.0000 </r>
        <r>   21.3176    0.0000 </r>
        <r>   22.3959    0.0000 </r>
        <r>   22.5375    0.0000 </r>
        <r>   23.7040    0.0000 </r>
       </set>
       <set comment="kpoint 120">
        <r>   -2.2609    1.0000 </r>
        <r>   -1.7088    1.0000 </r>
        <r>    1.6486    1.0000 </r>
        <r>    2.1389    1.0000 </r>
        <r>    9.2376    0.0000 </r>
        <r>   10.1251    0.0000 </r>
        <r>   10.7716    0.0000 </r>
        <r>   10.8227    0.0000 </r>
        <r>   15.4253    0.0000 </r>
        <r>   16.3446    0.0000 </r>
        <r>   18.1526    0.0000 </r>
        <r>   19.1374    0.0000 </r>
        <r>   21.3494    0.0000 </r>
        <r>   22.2214    0.0000 </r>
        <r>   23.6303    0.0000 </r>
        <r>   23.7356    0.0000 </r>
       </set>
      </set>
     </set>
    </array>
   </eigenvalues>
   <array>
    <dimension dim="1">ion</dimension>
    <dimension dim="2">band</dimension>
    <dimension dim="3">kpoint</dimension>
    <dimension dim="4">spin</dimension>
    <field>    s</field>
    <field>   py</field>
    <field>   pz</field>
    <field>   px</field>
    <field>  dxy</field>
    <field>  dyz</field>
    <field>  dz2</field>
    <field>  dxz</field>
    <field>x2-y2</field>
    <set>
     <set comment="spin1">
      <set comment="kpoint 1">
       <set comment="band 1">
        <r>  0.2120  0.0000  0.0000  0.0000  0.0000  0.0000  0.0000  0.0000  0.0000 </r>
        <r>  0.2120  0.0000  0.0000  0.0000  0.0000  0.0000  0.0000  0.0000  0.0000 </r>
       </set>
       <set comment="band 2">
        <r>  0.0000  0.0712  0.0710  0.0717  0.0000  0.0000  0.0000  0.0000  0.0000 </r>
        <r>  0.0000  0.0712  0.0710  0.0717  0.0000  0.0000  0.0000  0.0000  0.0000 </r>
       </set>
       <set comment="band 3">
        <r>  0.0000  0.1240  0.0864  0.0035  0.0000  0.0000  0.0000  0.0000  0.0000 </r>
        <r>  0.0000  0.1240  0.0864  0.0035  0.0000  0.0000  0.0000  0.0000  0.0000 </r>
       </set>
       <set comment="band 4">
        <r>  0.0000  0.0187  0.0565  0.1387  0.0000  0.0000  0.0000  0.0000  0.0000 </r>
        <r>  0.0000  0.0187  0.0565  0.1387  0.0000  0.0000  0.0000  0.0000  0.0000 </r>
       </set>
       <set comment="band 5">
        <r>  0.0000  0.0503  0.0502  0.0503  0.0000  0.0000  0.0000  0.0000  0.0000 </r>
        <r>  0.0000  0.0503  0.0502  0.0503  0.0000  0.0000  0.0000  0.0000  0.0000 </r>
       </set>
       <set comment="band 6">
        <r>  0.0000  0.0818  0.0008  0.0681  0.0000  0.0000  0.0000  0.0000  0.0000 </r>
        <r>  0.0000  0.0818  0.0008  0.0681  0.0000  0.0000  0.0000  0.0000  0.0000 </r>
       </set>
       <set comment="band 7">
        <r>  0.0000  0.0186  0.0997  0.0324  0.0000  0.0000  0.0000  0.0000  0.0000 </r>
        <r>  0.0000  0.0186  0.0997  0.0324  0.0000  0.0000  0.0000  0.0000  0.0000 </r>
       </set>
       <set comment="band 8">
        <r>  0.3586  0.0000  0.0000  0.0000  0.0000  0.0000  0.0000  0.0000  0.0000 </r>
        <r>  0.3586  0.0000  0.0000  0.0000  0.0000  0.0000  0.0000  0.0000  0.0000 </r>
       </set>
       <set comment="band 9">
        <r>  0.0000  0.0000  0.0000  0.0000  0.0000  0.0000  0.0000  0.0000  0.0000 </r>
        <r>  0.0000  0.0000  0.0000  0.0000  0.0000  0.0000  0.0000  0.0000  0.0000 </r>
       </set>
       <set comment="band 10">
        <r>  0.0000  0.0000  0.0000  0.0000  0.0000  0.0000  0.0000  0.0000  0.0000 </r>
        <r>  0.0000  0.0000  0.0000  0.0000  0.0000  0.0000  0.0000  0.0000  0.0000 </r>
       </set>
       <set comment="band 11">
        <r>  0.1004  0.0000  0.0000  0.0000  0.0000  0.0000  0.0000  0.0000  0.0000 </r>
        <r>  0.1004  0.0000  0.0000  0.0000  0.0000  0.0000  0.0000  0.0000  0.0000 </r>
       </set>
       <set comment="band 12">
        <r>  0.0000  0.0225  0.0161  0.0005  0.0000  0.0000  0.0000  0.0000  0.0000 </r>
        <r>  0.0000  0.0225  0.0161  0.0005  0.0000  0.0000  0.0000  0.0000  0.0000 </r>
       </set>
       <set comment="band 13">
        <r>  0.0000  0.0034  0.0096  0.0262  0.0000  0.0000  0.0000  0.0000  0.0000 </r>
        <r>  0.0000  0.0034  0.0096  0.0262  0.0000  0.0000  0.0000  0.0000  0.0000 </r>
       </set>
       <set comment="band 14">
        <r>  0.0000  0.0133  0.0135  0.0124  0.0000  0.0000  0.0000  0.0000  0.0000 </r>
        <r>  0.0000  0.0133  0.0135  0.0124  0.0000  0.0000  0.0000  0.0000  0.0000 </r>
       </set>
       <set comment="band 15">
        <r>  0.0375  0.0000  0.0000  0.0000  0.0000  0.0000  0.0000  0.0000  0.0000 </r>
        <r>  0.0375  0.0000  0.0000  0.0000  0.0000  0.0000  0.0000  0.0000  0.0000 </r>
       </set>
       <set comment="band 16">
        <r>  0.0000  0.0033  0.0056  0.0012  0.0000  0.0000  0.0000  0.0000  0.0000 </r>
        <r>  0.0000  0.0033  0.0056  0.0012  0.0000  0.0000  0.0000  0.0000  0.0000 </r>
       </set>
      </set>
      <set comment="kpoint 2">
       <set comment="band 1">
        <r>  0.2117  0.0002  0.0002  0.0002  0.0000  0.0000  0.0000  0.0000  0.0000 </r>
        <r>  0.2117  0.0002  0.0002  0.0002  0.0000  0.0000  0.0000  0.0000  0.0000 </r>
       </set>
       <set comment="band 2">
        <r>  0.0338  0.0613  0.0613  0.0613  0.0000  0.0000  0.0000  0.0000  0.0000 </r>
        <r>  0.0338  0.0613  0.0613  0.0613  0.0000  0.0000  0.0000  0.0000  0.0000 </r>
       </set>
       <set comment="band 3">
        <r>  0.0000  0.0354  0.0354  0.1417  0.0000  0.0000  0.0000  0.0000  0.0000 </r>
        <r>  0.0000  0.0354  0.0354  0.1417  0.0000  0.0000  0.0000  0.0000  0.0000 </r>
       </set>
       <set comment="band 4">
        <r>  0.0000  0.1063  0.1063  0.0000  0.0000  0.0000  0.0000  0.0000  0.0000 </r>
        <r>  0.0000  0.1063  0.1063  0.0000  0.0000  0.0000  0.0000  0.0000  0.0000 </r>
       </set>
       <set comment="band 5">
        <r>  0.0551  0.0408  0.0408  0.0408  0.0000  0.0000  0.0000  0.0000  0.0000 </r>
        <r>  0.0551  0.0408  0.0408  0.0408  0.0000  0.0000  0.0000  0.0000  0.0000 </r>
       </set>
       <set comment="band 6">
        <r>  0.0000  0.0255  0.0253  0.1016  0.0000  0.0000  0.0000  0.0000  0.0000 </r>
        <r>  0.0000  0.0255  0.0253  0.1016  0.0000  0.0000  0.0000  0.0000  0.0000 </r>
       </set>
       <set comment="band 7">
        <r>  0.0000  0.0762  0.0763  0.0000  0.0000  0.0000  0.0000  0.0000  0.0000 </r>
        <r>  0.0000  0.0762  0.0763  0.0000  0.0000  0.0000  0.0000  0.0000  0.0000 </r>
       </set>
       <set comment="band 8">
        <r>  0.2740  0.0169  0.0169  0.0169  0.0000  0.0000  0.0000  0.0000  0.0000 </r>
        <r>  0.2740  0.0169  0.0169  0.0169  0.0000  0.0000  0.0000  0.0000  0.0000 </r>
       </set>
       <set comment="band 9">
        <r>  0.0000  0.0001  0.0001  0.0006  0.0000  0.0000  0.0000  0.0000  0.0000 </r>
        <r>  0.0000  0.0001  0.0001  0.0006  0.0000  0.0000  0.0000  0.0000  0.0000 </r>
       </set>
       <set comment="band 10">
        <r>  0.0000  0.0004  0.0004  0.0000  0.0000  0.0000  0.0000  0.0000  0.0000 </r>
        <r>  0.0000  0.0004  0.0004  0.0000  0.0000  0.0000  0.0000  0.0000  0.0000 </r>
       </set>
       <set comment="band 11">
        <r>  0.0933  0.0035  0.0035  0.0035  0.0000  0.0000  0.0000  0.0000  0.0000 </r>
        <r>  0.0933  0.0035  0.0035  0.0035  0.0000  0.0000  0.0000  0.0000  0.0000 </r>
       </set>
       <set comment="band 12">
        <r>  0.0051  0.0108  0.0108  0.0108  0.0000  0.0000  0.0000  0.0000  0.0000 </r>
        <r>  0.0051  0.0108  0.0108  0.0108  0.0000  0.0000  0.0000  0.0000  0.0000 </r>
       </set>
       <set comment="band 13">
        <r>  0.0000  0.0187  0.0187  0.0000  0.0000  0.0000  0.0000  0.0000  0.0000 </r>
        <r>  0.0000  0.0187  0.0187  0.0000  0.0000  0.0000  0.0000  0.0000  0.0000 </r>
       </set>
       <set comment="band 14">
        <r>  0.0000  0.0062  0.0062  0.0249  0.0000  0.0000  0.0000  0.0000  0.0000 </r>
        <r>  0.0000  0.0062  0.0062  0.0249  0.0000  0.0000  0.0000  0.0000  0.0000 </r>
       </set>
       <set comment="band 15">
        <r>  0.0326  0.0019  0.0019  0.0019  0.0000  0.0000  0.0000  0.0000  0.0000 </r>
        <r>  0.0326  0.0019  0.0019  0.0019  0.0000  0.0000  0.0000  0.0000  0.0000 </r>
       </set>
       <set comment="band 16">
        <r>  0.0012  0.0130  0.0222  0.0239  0.0000  0.0000  0.0000  0.0000  0.0000 </r>
        <r>  0.0012  0.0204  0.0162  0.0225  0.0000  0.0000  0.0000  0.0000  0.0000 </r>
       </set>
      </set>
      <set comment="kpoint 3">
       <set comment="band 1">
        <r>  0.2109  0.0008  0.0008  0.0008  0.0000  0.0000  0.0000  0.0000  0.0000 </r>
        <r>  0.2109  0.0008  0.0008  0.0008  0.0000  0.0000  0.0000  0.0000  0.0000 </r>
       </set>
       <set comment="band 2">
        <r>  0.0675  0.0506  0.0506  0.0506  0.0000  0.0000  0.0000  0.0000  0.0000 </r>
        <r>  0.0675  0.0506  0.0506  0.0506  0.0000  0.0000  0.0000  0.0000  0.0000 </r>
       </set>
       <set comment="band 3">
        <r>  0.0000  0.0352  0.0351  0.1406  0.0000  0.0000  0.0000  0.0000  0.0000 </r>
        <r>  0.0000  0.0352  0.0351  0.1406  0.0000  0.0000  0.0000  0.0000  0.0000 </r>
       </set>
       <set comment="band 4">
        <r>  0.0000  0.1054  0.1055  0.0000  0.0000  0.0000  0.0000  0.0000  0.0000 </r>
        <r>  0.0000  0.1054  0.1055  0.0000  0.0000  0.0000  0.0000  0.0000  0.0000 </r>
       </set>
       <set comment="band 5">
        <r>  0.1146  0.0283  0.0283  0.0283  0.0000  0.0000  0.0000  0.0000  0.0000 </r>
        <r>  0.1146  0.0283  0.0283  0.0283  0.0000  0.0000  0.0000  0.0000  0.0000 </r>
       </set>
       <set comment="band 6">
        <r>  0.0000  0.0772  0.0771  0.0000  0.0000  0.0000  0.0000  0.0000  0.0000 </r>
        <r>  0.0000  0.0772  0.0771  0.0000  0.0000  0.0000  0.0000  0.0000  0.0000 </r>
       </set>
       <set comment="band 7">
        <r>  0.0000  0.0257  0.0257  0.1029  0.0000  0.0000  0.0000  0.0000  0.0000 </r>
        <r>  0.0000  0.0257  0.0257  0.1029  0.0000  0.0000  0.0000  0.0000  0.0000 </r>
       </set>
       <set comment="band 8">
        <r>  0.1890  0.0345  0.0345  0.0345  0.0000  0.0000  0.0000  0.0000  0.0000 </r>
        <r>  0.1890  0.0345  0.0345  0.0345  0.0000  0.0000  0.0000  0.0000  0.0000 </r>
       </set>
       <set comment="band 9">
        <r>  0.0000  0.0003  0.0003  0.0014  0.0000  0.0000  0.0000  0.0000  0.0000 </r>
        <r>  0.0000  0.0003  0.0003  0.0014  0.0000  0.0000  0.0000  0.0000  0.0000 </r>
       </set>
       <set comment="band 10">
        <r>  0.0000  0.0010  0.0010  0.0000  0.0000  0.0000  0.0000  0.0000  0.0000 </r>
        <r>  0.0000  0.0010  0.0010  0.0000  0.0000  0.0000  0.0000  0.0000  0.0000 </r>
       </set>
       <set comment="band 11">
        <r>  0.0743  0.0117  0.0117  0.0117  0.0000  0.0000  0.0000  0.0000  0.0000 </r>
        <r>  0.0743  0.0117  0.0117  0.0117  0.0000  0.0000  0.0000  0.0000  0.0000 </r>
       </set>
       <set comment="band 12">
        <r>  0.0173  0.0070  0.0070  0.0070  0.0000  0.0000  0.0000  0.0000  0.0000 </r>
        <r>  0.0173  0.0070  0.0070  0.0070  0.0000  0.0000  0.0000  0.0000  0.0000 </r>
       </set>
       <set comment="band 13">
        <r>  0.0000  0.0173  0.0175  0.0000  0.0000  0.0000  0.0000  0.0000  0.0000 </r>
        <r>  0.0000  0.0173  0.0175  0.0000  0.0000  0.0000  0.0000  0.0000  0.0000 </r>
       </set>
       <set comment="band 14">
        <r>  0.0000  0.0059  0.0057  0.0232  0.0000  0.0000  0.0000  0.0000  0.0000 </r>
        <r>  0.0000  0.0059  0.0057  0.0232  0.0000  0.0000  0.0000  0.0000  0.0000 </r>
       </set>
       <set comment="band 15">
        <r>  0.0235  0.0057  0.0057  0.0057  0.0000  0.0000  0.0000  0.0000  0.0000 </r>
        <r>  0.0235  0.0057  0.0057  0.0057  0.0000  0.0000  0.0000  0.0000  0.0000 </r>
       </set>
       <set comment="band 16">
        <r>  0.0000  0.0063  0.0088  0.0282  0.0000  0.0000  0.0000  0.0000  0.0000 </r>
        <r>  0.0000  0.0063  0.0088  0.0282  0.0000  0.0000  0.0000  0.0000  0.0000 </r>
       </set>
      </set>
      <set comment="kpoint 4">
       <set comment="band 1">
        <r>  0.2099  0.0017  0.0017  0.0017  0.0000  0.0000  0.0000  0.0000  0.0000 </r>
        <r>  0.2099  0.0017  0.0017  0.0017  0.0000  0.0000  0.0000  0.0000  0.0000 </r>
       </set>
       <set comment="band 2">
        <r>  0.0873  0.0432  0.0432  0.0432  0.0000  0.0000  0.0000  0.0000  0.0000 </r>
        <r>  0.0873  0.0432  0.0432  0.0432  0.0000  0.0000  0.0000  0.0000  0.0000 </r>
       </set>
       <set comment="band 3">
        <r>  0.0000  0.0351  0.0351  0.1404  0.0000  0.0000  0.0000  0.0000  0.0000 </r>
        <r>  0.0000  0.0351  0.0351  0.1404  0.0000  0.0000  0.0000  0.0000  0.0000 </r>
       </set>
       <set comment="band 4">
        <r>  0.0000  0.1053  0.1054  0.0000  0.0000  0.0000  0.0000  0.0000  0.0000 </r>
        <r>  0.0000  0.1053  0.1054  0.0000  0.0000  0.0000  0.0000  0.0000  0.0000 </r>
       </set>
       <set comment="band 5">
        <r>  0.1421  0.0205  0.0205  0.0205  0.0000  0.0000  0.0000  0.0000  0.0000 </r>
        <r>  0.1421  0.0205  0.0205  0.0205  0.0000  0.0000  0.0000  0.0000  0.0000 </r>
       </set>
       <set comment="band 6">
        <r>  0.0000  0.0748  0.0748  0.0000  0.0000  0.0000  0.0000  0.0000  0.0000 </r>
        <r>  0.0000  0.0748  0.0748  0.0000  0.0000  0.0000  0.0000  0.0000  0.0000 </r>
       </set>
       <set comment="band 7">
        <r>  0.0000  0.0249  0.0249  0.0998  0.0000  0.0000  0.0000  0.0000  0.0000 </r>
        <r>  0.0000  0.0249  0.0249  0.0998  0.0000  0.0000  0.0000  0.0000  0.0000 </r>
       </set>
       <set comment="band 8">
        <r>  0.1439  0.0443  0.0443  0.0443  0.0000  0.0000  0.0000  0.0000  0.0000 </r>
        <r>  0.1439  0.0443  0.0443  0.0443  0.0000  0.0000  0.0000  0.0000  0.0000 </r>
       </set>
       <set comment="band 9">
        <r>  0.0000  0.0011  0.0011  0.0045  0.0000  0.0000  0.0000  0.0000  0.0000 </r>
        <r>  0.0000  0.0011  0.0011  0.0045  0.0000  0.0000  0.0000  0.0000  0.0000 </r>
       </set>
       <set comment="band 10">
        <r>  0.0000  0.0034  0.0034  0.0000  0.0000  0.0000  0.0000  0.0000  0.0000 </r>
        <r>  0.0000  0.0034  0.0034  0.0000  0.0000  0.0000  0.0000  0.0000  0.0000 </r>
       </set>
       <set comment="band 11">
        <r>  0.0471  0.0124  0.0124  0.0124  0.0000  0.0000  0.0000  0.0000  0.0000 </r>
        <r>  0.0471  0.0124  0.0124  0.0124  0.0000  0.0000  0.0000  0.0000  0.0000 </r>
       </set>
       <set comment="band 12">
        <r>  0.0372  0.0127  0.0127  0.0127  0.0000  0.0000  0.0000  0.0000  0.0000 </r>
        <r>  0.0372  0.0127  0.0127  0.0127  0.0000  0.0000  0.0000  0.0000  0.0000 </r>
       </set>
       <set comment="band 13">
        <r>  0.0000  0.0056  0.0056  0.0223  0.0000  0.0000  0.0000  0.0000  0.0000 </r>
        <r>  0.0000  0.0056  0.0056  0.0223  0.0000  0.0000  0.0000  0.0000  0.0000 </r>
       </set>
       <set comment="band 14">
        <r>  0.0000  0.0167  0.0167  0.0000  0.0000  0.0000  0.0000  0.0000  0.0000 </r>
        <r>  0.0000  0.0167  0.0167  0.0000  0.0000  0.0000  0.0000  0.0000  0.0000 </r>
       </set>
       <set comment="band 15">
        <r>  0.0145  0.0143  0.0143  0.0143  0.0000  0.0000  0.0000  0.0000  0.0000 </r>
        <r>  0.0145  0.0143  0.0143  0.0143  0.0000  0.0000  0.0000  0.0000  0.0000 </r>
       </set>
       <set comment="band 16">
        <r>  0.0000  0.0223  0.0020  0.0246  0.0000  0.0000  0.0000  0.0000  0.0000 </r>
        <r>  0.0000  0.0223  0.0020  0.0246  0.0000  0.0000  0.0000  0.0000  0.0000 </r>
       </set>
      </set>
      <set comment="kpoint 5">
       <set comment="band 1">
        <r>  0.2092  0.0029  0.0029  0.0029  0.0000  0.0000  0.0000  0.0000  0.0000 </r>
        <r>  0.2092  0.0029  0.0029  0.0029  0.0000  0.0000  0.0000  0.0000  0.0000 </r>
       </set>
       <set comment="band 2">
        <r>  0.0997  0.0378  0.0378  0.0378  0.0000  0.0000  0.0000  0.0000  0.0000 </r>
        <r>  0.0997  0.0378  0.0378  0.0378  0.0000  0.0000  0.0000  0.0000  0.0000 </r>
       </set>
       <set comment="band 3">
        <r>  0.0000  0.0354  0.0352  0.1411  0.0000  0.0000  0.0000  0.0000  0.0000 </r>
        <r>  0.0000  0.0354  0.0352  0.1411  0.0000  0.0000  0.0000  0.0000  0.0000 </r>
       </set>
       <set comment="band 4">
        <r>  0.0000  0.1057  0.1059  0.0000  0.0000  0.0000  0.0000  0.0000  0.0000 </r>
        <r>  0.0000  0.1057  0.1059  0.0000  0.0000  0.0000  0.0000  0.0000  0.0000 </r>
       </set>
       <set comment="band 5">
        <r>  0.1599  0.0149  0.0149  0.0149  0.0000  0.0000  0.0000  0.0000  0.0000 </r>
        <r>  0.1599  0.0149  0.0149  0.0149  0.0000  0.0000  0.0000  0.0000  0.0000 </r>
       </set>
       <set comment="band 6">
        <r>  0.0000  0.0671  0.0671  0.0000  0.0000  0.0000  0.0000  0.0000  0.0000 </r>
        <r>  0.0000  0.0671  0.0671  0.0000  0.0000  0.0000  0.0000  0.0000  0.0000 </r>
       </set>
       <set comment="band 7">
        <r>  0.0000  0.0224  0.0224  0.0894  0.0000  0.0000  0.0000  0.0000  0.0000 </r>
        <r>  0.0000  0.0224  0.0224  0.0894  0.0000  0.0000  0.0000  0.0000  0.0000 </r>
       </set>
       <set comment="band 8">
        <r>  0.0974  0.0521  0.0521  0.0521  0.0000  0.0000  0.0000  0.0000  0.0000 </r>
        <r>  0.0974  0.0521  0.0521  0.0521  0.0000  0.0000  0.0000  0.0000  0.0000 </r>
       </set>
       <set comment="band 9">
        <r>  0.0000  0.0033  0.0033  0.0133  0.0000  0.0000  0.0000  0.0000  0.0000 </r>
        <r>  0.0000  0.0033  0.0033  0.0133  0.0000  0.0000  0.0000  0.0000  0.0000 </r>
       </set>
       <set comment="band 10">
        <r>  0.0000  0.0099  0.0099  0.0000  0.0000  0.0000  0.0000  0.0000  0.0000 </r>
        <r>  0.0000  0.0099  0.0099  0.0000  0.0000  0.0000  0.0000  0.0000  0.0000 </r>
       </set>
       <set comment="band 11">
        <r>  0.0533  0.0057  0.0057  0.0057  0.0000  0.0000  0.0000  0.0000  0.0000 </r>
        <r>  0.0533  0.0057  0.0057  0.0057  0.0000  0.0000  0.0000  0.0000  0.0000 </r>
       </set>
       <set comment="band 12">
        <r>  0.0336  0.0285  0.0285  0.0285  0.0000  0.0000  0.0000  0.0000  0.0000 </r>
        <r>  0.0336  0.0285  0.0285  0.0285  0.0000  0.0000  0.0000  0.0000  0.0000 </r>
       </set>
       <set comment="band 13">
        <r>  0.0000  0.0063  0.0062  0.0250  0.0000  0.0000  0.0000  0.0000  0.0000 </r>
        <r>  0.0000  0.0063  0.0062  0.0250  0.0000  0.0000  0.0000  0.0000  0.0000 </r>
       </set>
       <set comment="band 14">
        <r>  0.0000  0.0188  0.0188  0.0000  0.0000  0.0000  0.0000  0.0000  0.0000 </r>
        <r>  0.0000  0.0188  0.0188  0.0000  0.0000  0.0000  0.0000  0.0000  0.0000 </r>
       </set>
       <set comment="band 15">
        <r>  0.0000  0.0283  0.0011  0.0182  0.0000  0.0000  0.0000  0.0000  0.0000 </r>
        <r>  0.0000  0.0283  0.0011  0.0182  0.0000  0.0000  0.0000  0.0000  0.0000 </r>
       </set>
       <set comment="band 16">
        <r>  0.0001  0.0046  0.0274  0.0158  0.0000  0.0000  0.0000  0.0000  0.0000 </r>
        <r>  0.0001  0.0045  0.0277  0.0156  0.0000  0.0000  0.0000  0.0000  0.0000 </r>
       </set>
      </set>
      <set comment="kpoint 6">
       <set comment="band 1">
        <r>  0.2099  0.0041  0.0041  0.0041  0.0000  0.0000  0.0000  0.0000  0.0000 </r>
        <r>  0.2099  0.0041  0.0041  0.0041  0.0000  0.0000  0.0000  0.0000  0.0000 </r>
       </set>
       <set comment="band 2">
        <r>  0.1065  0.0338  0.0338  0.0338  0.0000  0.0000  0.0000  0.0000  0.0000 </r>
        <r>  0.1065  0.0338  0.0338  0.0338  0.0000  0.0000  0.0000  0.0000  0.0000 </r>
       </set>
       <set comment="band 3">
        <r>  0.0000  0.0355  0.0356  0.1421  0.0000  0.0000  0.0000  0.0000  0.0000 </r>
        <r>  0.0000  0.0355  0.0356  0.1421  0.0000  0.0000  0.0000  0.0000  0.0000 </r>
       </set>
       <set comment="band 4">
        <r>  0.0000  0.1066  0.1065  0.0000  0.0000  0.0000  0.0000  0.0000  0.0000 </r>
        <r>  0.0000  0.1066  0.1065  0.0000  0.0000  0.0000  0.0000  0.0000  0.0000 </r>
       </set>
       <set comment="band 5">
        <r>  0.1722  0.0110  0.0110  0.0110  0.0000  0.0000  0.0000  0.0000  0.0000 </r>
        <r>  0.1722  0.0110  0.0110  0.0110  0.0000  0.0000  0.0000  0.0000  0.0000 </r>
       </set>
       <set comment="band 6">
        <r>  0.0000  0.0577  0.0577  0.0000  0.0000  0.0000  0.0000  0.0000  0.0000 </r>
        <r>  0.0000  0.0577  0.0577  0.0000  0.0000  0.0000  0.0000  0.0000  0.0000 </r>
       </set>
       <set comment="band 7">
        <r>  0.0000  0.0192  0.0192  0.0769  0.0000  0.0000  0.0000  0.0000  0.0000 </r>
        <r>  0.0000  0.0192  0.0192  0.0769  0.0000  0.0000  0.0000  0.0000  0.0000 </r>
       </set>
       <set comment="band 8">
        <r>  0.0208  0.0444  0.0444  0.0444  0.0000  0.0000  0.0000  0.0000  0.0000 </r>
        <r>  0.0208  0.0444  0.0444  0.0444  0.0000  0.0000  0.0000  0.0000  0.0000 </r>
       </set>
       <set comment="band 9">
        <r>  0.0000  0.0058  0.0058  0.0231  0.0000  0.0000  0.0000  0.0000  0.0000 </r>
        <r>  0.0000  0.0058  0.0058  0.0231  0.0000  0.0000  0.0000  0.0000  0.0000 </r>
       </set>
       <set comment="band 10">
        <r>  0.0000  0.0173  0.0173  0.0000  0.0000  0.0000  0.0000  0.0000  0.0000 </r>
        <r>  0.0000  0.0173  0.0173  0.0000  0.0000  0.0000  0.0000  0.0000  0.0000 </r>
       </set>
       <set comment="band 11">
        <r>  0.1013  0.0162  0.0162  0.0162  0.0000  0.0000  0.0000  0.0000  0.0000 </r>
        <r>  0.1013  0.0162  0.0162  0.0162  0.0000  0.0000  0.0000  0.0000  0.0000 </r>
       </set>
       <set comment="band 12">
        <r>  0.0168  0.0529  0.0529  0.0529  0.0000  0.0000  0.0000  0.0000  0.0000 </r>
        <r>  0.0168  0.0529  0.0529  0.0529  0.0000  0.0000  0.0000  0.0000  0.0000 </r>
       </set>
       <set comment="band 13">
        <r>  0.0000  0.0082  0.0108  0.0378  0.0000  0.0000  0.0000  0.0000  0.0000 </r>
        <r>  0.0000  0.0082  0.0108  0.0378  0.0000  0.0000  0.0000  0.0000  0.0000 </r>
       </set>
       <set comment="band 14">
        <r>  0.0000  0.0297  0.0271  0.0001  0.0000  0.0000  0.0000  0.0000  0.0000 </r>
        <r>  0.0000  0.0297  0.0271  0.0001  0.0000  0.0000  0.0000  0.0000  0.0000 </r>
       </set>
       <set comment="band 15">
        <r>  0.0573  0.0202  0.0202  0.0202  0.0000  0.0000  0.0000  0.0000  0.0000 </r>
        <r>  0.0573  0.0202  0.0202  0.0202  0.0000  0.0000  0.0000  0.0000  0.0000 </r>
       </set>
       <set comment="band 16">
        <r>  0.0000  0.0090  0.0200  0.0022  0.0000  0.0000  0.0000  0.0000  0.0000 </r>
        <r>  0.0000  0.0090  0.0200  0.0022  0.0000  0.0000  0.0000  0.0000  0.0000 </r>
       </set>
      </set>
      <set comment="kpoint 7">
       <set comment="band 1">
        <r>  0.2139  0.0048  0.0048  0.0048  0.0000  0.0000  0.0000  0.0000  0.0000 </r>
        <r>  0.2139  0.0048  0.0048  0.0048  0.0000  0.0000  0.0000  0.0000  0.0000 </r>
       </set>
       <set comment="band 2">
        <r>  0.1070  0.0313  0.0313  0.0313  0.0000  0.0000  0.0000  0.0000  0.0000 </r>
        <r>  0.1070  0.0313  0.0313  0.0313  0.0000  0.0000  0.0000  0.0000  0.0000 </r>
       </set>
       <set comment="band 3">
        <r>  0.0000  0.0359  0.0356  0.1430  0.0000  0.0000  0.0000  0.0000  0.0000 </r>
        <r>  0.0000  0.0359  0.0356  0.1430  0.0000  0.0000  0.0000  0.0000  0.0000 </r>
       </set>
       <set comment="band 4">
        <r>  0.0000  0.1071  0.1073  0.0000  0.0000  0.0000  0.0000  0.0000  0.0000 </r>
        <r>  0.0000  0.1071  0.1073  0.0000  0.0000  0.0000  0.0000  0.0000  0.0000 </r>
       </set>
       <set comment="band 5">
        <r>  0.1803  0.0084  0.0084  0.0084  0.0000  0.0000  0.0000  0.0000  0.0000 </r>
        <r>  0.1803  0.0084  0.0084  0.0084  0.0000  0.0000  0.0000  0.0000  0.0000 </r>
       </set>
       <set comment="band 6">
        <r>  0.0000  0.0511  0.0511  0.0000  0.0000  0.0000  0.0000  0.0000  0.0000 </r>
        <r>  0.0000  0.0511  0.0511  0.0000  0.0000  0.0000  0.0000  0.0000  0.0000 </r>
       </set>
       <set comment="band 7">
        <r>  0.0000  0.0170  0.0170  0.0681  0.0000  0.0000  0.0000  0.0000  0.0000 </r>
        <r>  0.0000  0.0170  0.0170  0.0681  0.0000  0.0000  0.0000  0.0000  0.0000 </r>
       </set>
       <set comment="band 8">
        <r>  0.0035  0.0240  0.0240  0.0240  0.0000  0.0000  0.0000  0.0000  0.0000 </r>
        <r>  0.0035  0.0240  0.0240  0.0240  0.0000  0.0000  0.0000  0.0000  0.0000 </r>
       </set>
       <set comment="band 9">
        <r>  0.0000  0.0069  0.0069  0.0278  0.0000  0.0000  0.0000  0.0000  0.0000 </r>
        <r>  0.0000  0.0069  0.0069  0.0278  0.0000  0.0000  0.0000  0.0000  0.0000 </r>
       </set>
       <set comment="band 10">
        <r>  0.0000  0.0208  0.0208  0.0000  0.0000  0.0000  0.0000  0.0000  0.0000 </r>
        <r>  0.0000  0.0208  0.0208  0.0000  0.0000  0.0000  0.0000  0.0000  0.0000 </r>
       </set>
       <set comment="band 11">
        <r>  0.0897  0.0403  0.0403  0.0403  0.0000  0.0000  0.0000  0.0000  0.0000 </r>
        <r>  0.0897  0.0403  0.0403  0.0403  0.0000  0.0000  0.0000  0.0000  0.0000 </r>
       </set>
       <set comment="band 12">
        <r>  0.0000  0.0111  0.0111  0.0442  0.0000  0.0000  0.0000  0.0000  0.0000 </r>
        <r>  0.0000  0.0111  0.0111  0.0442  0.0000  0.0000  0.0000  0.0000  0.0000 </r>
       </set>
       <set comment="band 13">
        <r>  0.0000  0.0332  0.0332  0.0000  0.0000  0.0000  0.0000  0.0000  0.0000 </r>
        <r>  0.0000  0.0332  0.0332  0.0000  0.0000  0.0000  0.0000  0.0000  0.0000 </r>
       </set>
       <set comment="band 14">
        <r>  0.0273  0.0769  0.0769  0.0769  0.0000  0.0000  0.0000  0.0000  0.0000 </r>
        <r>  0.0273  0.0769  0.0769  0.0769  0.0000  0.0000  0.0000  0.0000  0.0000 </r>
       </set>
       <set comment="band 15">
        <r>  0.0618  0.0002  0.0002  0.0002  0.0000  0.0000  0.0000  0.0000  0.0000 </r>
        <r>  0.0618  0.0002  0.0002  0.0002  0.0000  0.0000  0.0000  0.0000  0.0000 </r>
       </set>
       <set comment="band 16">
        <r>  0.0000  0.0052  0.0034  0.0169  0.0000  0.0000  0.0000  0.0000  0.0000 </r>
        <r>  0.0000  0.0052  0.0034  0.0169  0.0000  0.0000  0.0000  0.0000  0.0000 </r>
       </set>
      </set>
      <set comment="kpoint 8">
       <set comment="band 1">
        <r>  0.2217  0.0046  0.0046  0.0046  0.0000  0.0000  0.0000  0.0000  0.0000 </r>
        <r>  0.2217  0.0046  0.0046  0.0046  0.0000  0.0000  0.0000  0.0000  0.0000 </r>
       </set>
       <set comment="band 2">
        <r>  0.1014  0.0306  0.0306  0.0306  0.0000  0.0000  0.0000  0.0000  0.0000 </r>
        <r>  0.1014  0.0306  0.0306  0.0306  0.0000  0.0000  0.0000  0.0000  0.0000 </r>
       </set>
       <set comment="band 3">
        <r>  0.0000  0.0359  0.0359  0.1435  0.0000  0.0000  0.0000  0.0000  0.0000 </r>
        <r>  0.0000  0.0359  0.0359  0.1435  0.0000  0.0000  0.0000  0.0000  0.0000 </r>
       </set>
       <set comment="band 4">
        <r>  0.0000  0.1076  0.1077  0.0000  0.0000  0.0000  0.0000  0.0000  0.0000 </r>
        <r>  0.0000  0.1076  0.1077  0.0000  0.0000  0.0000  0.0000  0.0000  0.0000 </r>
       </set>
       <set comment="band 5">
        <r>  0.1843  0.0071  0.0071  0.0071  0.0000  0.0000  0.0000  0.0000  0.0000 </r>
        <r>  0.1843  0.0071  0.0071  0.0071  0.0000  0.0000  0.0000  0.0000  0.0000 </r>
       </set>
       <set comment="band 6">
        <r>  0.0000  0.0479  0.0479  0.0000  0.0000  0.0000  0.0000  0.0000  0.0000 </r>
        <r>  0.0000  0.0479  0.0479  0.0000  0.0000  0.0000  0.0000  0.0000  0.0000 </r>
       </set>
       <set comment="band 7">
        <r>  0.0000  0.0160  0.0160  0.0639  0.0000  0.0000  0.0000  0.0000  0.0000 </r>
        <r>  0.0000  0.0160  0.0160  0.0639  0.0000  0.0000  0.0000  0.0000  0.0000 </r>
       </set>
       <set comment="band 8">
        <r>  0.0052  0.0186  0.0186  0.0186  0.0000  0.0000  0.0000  0.0000  0.0000 </r>
        <r>  0.0052  0.0186  0.0186  0.0186  0.0000  0.0000  0.0000  0.0000  0.0000 </r>
       </set>
       <set comment="band 9">
        <r>  0.0000  0.0050  0.0050  0.0201  0.0000  0.0000  0.0000  0.0000  0.0000 </r>
        <r>  0.0000  0.0050  0.0050  0.0201  0.0000  0.0000  0.0000  0.0000  0.0000 </r>
       </set>
       <set comment="band 10">
        <r>  0.0000  0.0151  0.0151  0.0000  0.0000  0.0000  0.0000  0.0000  0.0000 </r>
        <r>  0.0000  0.0151  0.0151  0.0000  0.0000  0.0000  0.0000  0.0000  0.0000 </r>
       </set>
       <set comment="band 11">
        <r>  0.0518  0.0491  0.0491  0.0491  0.0000  0.0000  0.0000  0.0000  0.0000 </r>
        <r>  0.0518  0.0491  0.0491  0.0491  0.0000  0.0000  0.0000  0.0000  0.0000 </r>
       </set>
       <set comment="band 12">
        <r>  0.0000  0.0141  0.0141  0.0563  0.0000  0.0000  0.0000  0.0000  0.0000 </r>
        <r>  0.0000  0.0141  0.0141  0.0563  0.0000  0.0000  0.0000  0.0000  0.0000 </r>
       </set>
       <set comment="band 13">
        <r>  0.0000  0.0422  0.0422  0.0000  0.0000  0.0000  0.0000  0.0000  0.0000 </r>
        <r>  0.0000  0.0422  0.0422  0.0000  0.0000  0.0000  0.0000  0.0000  0.0000 </r>
       </set>
       <set comment="band 14">
        <r>  0.0719  0.0706  0.0706  0.0706  0.0000  0.0000  0.0000  0.0000  0.0000 </r>
        <r>  0.0719  0.0706  0.0706  0.0706  0.0000  0.0000  0.0000  0.0000  0.0000 </r>
       </set>
       <set comment="band 15">
        <r>  0.0438  0.0075  0.0075  0.0075  0.0000  0.0000  0.0000  0.0000  0.0000 </r>
        <r>  0.0438  0.0075  0.0075  0.0075  0.0000  0.0000  0.0000  0.0000  0.0000 </r>
       </set>
       <set comment="band 16">
        <r>  0.0211  0.0174  0.0188  0.0174  0.0000  0.0000  0.0000  0.0000  0.0000 </r>
        <r>  0.0212  0.0175  0.0187  0.0174  0.0000  0.0000  0.0000  0.0000  0.0000 </r>
       </set>
      </set>
      <set comment="kpoint 9">
       <set comment="band 1">
        <r>  0.2116  0.0000  0.0008  0.0000  0.0000  0.0000  0.0000  0.0000  0.0000 </r>
        <r>  0.2116  0.0000  0.0008  0.0000  0.0000  0.0000  0.0000  0.0000  0.0000 </r>
       </set>
       <set comment="band 2">
        <r>  0.0496  0.0000  0.1796  0.0000  0.0000  0.0000  0.0000  0.0000  0.0000 </r>
        <r>  0.0496  0.0000  0.1796  0.0000  0.0000  0.0000  0.0000  0.0000  0.0000 </r>
       </set>
       <set comment="band 3">
        <r>  0.0000  0.1033  0.0000  0.1046  0.0000  0.0000  0.0000  0.0000  0.0000 </r>
        <r>  0.0000  0.1040  0.0000  0.1039  0.0000  0.0000  0.0000  0.0000  0.0000 </r>
       </set>
       <set comment="band 4">
        <r>  0.0000  0.1046  0.0000  0.1033  0.0000  0.0000  0.0000  0.0000  0.0000 </r>
        <r>  0.0000  0.1039  0.0000  0.1040  0.0000  0.0000  0.0000  0.0000  0.0000 </r>
       </set>
       <set comment="band 5">
        <r>  0.0074  0.0000  0.1389  0.0000  0.0000  0.0000  0.0000  0.0000  0.0000 </r>
        <r>  0.0074  0.0000  0.1389  0.0000  0.0000  0.0000  0.0000  0.0000  0.0000 </r>
       </set>
       <set comment="band 6">
        <r>  0.0000  0.0784  0.0000  0.0784  0.0000  0.0000  0.0000  0.0000  0.0000 </r>
        <r>  0.0000  0.0784  0.0000  0.0784  0.0000  0.0000  0.0000  0.0000  0.0000 </r>
       </set>
       <set comment="band 7">
        <r>  0.0000  0.0784  0.0000  0.0784  0.0000  0.0000  0.0000  0.0000  0.0000 </r>
        <r>  0.0000  0.0784  0.0000  0.0784  0.0000  0.0000  0.0000  0.0000  0.0000 </r>
       </set>
       <set comment="band 8">
        <r>  0.3058  0.0000  0.0380  0.0000  0.0000  0.0000  0.0000  0.0000  0.0000 </r>
        <r>  0.3058  0.0000  0.0380  0.0000  0.0000  0.0000  0.0000  0.0000  0.0000 </r>
       </set>
       <set comment="band 9">
        <r>  0.0022  0.0000  0.0008  0.0000  0.0000  0.0000  0.0000  0.0000  0.0000 </r>
        <r>  0.0022  0.0000  0.0008  0.0000  0.0000  0.0000  0.0000  0.0000  0.0000 </r>
       </set>
       <set comment="band 10">
        <r>  0.0000  0.0000  0.0000  0.0000  0.0000  0.0000  0.0000  0.0000  0.0000 </r>
        <r>  0.0000  0.0000  0.0000  0.0000  0.0000  0.0000  0.0000  0.0000  0.0000 </r>
       </set>
       <set comment="band 11">
        <r>  0.0915  0.0000  0.0134  0.0000  0.0000  0.0000  0.0000  0.0000  0.0000 </r>
        <r>  0.0915  0.0000  0.0134  0.0000  0.0000  0.0000  0.0000  0.0000  0.0000 </r>
       </set>
       <set comment="band 12">
        <r>  0.0000  0.0186  0.0000  0.0196  0.0000  0.0000  0.0000  0.0000  0.0000 </r>
        <r>  0.0000  0.0188  0.0000  0.0194  0.0000  0.0000  0.0000  0.0000  0.0000 </r>
       </set>
       <set comment="band 13">
        <r>  0.0000  0.0196  0.0000  0.0186  0.0000  0.0000  0.0000  0.0000  0.0000 </r>
        <r>  0.0000  0.0194  0.0000  0.0188  0.0000  0.0000  0.0000  0.0000  0.0000 </r>
       </set>
       <set comment="band 14">
        <r>  0.0061  0.0000  0.0282  0.0000  0.0000  0.0000  0.0000  0.0000  0.0000 </r>
        <r>  0.0061  0.0000  0.0282  0.0000  0.0000  0.0000  0.0000  0.0000  0.0000 </r>
       </set>
       <set comment="band 15">
        <r>  0.0306  0.0000  0.0080  0.0000  0.0000  0.0000  0.0000  0.0000  0.0000 </r>
        <r>  0.0306  0.0000  0.0080  0.0000  0.0000  0.0000  0.0000  0.0000  0.0000 </r>
       </set>
       <set comment="band 16">
        <r>  0.0000  0.0018  0.0000  0.0475  0.0000  0.0000  0.0000  0.0000  0.0000 </r>
        <r>  0.0000  0.0325  0.0000  0.0168  0.0000  0.0000  0.0000  0.0000  0.0000 </r>
       </set>
      </set>
      <set comment="kpoint 10">
       <set comment="band 1">
        <r>  0.2110  0.0002  0.0018  0.0002  0.0000  0.0000  0.0000  0.0000  0.0000 </r>
        <r>  0.2110  0.0002  0.0018  0.0002  0.0000  0.0000  0.0000  0.0000  0.0000 </r>
       </set>
       <set comment="band 2">
        <r>  0.0696  0.0372  0.0815  0.0372  0.0000  0.0000  0.0000  0.0000  0.0000 </r>
        <r>  0.0696  0.0372  0.0815  0.0372  0.0000  0.0000  0.0000  0.0000  0.0000 </r>
       </set>
       <set comment="band 3">
        <r>  0.0000  0.1024  0.0000  0.1024  0.0000  0.0000  0.0000  0.0000  0.0000 </r>
        <r>  0.0000  0.1024  0.0000  0.1024  0.0000  0.0000  0.0000  0.0000  0.0000 </r>
       </set>
       <set comment="band 4">
        <r>  0.0117  0.0569  0.0877  0.0569  0.0000  0.0000  0.0000  0.0000  0.0000 </r>
        <r>  0.0117  0.0569  0.0877  0.0569  0.0000  0.0000  0.0000  0.0000  0.0000 </r>
       </set>
       <set comment="band 5">
        <r>  0.0163  0.0058  0.1191  0.0058  0.0000  0.0000  0.0000  0.0000  0.0000 </r>
        <r>  0.0163  0.0058  0.1191  0.0058  0.0000  0.0000  0.0000  0.0000  0.0000 </r>
       </set>
       <set comment="band 6">
        <r>  0.0715  0.0586  0.0056  0.0586  0.0000  0.0000  0.0000  0.0000  0.0000 </r>
        <r>  0.0715  0.0586  0.0056  0.0586  0.0000  0.0000  0.0000  0.0000  0.0000 </r>
       </set>
       <set comment="band 7">
        <r>  0.0000  0.0798  0.0000  0.0798  0.0000  0.0000  0.0000  0.0000  0.0000 </r>
        <r>  0.0000  0.0798  0.0000  0.0798  0.0000  0.0000  0.0000  0.0000  0.0000 </r>
       </set>
       <set comment="band 8">
        <r>  0.1928  0.0209  0.0554  0.0209  0.0000  0.0000  0.0000  0.0000  0.0000 </r>
        <r>  0.1928  0.0209  0.0554  0.0209  0.0000  0.0000  0.0000  0.0000  0.0000 </r>
       </set>
       <set comment="band 9">
        <r>  0.0109  0.0007  0.0001  0.0007  0.0000  0.0000  0.0000  0.0000  0.0000 </r>
        <r>  0.0109  0.0007  0.0001  0.0007  0.0000  0.0000  0.0000  0.0000  0.0000 </r>
       </set>
       <set comment="band 10">
        <r>  0.0000  0.0005  0.0000  0.0005  0.0000  0.0000  0.0000  0.0000  0.0000 </r>
        <r>  0.0000  0.0005  0.0000  0.0005  0.0000  0.0000  0.0000  0.0000  0.0000 </r>
       </set>
       <set comment="band 11">
        <r>  0.0783  0.0036  0.0255  0.0036  0.0000  0.0000  0.0000  0.0000  0.0000 </r>
        <r>  0.0783  0.0036  0.0255  0.0036  0.0000  0.0000  0.0000  0.0000  0.0000 </r>
       </set>
       <set comment="band 12">
        <r>  0.0100  0.0098  0.0051  0.0098  0.0000  0.0000  0.0000  0.0000  0.0000 </r>
        <r>  0.0100  0.0098  0.0051  0.0098  0.0000  0.0000  0.0000  0.0000  0.0000 </r>
       </set>
       <set comment="band 13">
        <r>  0.0000  0.0180  0.0000  0.0180  0.0000  0.0000  0.0000  0.0000  0.0000 </r>
        <r>  0.0000  0.0180  0.0000  0.0180  0.0000  0.0000  0.0000  0.0000  0.0000 </r>
       </set>
       <set comment="band 14">
        <r>  0.0031  0.0070  0.0163  0.0070  0.0000  0.0000  0.0000  0.0000  0.0000 </r>
        <r>  0.0031  0.0070  0.0163  0.0070  0.0000  0.0000  0.0000  0.0000  0.0000 </r>
       </set>
       <set comment="band 15">
        <r>  0.0232  0.0013  0.0143  0.0013  0.0000  0.0000  0.0000  0.0000  0.0000 </r>
        <r>  0.0232  0.0013  0.0143  0.0013  0.0000  0.0000  0.0000  0.0000  0.0000 </r>
       </set>
       <set comment="band 16">
        <r>  0.0000  0.0271  0.0000  0.0264  0.0000  0.0000  0.0000  0.0000  0.0000 </r>
        <r>  0.0000  0.0270  0.0000  0.0265  0.0000  0.0000  0.0000  0.0000  0.0000 </r>
       </set>
      </set>
      <set comment="kpoint 11">
       <set comment="band 1">
        <r>  0.2100  0.0008  0.0032  0.0008  0.0000  0.0000  0.0000  0.0000  0.0000 </r>
        <r>  0.2100  0.0008  0.0032  0.0008  0.0000  0.0000  0.0000  0.0000  0.0000 </r>
       </set>
       <set comment="band 2">
        <r>  0.0881  0.0398  0.0543  0.0398  0.0000  0.0000  0.0000  0.0000  0.0000 </r>
        <r>  0.0881  0.0398  0.0543  0.0398  0.0000  0.0000  0.0000  0.0000  0.0000 </r>
       </set>
       <set comment="band 3">
        <r>  0.0000  0.1021  0.0000  0.1021  0.0000  0.0000  0.0000  0.0000  0.0000 </r>
        <r>  0.0000  0.1021  0.0000  0.1021  0.0000  0.0000  0.0000  0.0000  0.0000 </r>
       </set>
       <set comment="band 4">
        <r>  0.0157  0.0415  0.1142  0.0415  0.0000  0.0000  0.0000  0.0000  0.0000 </r>
        <r>  0.0157  0.0415  0.1142  0.0415  0.0000  0.0000  0.0000  0.0000  0.0000 </r>
       </set>
       <set comment="band 5">
        <r>  0.0664  0.0157  0.0736  0.0157  0.0000  0.0000  0.0000  0.0000  0.0000 </r>
        <r>  0.0664  0.0157  0.0736  0.0157  0.0000  0.0000  0.0000  0.0000  0.0000 </r>
       </set>
       <set comment="band 6">
        <r>  0.0555  0.0447  0.0358  0.0447  0.0000  0.0000  0.0000  0.0000  0.0000 </r>
        <r>  0.0555  0.0447  0.0358  0.0447  0.0000  0.0000  0.0000  0.0000  0.0000 </r>
       </set>
       <set comment="band 7">
        <r>  0.0000  0.0785  0.0000  0.0785  0.0000  0.0000  0.0000  0.0000  0.0000 </r>
        <r>  0.0000  0.0785  0.0000  0.0785  0.0000  0.0000  0.0000  0.0000  0.0000 </r>
       </set>
       <set comment="band 8">
        <r>  0.1069  0.0256  0.0525  0.0256  0.0000  0.0000  0.0000  0.0000  0.0000 </r>
        <r>  0.1069  0.0256  0.0525  0.0256  0.0000  0.0000  0.0000  0.0000  0.0000 </r>
       </set>
       <set comment="band 9">
        <r>  0.0459  0.0077  0.0130  0.0077  0.0000  0.0000  0.0000  0.0000  0.0000 </r>
        <r>  0.0459  0.0077  0.0130  0.0077  0.0000  0.0000  0.0000  0.0000  0.0000 </r>
       </set>
       <set comment="band 10">
        <r>  0.0000  0.0025  0.0000  0.0025  0.0000  0.0000  0.0000  0.0000  0.0000 </r>
        <r>  0.0000  0.0025  0.0000  0.0025  0.0000  0.0000  0.0000  0.0000  0.0000 </r>
       </set>
       <set comment="band 11">
        <r>  0.0531  0.0106  0.0290  0.0106  0.0000  0.0000  0.0000  0.0000  0.0000 </r>
        <r>  0.0531  0.0106  0.0290  0.0106  0.0000  0.0000  0.0000  0.0000  0.0000 </r>
       </set>
       <set comment="band 12">
        <r>  0.0267  0.0066  0.0104  0.0066  0.0000  0.0000  0.0000  0.0000  0.0000 </r>
        <r>  0.0267  0.0066  0.0104  0.0066  0.0000  0.0000  0.0000  0.0000  0.0000 </r>
       </set>
       <set comment="band 13">
        <r>  0.0000  0.0168  0.0000  0.0168  0.0000  0.0000  0.0000  0.0000  0.0000 </r>
        <r>  0.0000  0.0168  0.0000  0.0168  0.0000  0.0000  0.0000  0.0000  0.0000 </r>
       </set>
       <set comment="band 14">
        <r>  0.0018  0.0080  0.0144  0.0080  0.0000  0.0000  0.0000  0.0000  0.0000 </r>
        <r>  0.0018  0.0080  0.0144  0.0080  0.0000  0.0000  0.0000  0.0000  0.0000 </r>
       </set>
       <set comment="band 15">
        <r>  0.0146  0.0069  0.0206  0.0069  0.0000  0.0000  0.0000  0.0000  0.0000 </r>
        <r>  0.0146  0.0069  0.0206  0.0069  0.0000  0.0000  0.0000  0.0000  0.0000 </r>
       </set>
       <set comment="band 16">
        <r>  0.0000  0.0269  0.0000  0.0269  0.0000  0.0000  0.0000  0.0000  0.0000 </r>
        <r>  0.0000  0.0269  0.0000  0.0269  0.0000  0.0000  0.0000  0.0000  0.0000 </r>
       </set>
      </set>
      <set comment="kpoint 12">
       <set comment="band 1">
        <r>  0.2091  0.0017  0.0047  0.0017  0.0000  0.0000  0.0000  0.0000  0.0000 </r>
        <r>  0.2091  0.0017  0.0047  0.0017  0.0000  0.0000  0.0000  0.0000  0.0000 </r>
       </set>
       <set comment="band 2">
        <r>  0.1005  0.0376  0.0418  0.0376  0.0000  0.0000  0.0000  0.0000  0.0000 </r>
        <r>  0.1005  0.0376  0.0418  0.0376  0.0000  0.0000  0.0000  0.0000  0.0000 </r>
       </set>
       <set comment="band 3">
        <r>  0.0000  0.1025  0.0000  0.1025  0.0000  0.0000  0.0000  0.0000  0.0000 </r>
        <r>  0.0000  0.1025  0.0000  0.1025  0.0000  0.0000  0.0000  0.0000  0.0000 </r>
       </set>
       <set comment="band 4">
        <r>  0.0187  0.0350  0.1239  0.0350  0.0000  0.0000  0.0000  0.0000  0.0000 </r>
        <r>  0.0187  0.0350  0.1239  0.0350  0.0000  0.0000  0.0000  0.0000  0.0000 </r>
       </set>
       <set comment="band 5">
        <r>  0.1158  0.0195  0.0387  0.0195  0.0000  0.0000  0.0000  0.0000  0.0000 </r>
        <r>  0.1158  0.0195  0.0387  0.0195  0.0000  0.0000  0.0000  0.0000  0.0000 </r>
       </set>
       <set comment="band 6">
        <r>  0.0208  0.0345  0.0602  0.0345  0.0000  0.0000  0.0000  0.0000  0.0000 </r>
        <r>  0.0208  0.0345  0.0602  0.0345  0.0000  0.0000  0.0000  0.0000  0.0000 </r>
       </set>
       <set comment="band 7">
        <r>  0.0000  0.0719  0.0000  0.0719  0.0000  0.0000  0.0000  0.0000  0.0000 </r>
        <r>  0.0000  0.0719  0.0000  0.0719  0.0000  0.0000  0.0000  0.0000  0.0000 </r>
       </set>
       <set comment="band 8">
        <r>  0.0415  0.0214  0.0264  0.0214  0.0000  0.0000  0.0000  0.0000  0.0000 </r>
        <r>  0.0415  0.0214  0.0264  0.0214  0.0000  0.0000  0.0000  0.0000  0.0000 </r>
       </set>
       <set comment="band 9">
        <r>  0.0764  0.0227  0.0484  0.0227  0.0000  0.0000  0.0000  0.0000  0.0000 </r>
        <r>  0.0764  0.0227  0.0484  0.0227  0.0000  0.0000  0.0000  0.0000  0.0000 </r>
       </set>
       <set comment="band 10">
        <r>  0.0000  0.0081  0.0000  0.0081  0.0000  0.0000  0.0000  0.0000  0.0000 </r>
        <r>  0.0000  0.0081  0.0000  0.0081  0.0000  0.0000  0.0000  0.0000  0.0000 </r>
       </set>
       <set comment="band 11">
        <r>  0.0392  0.0074  0.0170  0.0074  0.0000  0.0000  0.0000  0.0000  0.0000 </r>
        <r>  0.0392  0.0074  0.0170  0.0074  0.0000  0.0000  0.0000  0.0000  0.0000 </r>
       </set>
       <set comment="band 12">
        <r>  0.0347  0.0170  0.0326  0.0170  0.0000  0.0000  0.0000  0.0000  0.0000 </r>
        <r>  0.0347  0.0170  0.0326  0.0170  0.0000  0.0000  0.0000  0.0000  0.0000 </r>
       </set>
       <set comment="band 13">
        <r>  0.0000  0.0174  0.0000  0.0174  0.0000  0.0000  0.0000  0.0000  0.0000 </r>
        <r>  0.0000  0.0174  0.0000  0.0174  0.0000  0.0000  0.0000  0.0000  0.0000 </r>
       </set>
       <set comment="band 14">
        <r>  0.0019  0.0084  0.0143  0.0084  0.0000  0.0000  0.0000  0.0000  0.0000 </r>
        <r>  0.0019  0.0084  0.0143  0.0084  0.0000  0.0000  0.0000  0.0000  0.0000 </r>
       </set>
       <set comment="band 15">
        <r>  0.0000  0.0266  0.0000  0.0266  0.0000  0.0000  0.0000  0.0000  0.0000 </r>
        <r>  0.0000  0.0266  0.0000  0.0266  0.0000  0.0000  0.0000  0.0000  0.0000 </r>
       </set>
       <set comment="band 16">
        <r>  0.0192  0.0160  0.0497  0.0160  0.0000  0.0000  0.0000  0.0000  0.0000 </r>
        <r>  0.0192  0.0160  0.0497  0.0160  0.0000  0.0000  0.0000  0.0000  0.0000 </r>
       </set>
      </set>
      <set comment="kpoint 13">
       <set comment="band 1">
        <r>  0.2091  0.0027  0.0063  0.0027  0.0000  0.0000  0.0000  0.0000  0.0000 </r>
        <r>  0.2091  0.0027  0.0063  0.0027  0.0000  0.0000  0.0000  0.0000  0.0000 </r>
       </set>
       <set comment="band 2">
        <r>  0.1081  0.0347  0.0346  0.0347  0.0000  0.0000  0.0000  0.0000  0.0000 </r>
        <r>  0.1081  0.0347  0.0346  0.0347  0.0000  0.0000  0.0000  0.0000  0.0000 </r>
       </set>
       <set comment="band 3">
        <r>  0.0000  0.1034  0.0000  0.1034  0.0000  0.0000  0.0000  0.0000  0.0000 </r>
        <r>  0.0000  0.1034  0.0000  0.1034  0.0000  0.0000  0.0000  0.0000  0.0000 </r>
       </set>
       <set comment="band 4">
        <r>  0.0207  0.0325  0.1267  0.0325  0.0000  0.0000  0.0000  0.0000  0.0000 </r>
        <r>  0.0207  0.0325  0.1267  0.0325  0.0000  0.0000  0.0000  0.0000  0.0000 </r>
       </set>
       <set comment="band 5">
        <r>  0.1364  0.0165  0.0300  0.0165  0.0000  0.0000  0.0000  0.0000  0.0000 </r>
        <r>  0.1364  0.0165  0.0300  0.0165  0.0000  0.0000  0.0000  0.0000  0.0000 </r>
       </set>
       <set comment="band 6">
        <r>  0.0104  0.0273  0.0593  0.0273  0.0000  0.0000  0.0000  0.0000  0.0000 </r>
        <r>  0.0104  0.0273  0.0593  0.0273  0.0000  0.0000  0.0000  0.0000  0.0000 </r>
       </set>
       <set comment="band 7">
        <r>  0.0000  0.0623  0.0000  0.0623  0.0000  0.0000  0.0000  0.0000  0.0000 </r>
        <r>  0.0000  0.0623  0.0000  0.0623  0.0000  0.0000  0.0000  0.0000  0.0000 </r>
       </set>
       <set comment="band 8">
        <r>  0.0215  0.0264  0.0194  0.0264  0.0000  0.0000  0.0000  0.0000  0.0000 </r>
        <r>  0.0215  0.0264  0.0194  0.0264  0.0000  0.0000  0.0000  0.0000  0.0000 </r>
       </set>
       <set comment="band 9">
        <r>  0.0000  0.0154  0.0000  0.0154  0.0000  0.0000  0.0000  0.0000  0.0000 </r>
        <r>  0.0000  0.0154  0.0000  0.0154  0.0000  0.0000  0.0000  0.0000  0.0000 </r>
       </set>
       <set comment="band 10">
        <r>  0.0281  0.0303  0.0511  0.0303  0.0000  0.0000  0.0000  0.0000  0.0000 </r>
        <r>  0.0281  0.0303  0.0511  0.0303  0.0000  0.0000  0.0000  0.0000  0.0000 </r>
       </set>
       <set comment="band 11">
        <r>  0.0787  0.0021  0.0295  0.0021  0.0000  0.0000  0.0000  0.0000  0.0000 </r>
        <r>  0.0787  0.0021  0.0295  0.0021  0.0000  0.0000  0.0000  0.0000  0.0000 </r>
       </set>
       <set comment="band 12">
        <r>  0.0205  0.0360  0.0578  0.0360  0.0000  0.0000  0.0000  0.0000  0.0000 </r>
        <r>  0.0205  0.0360  0.0578  0.0360  0.0000  0.0000  0.0000  0.0000  0.0000 </r>
       </set>
       <set comment="band 13">
        <r>  0.0000  0.0270  0.0000  0.0270  0.0000  0.0000  0.0000  0.0000  0.0000 </r>
        <r>  0.0000  0.0270  0.0000  0.0270  0.0000  0.0000  0.0000  0.0000  0.0000 </r>
       </set>
       <set comment="band 14">
        <r>  0.0141  0.0056  0.0240  0.0056  0.0000  0.0000  0.0000  0.0000  0.0000 </r>
        <r>  0.0141  0.0056  0.0240  0.0056  0.0000  0.0000  0.0000  0.0000  0.0000 </r>
       </set>
       <set comment="band 15">
        <r>  0.0000  0.0179  0.0000  0.0179  0.0000  0.0000  0.0000  0.0000  0.0000 </r>
        <r>  0.0000  0.0179  0.0000  0.0179  0.0000  0.0000  0.0000  0.0000  0.0000 </r>
       </set>
       <set comment="band 16">
        <r>  0.0308  0.0212  0.0311  0.0212  0.0000  0.0000  0.0000  0.0000  0.0000 </r>
        <r>  0.0308  0.0212  0.0311  0.0212  0.0000  0.0000  0.0000  0.0000  0.0000 </r>
       </set>
      </set>
      <set comment="kpoint 14">
       <set comment="band 1">
        <r>  0.2117  0.0036  0.0073  0.0036  0.0000  0.0000  0.0000  0.0000  0.0000 </r>
        <r>  0.2117  0.0036  0.0073  0.0036  0.0000  0.0000  0.0000  0.0000  0.0000 </r>
       </set>
       <set comment="band 2">
        <r>  0.1105  0.0322  0.0305  0.0322  0.0000  0.0000  0.0000  0.0000  0.0000 </r>
        <r>  0.1105  0.0322  0.0305  0.0322  0.0000  0.0000  0.0000  0.0000  0.0000 </r>
       </set>
       <set comment="band 3">
        <r>  0.0217  0.0321  0.1263  0.0321  0.0000  0.0000  0.0000  0.0000  0.0000 </r>
        <r>  0.0217  0.0321  0.1263  0.0321  0.0000  0.0000  0.0000  0.0000  0.0000 </r>
       </set>
       <set comment="band 4">
        <r>  0.0000  0.1046  0.0000  0.1046  0.0000  0.0000  0.0000  0.0000  0.0000 </r>
        <r>  0.0000  0.1046  0.0000  0.1046  0.0000  0.0000  0.0000  0.0000  0.0000 </r>
       </set>
       <set comment="band 5">
        <r>  0.1481  0.0125  0.0285  0.0125  0.0000  0.0000  0.0000  0.0000  0.0000 </r>
        <r>  0.1481  0.0125  0.0285  0.0125  0.0000  0.0000  0.0000  0.0000  0.0000 </r>
       </set>
       <set comment="band 6">
        <r>  0.0067  0.0224  0.0546  0.0224  0.0000  0.0000  0.0000  0.0000  0.0000 </r>
        <r>  0.0067  0.0224  0.0546  0.0224  0.0000  0.0000  0.0000  0.0000  0.0000 </r>
       </set>
       <set comment="band 7">
        <r>  0.0000  0.0547  0.0000  0.0547  0.0000  0.0000  0.0000  0.0000  0.0000 </r>
        <r>  0.0000  0.0547  0.0000  0.0547  0.0000  0.0000  0.0000  0.0000  0.0000 </r>
       </set>
       <set comment="band 8">
        <r>  0.0109  0.0337  0.0226  0.0337  0.0000  0.0000  0.0000  0.0000  0.0000 </r>
        <r>  0.0109  0.0337  0.0226  0.0337  0.0000  0.0000  0.0000  0.0000  0.0000 </r>
       </set>
       <set comment="band 9">
        <r>  0.0080  0.0118  0.0115  0.0118  0.0000  0.0000  0.0000  0.0000  0.0000 </r>
        <r>  0.0080  0.0118  0.0115  0.0118  0.0000  0.0000  0.0000  0.0000  0.0000 </r>
       </set>
       <set comment="band 10">
        <r>  0.0000  0.0191  0.0000  0.0191  0.0000  0.0000  0.0000  0.0000  0.0000 </r>
        <r>  0.0000  0.0191  0.0000  0.0191  0.0000  0.0000  0.0000  0.0000  0.0000 </r>
       </set>
       <set comment="band 11">
        <r>  0.0811  0.0198  0.0782  0.0198  0.0000  0.0000  0.0000  0.0000  0.0000 </r>
        <r>  0.0811  0.0198  0.0782  0.0198  0.0000  0.0000  0.0000  0.0000  0.0000 </r>
       </set>
       <set comment="band 12">
        <r>  0.0000  0.0338  0.0000  0.0338  0.0000  0.0000  0.0000  0.0000  0.0000 </r>
        <r>  0.0000  0.0338  0.0000  0.0338  0.0000  0.0000  0.0000  0.0000  0.0000 </r>
       </set>
       <set comment="band 13">
        <r>  0.0177  0.0355  0.0844  0.0355  0.0000  0.0000  0.0000  0.0000  0.0000 </r>
        <r>  0.0177  0.0355  0.0844  0.0355  0.0000  0.0000  0.0000  0.0000  0.0000 </r>
       </set>
       <set comment="band 14">
        <r>  0.0049  0.0420  0.0219  0.0420  0.0000  0.0000  0.0000  0.0000  0.0000 </r>
        <r>  0.0049  0.0420  0.0219  0.0420  0.0000  0.0000  0.0000  0.0000  0.0000 </r>
       </set>
       <set comment="band 15">
        <r>  0.0601  0.0091  0.0045  0.0091  0.0000  0.0000  0.0000  0.0000  0.0000 </r>
        <r>  0.0601  0.0091  0.0045  0.0091  0.0000  0.0000  0.0000  0.0000  0.0000 </r>
       </set>
       <set comment="band 16">
        <r>  0.0000  0.0132  0.0000  0.0132  0.0000  0.0000  0.0000  0.0000  0.0000 </r>
        <r>  0.0000  0.0132  0.0000  0.0132  0.0000  0.0000  0.0000  0.0000  0.0000 </r>
       </set>
      </set>
      <set comment="kpoint 15">
       <set comment="band 1">
        <r>  0.2186  0.0040  0.0067  0.0040  0.0000  0.0000  0.0000  0.0000  0.0000 </r>
        <r>  0.2186  0.0040  0.0067  0.0040  0.0000  0.0000  0.0000  0.0000  0.0000 </r>
       </set>
       <set comment="band 2">
        <r>  0.1062  0.0308  0.0295  0.0308  0.0000  0.0000  0.0000  0.0000  0.0000 </r>
        <r>  0.1062  0.0308  0.0295  0.0308  0.0000  0.0000  0.0000  0.0000  0.0000 </r>
       </set>
       <set comment="band 3">
        <r>  0.0218  0.0326  0.1243  0.0326  0.0000  0.0000  0.0000  0.0000  0.0000 </r>
        <r>  0.0218  0.0326  0.1243  0.0326  0.0000  0.0000  0.0000  0.0000  0.0000 </r>
       </set>
       <set comment="band 4">
        <r>  0.0000  0.1057  0.0000  0.1057  0.0000  0.0000  0.0000  0.0000  0.0000 </r>
        <r>  0.0000  0.1057  0.0000  0.1057  0.0000  0.0000  0.0000  0.0000  0.0000 </r>
       </set>
       <set comment="band 5">
        <r>  0.1550  0.0090  0.0296  0.0090  0.0000  0.0000  0.0000  0.0000  0.0000 </r>
        <r>  0.1550  0.0090  0.0296  0.0090  0.0000  0.0000  0.0000  0.0000  0.0000 </r>
       </set>
       <set comment="band 6">
        <r>  0.0050  0.0198  0.0527  0.0198  0.0000  0.0000  0.0000  0.0000  0.0000 </r>
        <r>  0.0050  0.0198  0.0527  0.0198  0.0000  0.0000  0.0000  0.0000  0.0000 </r>
       </set>
       <set comment="band 7">
        <r>  0.0000  0.0502  0.0000  0.0502  0.0000  0.0000  0.0000  0.0000  0.0000 </r>
        <r>  0.0000  0.0502  0.0000  0.0502  0.0000  0.0000  0.0000  0.0000  0.0000 </r>
       </set>
       <set comment="band 8">
        <r>  0.0020  0.0309  0.0298  0.0309  0.0000  0.0000  0.0000  0.0000  0.0000 </r>
        <r>  0.0020  0.0309  0.0298  0.0309  0.0000  0.0000  0.0000  0.0000  0.0000 </r>
       </set>
       <set comment="band 9">
        <r>  0.0155  0.0152  0.0009  0.0152  0.0000  0.0000  0.0000  0.0000  0.0000 </r>
        <r>  0.0155  0.0152  0.0009  0.0152  0.0000  0.0000  0.0000  0.0000  0.0000 </r>
       </set>
       <set comment="band 10">
        <r>  0.0000  0.0098  0.0000  0.0098  0.0000  0.0000  0.0000  0.0000  0.0000 </r>
        <r>  0.0000  0.0098  0.0000  0.0098  0.0000  0.0000  0.0000  0.0000  0.0000 </r>
       </set>
       <set comment="band 11">
        <r>  0.0432  0.0184  0.1029  0.0184  0.0000  0.0000  0.0000  0.0000  0.0000 </r>
        <r>  0.0432  0.0184  0.1029  0.0184  0.0000  0.0000  0.0000  0.0000  0.0000 </r>
       </set>
       <set comment="band 12">
        <r>  0.0000  0.0470  0.0000  0.0470  0.0000  0.0000  0.0000  0.0000  0.0000 </r>
        <r>  0.0000  0.0470  0.0000  0.0470  0.0000  0.0000  0.0000  0.0000  0.0000 </r>
       </set>
       <set comment="band 13">
        <r>  0.0402  0.0248  0.0534  0.0248  0.0000  0.0000  0.0000  0.0000  0.0000 </r>
        <r>  0.0402  0.0248  0.0534  0.0248  0.0000  0.0000  0.0000  0.0000  0.0000 </r>
       </set>
       <set comment="band 14">
        <r>  0.0238  0.0686  0.0348  0.0686  0.0000  0.0000  0.0000  0.0000  0.0000 </r>
        <r>  0.0238  0.0686  0.0348  0.0686  0.0000  0.0000  0.0000  0.0000  0.0000 </r>
       </set>
       <set comment="band 15">
        <r>  0.0466  0.0032  0.0113  0.0032  0.0000  0.0000  0.0000  0.0000  0.0000 </r>
        <r>  0.0466  0.0032  0.0113  0.0032  0.0000  0.0000  0.0000  0.0000  0.0000 </r>
       </set>
       <set comment="band 16">
        <r>  0.0000  0.0115  0.0000  0.0115  0.0000  0.0000  0.0000  0.0000  0.0000 </r>
        <r>  0.0000  0.0115  0.0000  0.0115  0.0000  0.0000  0.0000  0.0000  0.0000 </r>
       </set>
      </set>
      <set comment="kpoint 16">
       <set comment="band 1">
        <r>  0.2229  0.0047  0.0047  0.0047  0.0000  0.0000  0.0000  0.0000  0.0000 </r>
        <r>  0.2229  0.0047  0.0047  0.0047  0.0000  0.0000  0.0000  0.0000  0.0000 </r>
       </set>
       <set comment="band 2">
        <r>  0.1026  0.0300  0.0311  0.0300  0.0000  0.0000  0.0000  0.0000  0.0000 </r>
        <r>  0.1026  0.0300  0.0311  0.0300  0.0000  0.0000  0.0000  0.0000  0.0000 </r>
       </set>
       <set comment="band 3">
        <r>  0.0211  0.0335  0.1216  0.0335  0.0000  0.0000  0.0000  0.0000  0.0000 </r>
        <r>  0.0211  0.0335  0.1216  0.0335  0.0000  0.0000  0.0000  0.0000  0.0000 </r>
       </set>
       <set comment="band 4">
        <r>  0.0000  0.1067  0.0000  0.1067  0.0000  0.0000  0.0000  0.0000  0.0000 </r>
        <r>  0.0000  0.1067  0.0000  0.1067  0.0000  0.0000  0.0000  0.0000  0.0000 </r>
       </set>
       <set comment="band 5">
        <r>  0.1582  0.0065  0.0323  0.0065  0.0000  0.0000  0.0000  0.0000  0.0000 </r>
        <r>  0.1582  0.0065  0.0323  0.0065  0.0000  0.0000  0.0000  0.0000  0.0000 </r>
       </set>
       <set comment="band 6">
        <r>  0.0038  0.0186  0.0542  0.0186  0.0000  0.0000  0.0000  0.0000  0.0000 </r>
        <r>  0.0038  0.0186  0.0542  0.0186  0.0000  0.0000  0.0000  0.0000  0.0000 </r>
       </set>
       <set comment="band 7">
        <r>  0.0000  0.0487  0.0000  0.0487  0.0000  0.0000  0.0000  0.0000  0.0000 </r>
        <r>  0.0000  0.0487  0.0000  0.0487  0.0000  0.0000  0.0000  0.0000  0.0000 </r>
       </set>
       <set comment="band 8">
        <r>  0.0022  0.0219  0.0329  0.0219  0.0000  0.0000  0.0000  0.0000  0.0000 </r>
        <r>  0.0022  0.0219  0.0329  0.0219  0.0000  0.0000  0.0000  0.0000  0.0000 </r>
       </set>
       <set comment="band 9">
        <r>  0.0123  0.0260  0.0045  0.0260  0.0000  0.0000  0.0000  0.0000  0.0000 </r>
        <r>  0.0123  0.0260  0.0045  0.0260  0.0000  0.0000  0.0000  0.0000  0.0000 </r>
       </set>
       <set comment="band 10">
        <r>  0.0000  0.0190  0.0000  0.0190  0.0000  0.0000  0.0000  0.0000  0.0000 </r>
        <r>  0.0000  0.0190  0.0000  0.0190  0.0000  0.0000  0.0000  0.0000  0.0000 </r>
       </set>
       <set comment="band 11">
        <r>  0.0289  0.0068  0.0866  0.0068  0.0000  0.0000  0.0000  0.0000  0.0000 </r>
        <r>  0.0289  0.0068  0.0866  0.0068  0.0000  0.0000  0.0000  0.0000  0.0000 </r>
       </set>
       <set comment="band 12">
        <r>  0.0000  0.0382  0.0000  0.0382  0.0000  0.0000  0.0000  0.0000  0.0000 </r>
        <r>  0.0000  0.0382  0.0000  0.0382  0.0000  0.0000  0.0000  0.0000  0.0000 </r>
       </set>
       <set comment="band 13">
        <r>  0.0213  0.0384  0.0104  0.0384  0.0000  0.0000  0.0000  0.0000  0.0000 </r>
        <r>  0.0213  0.0384  0.0104  0.0384  0.0000  0.0000  0.0000  0.0000  0.0000 </r>
       </set>
       <set comment="band 14">
        <r>  0.0625  0.0649  0.0865  0.0649  0.0000  0.0000  0.0000  0.0000  0.0000 </r>
        <r>  0.0625  0.0649  0.0865  0.0649  0.0000  0.0000  0.0000  0.0000  0.0000 </r>
       </set>
       <set comment="band 15">
        <r>  0.0427  0.0074  0.0052  0.0074  0.0000  0.0000  0.0000  0.0000  0.0000 </r>
        <r>  0.0427  0.0074  0.0052  0.0074  0.0000  0.0000  0.0000  0.0000  0.0000 </r>
       </set>
       <set comment="band 16">
        <r>  0.0186  0.0131  0.0288  0.0131  0.0000  0.0000  0.0000  0.0000  0.0000 </r>
        <r>  0.0186  0.0131  0.0288  0.0131  0.0000  0.0000  0.0000  0.0000  0.0000 </r>
       </set>
      </set>
      <set comment="kpoint 17">
       <set comment="band 1">
        <r>  0.2159  0.0057  0.0036  0.0057  0.0000  0.0000  0.0000  0.0000  0.0000 </r>
        <r>  0.2159  0.0057  0.0036  0.0057  0.0000  0.0000  0.0000  0.0000  0.0000 </r>
       </set>
       <set comment="band 2">
        <r>  0.1082  0.0295  0.0328  0.0295  0.0000  0.0000  0.0000  0.0000  0.0000 </r>
        <r>  0.1082  0.0295  0.0328  0.0295  0.0000  0.0000  0.0000  0.0000  0.0000 </r>
       </set>
       <set comment="band 3">
        <r>  0.0199  0.0345  0.1188  0.0345  0.0000  0.0000  0.0000  0.0000  0.0000 </r>
        <r>  0.0199  0.0345  0.1188  0.0345  0.0000  0.0000  0.0000  0.0000  0.0000 </r>
       </set>
       <set comment="band 4">
        <r>  0.0000  0.1074  0.0000  0.1074  0.0000  0.0000  0.0000  0.0000  0.0000 </r>
        <r>  0.0000  0.1074  0.0000  0.1074  0.0000  0.0000  0.0000  0.0000  0.0000 </r>
       </set>
       <set comment="band 5">
        <r>  0.1575  0.0051  0.0364  0.0051  0.0000  0.0000  0.0000  0.0000  0.0000 </r>
        <r>  0.1575  0.0051  0.0364  0.0051  0.0000  0.0000  0.0000  0.0000  0.0000 </r>
       </set>
       <set comment="band 6">
        <r>  0.0031  0.0183  0.0594  0.0183  0.0000  0.0000  0.0000  0.0000  0.0000 </r>
        <r>  0.0031  0.0183  0.0594  0.0183  0.0000  0.0000  0.0000  0.0000  0.0000 </r>
       </set>
       <set comment="band 7">
        <r>  0.0000  0.0503  0.0000  0.0503  0.0000  0.0000  0.0000  0.0000  0.0000 </r>
        <r>  0.0000  0.0503  0.0000  0.0503  0.0000  0.0000  0.0000  0.0000  0.0000 </r>
       </set>
       <set comment="band 8">
        <r>  0.0024  0.0231  0.0477  0.0231  0.0000  0.0000  0.0000  0.0000  0.0000 </r>
        <r>  0.0024  0.0231  0.0477  0.0231  0.0000  0.0000  0.0000  0.0000  0.0000 </r>
       </set>
       <set comment="band 9">
        <r>  0.0000  0.0223  0.0000  0.0223  0.0000  0.0000  0.0000  0.0000  0.0000 </r>
        <r>  0.0000  0.0223  0.0000  0.0223  0.0000  0.0000  0.0000  0.0000  0.0000 </r>
       </set>
       <set comment="band 10">
        <r>  0.0349  0.0098  0.0282  0.0098  0.0000  0.0000  0.0000  0.0000  0.0000 </r>
        <r>  0.0349  0.0098  0.0282  0.0098  0.0000  0.0000  0.0000  0.0000  0.0000 </r>
       </set>
       <set comment="band 11">
        <r>  0.0350  0.0536  0.0063  0.0536  0.0000  0.0000  0.0000  0.0000  0.0000 </r>
        <r>  0.0350  0.0536  0.0063  0.0536  0.0000  0.0000  0.0000  0.0000  0.0000 </r>
       </set>
       <set comment="band 12">
        <r>  0.0222  0.0222  0.0317  0.0222  0.0000  0.0000  0.0000  0.0000  0.0000 </r>
        <r>  0.0222  0.0222  0.0317  0.0222  0.0000  0.0000  0.0000  0.0000  0.0000 </r>
       </set>
       <set comment="band 13">
        <r>  0.0000  0.0318  0.0000  0.0318  0.0000  0.0000  0.0000  0.0000  0.0000 </r>
        <r>  0.0000  0.0318  0.0000  0.0318  0.0000  0.0000  0.0000  0.0000  0.0000 </r>
       </set>
       <set comment="band 14">
        <r>  0.0271  0.0534  0.1043  0.0534  0.0000  0.0000  0.0000  0.0000  0.0000 </r>
        <r>  0.0271  0.0534  0.1043  0.0534  0.0000  0.0000  0.0000  0.0000  0.0000 </r>
       </set>
       <set comment="band 15">
        <r>  0.0519  0.0029  0.0028  0.0029  0.0000  0.0000  0.0000  0.0000  0.0000 </r>
        <r>  0.0519  0.0029  0.0028  0.0029  0.0000  0.0000  0.0000  0.0000  0.0000 </r>
       </set>
       <set comment="band 16">
        <r>  0.0009  0.0053  0.0152  0.0053  0.0000  0.0000  0.0000  0.0000  0.0000 </r>
        <r>  0.0009  0.0053  0.0152  0.0053  0.0000  0.0000  0.0000  0.0000  0.0000 </r>
       </set>
      </set>
      <set comment="kpoint 18">
       <set comment="band 1">
        <r>  0.2104  0.0055  0.0027  0.0055  0.0000  0.0000  0.0000  0.0000  0.0000 </r>
        <r>  0.2104  0.0055  0.0027  0.0055  0.0000  0.0000  0.0000  0.0000  0.0000 </r>
       </set>
       <set comment="band 2">
        <r>  0.1103  0.0313  0.0348  0.0313  0.0000  0.0000  0.0000  0.0000  0.0000 </r>
        <r>  0.1103  0.0313  0.0348  0.0313  0.0000  0.0000  0.0000  0.0000  0.0000 </r>
       </set>
       <set comment="band 3">
        <r>  0.0180  0.0353  0.1167  0.0353  0.0000  0.0000  0.0000  0.0000  0.0000 </r>
        <r>  0.0180  0.0353  0.1167  0.0353  0.0000  0.0000  0.0000  0.0000  0.0000 </r>
       </set>
       <set comment="band 4">
        <r>  0.0000  0.1079  0.0000  0.1079  0.0000  0.0000  0.0000  0.0000  0.0000 </r>
        <r>  0.0000  0.1079  0.0000  0.1079  0.0000  0.0000  0.0000  0.0000  0.0000 </r>
       </set>
       <set comment="band 5">
        <r>  0.1528  0.0049  0.0418  0.0049  0.0000  0.0000  0.0000  0.0000  0.0000 </r>
        <r>  0.1528  0.0049  0.0418  0.0049  0.0000  0.0000  0.0000  0.0000  0.0000 </r>
       </set>
       <set comment="band 6">
        <r>  0.0000  0.0555  0.0000  0.0555  0.0000  0.0000  0.0000  0.0000  0.0000 </r>
        <r>  0.0000  0.0555  0.0000  0.0555  0.0000  0.0000  0.0000  0.0000  0.0000 </r>
       </set>
       <set comment="band 7">
        <r>  0.0029  0.0184  0.0695  0.0184  0.0000  0.0000  0.0000  0.0000  0.0000 </r>
        <r>  0.0029  0.0184  0.0695  0.0184  0.0000  0.0000  0.0000  0.0000  0.0000 </r>
       </set>
       <set comment="band 8">
        <r>  0.0209  0.0283  0.0623  0.0283  0.0000  0.0000  0.0000  0.0000  0.0000 </r>
        <r>  0.0209  0.0283  0.0623  0.0283  0.0000  0.0000  0.0000  0.0000  0.0000 </r>
       </set>
       <set comment="band 9">
        <r>  0.0000  0.0185  0.0000  0.0185  0.0000  0.0000  0.0000  0.0000  0.0000 </r>
        <r>  0.0000  0.0185  0.0000  0.0185  0.0000  0.0000  0.0000  0.0000  0.0000 </r>
       </set>
       <set comment="band 10">
        <r>  0.0309  0.0050  0.0094  0.0050  0.0000  0.0000  0.0000  0.0000  0.0000 </r>
        <r>  0.0309  0.0050  0.0094  0.0050  0.0000  0.0000  0.0000  0.0000  0.0000 </r>
       </set>
       <set comment="band 11">
        <r>  0.0575  0.0443  0.0106  0.0443  0.0000  0.0000  0.0000  0.0000  0.0000 </r>
        <r>  0.0575  0.0443  0.0106  0.0443  0.0000  0.0000  0.0000  0.0000  0.0000 </r>
       </set>
       <set comment="band 12">
        <r>  0.0098  0.0419  0.0227  0.0419  0.0000  0.0000  0.0000  0.0000  0.0000 </r>
        <r>  0.0098  0.0419  0.0227  0.0419  0.0000  0.0000  0.0000  0.0000  0.0000 </r>
       </set>
       <set comment="band 13">
        <r>  0.0102  0.0309  0.0675  0.0309  0.0000  0.0000  0.0000  0.0000  0.0000 </r>
        <r>  0.0102  0.0309  0.0675  0.0309  0.0000  0.0000  0.0000  0.0000  0.0000 </r>
       </set>
       <set comment="band 14">
        <r>  0.0000  0.0280  0.0000  0.0280  0.0000  0.0000  0.0000  0.0000  0.0000 </r>
        <r>  0.0000  0.0280  0.0000  0.0280  0.0000  0.0000  0.0000  0.0000  0.0000 </r>
       </set>
       <set comment="band 15">
        <r>  0.0526  0.0119  0.0201  0.0119  0.0000  0.0000  0.0000  0.0000  0.0000 </r>
        <r>  0.0526  0.0119  0.0201  0.0119  0.0000  0.0000  0.0000  0.0000  0.0000 </r>
       </set>
       <set comment="band 16">
        <r>  0.0052  0.0022  0.0290  0.0022  0.0000  0.0000  0.0000  0.0000  0.0000 </r>
        <r>  0.0052  0.0022  0.0290  0.0022  0.0000  0.0000  0.0000  0.0000  0.0000 </r>
       </set>
      </set>
      <set comment="kpoint 19">
       <set comment="band 1">
        <r>  0.2090  0.0044  0.0017  0.0044  0.0000  0.0000  0.0000  0.0000  0.0000 </r>
        <r>  0.2090  0.0044  0.0017  0.0044  0.0000  0.0000  0.0000  0.0000  0.0000 </r>
       </set>
       <set comment="band 2">
        <r>  0.1062  0.0353  0.0372  0.0353  0.0000  0.0000  0.0000  0.0000  0.0000 </r>
        <r>  0.1062  0.0353  0.0372  0.0353  0.0000  0.0000  0.0000  0.0000  0.0000 </r>
       </set>
       <set comment="band 3">
        <r>  0.0155  0.0356  0.1162  0.0356  0.0000  0.0000  0.0000  0.0000  0.0000 </r>
        <r>  0.0155  0.0356  0.1162  0.0356  0.0000  0.0000  0.0000  0.0000  0.0000 </r>
       </set>
       <set comment="band 4">
        <r>  0.0000  0.1080  0.0000  0.1080  0.0000  0.0000  0.0000  0.0000  0.0000 </r>
        <r>  0.0000  0.1080  0.0000  0.1080  0.0000  0.0000  0.0000  0.0000  0.0000 </r>
       </set>
       <set comment="band 5">
        <r>  0.1437  0.0060  0.0485  0.0060  0.0000  0.0000  0.0000  0.0000  0.0000 </r>
        <r>  0.1437  0.0060  0.0485  0.0060  0.0000  0.0000  0.0000  0.0000  0.0000 </r>
       </set>
       <set comment="band 6">
        <r>  0.0000  0.0642  0.0000  0.0642  0.0000  0.0000  0.0000  0.0000  0.0000 </r>
        <r>  0.0000  0.0642  0.0000  0.0642  0.0000  0.0000  0.0000  0.0000  0.0000 </r>
       </set>
       <set comment="band 7">
        <r>  0.0042  0.0184  0.0861  0.0184  0.0000  0.0000  0.0000  0.0000  0.0000 </r>
        <r>  0.0042  0.0184  0.0861  0.0184  0.0000  0.0000  0.0000  0.0000  0.0000 </r>
       </set>
       <set comment="band 8">
        <r>  0.0523  0.0343  0.0439  0.0343  0.0000  0.0000  0.0000  0.0000  0.0000 </r>
        <r>  0.0523  0.0343  0.0439  0.0343  0.0000  0.0000  0.0000  0.0000  0.0000 </r>
       </set>
       <set comment="band 9">
        <r>  0.0000  0.0108  0.0000  0.0108  0.0000  0.0000  0.0000  0.0000  0.0000 </r>
        <r>  0.0000  0.0108  0.0000  0.0108  0.0000  0.0000  0.0000  0.0000  0.0000 </r>
       </set>
       <set comment="band 10">
        <r>  0.0329  0.0296  0.0199  0.0296  0.0000  0.0000  0.0000  0.0000  0.0000 </r>
        <r>  0.0329  0.0296  0.0199  0.0296  0.0000  0.0000  0.0000  0.0000  0.0000 </r>
       </set>
       <set comment="band 11">
        <r>  0.0522  0.0103  0.0037  0.0103  0.0000  0.0000  0.0000  0.0000  0.0000 </r>
        <r>  0.0522  0.0103  0.0037  0.0103  0.0000  0.0000  0.0000  0.0000  0.0000 </r>
       </set>
       <set comment="band 12">
        <r>  0.0254  0.0396  0.0241  0.0396  0.0000  0.0000  0.0000  0.0000  0.0000 </r>
        <r>  0.0254  0.0396  0.0241  0.0396  0.0000  0.0000  0.0000  0.0000  0.0000 </r>
       </set>
       <set comment="band 13">
        <r>  0.0067  0.0045  0.0276  0.0045  0.0000  0.0000  0.0000  0.0000  0.0000 </r>
        <r>  0.0067  0.0045  0.0276  0.0045  0.0000  0.0000  0.0000  0.0000  0.0000 </r>
       </set>
       <set comment="band 14">
        <r>  0.0000  0.0203  0.0000  0.0203  0.0000  0.0000  0.0000  0.0000  0.0000 </r>
        <r>  0.0000  0.0203  0.0000  0.0203  0.0000  0.0000  0.0000  0.0000  0.0000 </r>
       </set>
       <set comment="band 15">
        <r>  0.0097  0.0228  0.0027  0.0228  0.0000  0.0000  0.0000  0.0000  0.0000 </r>
        <r>  0.0097  0.0228  0.0027  0.0228  0.0000  0.0000  0.0000  0.0000  0.0000 </r>
       </set>
       <set comment="band 16">
        <r>  0.0226  0.0151  0.0703  0.0148  0.0000  0.0000  0.0000  0.0000  0.0000 </r>
        <r>  0.0226  0.0149  0.0703  0.0151  0.0000  0.0000  0.0000  0.0000  0.0000 </r>
       </set>
      </set>
      <set comment="kpoint 20">
       <set comment="band 1">
        <r>  0.2094  0.0030  0.0008  0.0030  0.0000  0.0000  0.0000  0.0000  0.0000 </r>
        <r>  0.2094  0.0030  0.0008  0.0030  0.0000  0.0000  0.0000  0.0000  0.0000 </r>
       </set>
       <set comment="band 2">
        <r>  0.0973  0.0416  0.0388  0.0416  0.0000  0.0000  0.0000  0.0000  0.0000 </r>
        <r>  0.0973  0.0416  0.0388  0.0416  0.0000  0.0000  0.0000  0.0000  0.0000 </r>
       </set>
       <set comment="band 3">
        <r>  0.0122  0.0345  0.1196  0.0345  0.0000  0.0000  0.0000  0.0000  0.0000 </r>
        <r>  0.0122  0.0345  0.1196  0.0345  0.0000  0.0000  0.0000  0.0000  0.0000 </r>
       </set>
       <set comment="band 4">
        <r>  0.0000  0.1081  0.0000  0.1081  0.0000  0.0000  0.0000  0.0000  0.0000 </r>
        <r>  0.0000  0.1081  0.0000  0.1081  0.0000  0.0000  0.0000  0.0000  0.0000 </r>
       </set>
       <set comment="band 5">
        <r>  0.1293  0.0086  0.0568  0.0086  0.0000  0.0000  0.0000  0.0000  0.0000 </r>
        <r>  0.1293  0.0086  0.0568  0.0086  0.0000  0.0000  0.0000  0.0000  0.0000 </r>
       </set>
       <set comment="band 6">
        <r>  0.0000  0.0723  0.0000  0.0723  0.0000  0.0000  0.0000  0.0000  0.0000 </r>
        <r>  0.0000  0.0723  0.0000  0.0723  0.0000  0.0000  0.0000  0.0000  0.0000 </r>
       </set>
       <set comment="band 7">
        <r>  0.0092  0.0182  0.1029  0.0182  0.0000  0.0000  0.0000  0.0000  0.0000 </r>
        <r>  0.0092  0.0182  0.1029  0.0182  0.0000  0.0000  0.0000  0.0000  0.0000 </r>
       </set>
       <set comment="band 8">
        <r>  0.0942  0.0471  0.0217  0.0471  0.0000  0.0000  0.0000  0.0000  0.0000 </r>
        <r>  0.0942  0.0471  0.0217  0.0471  0.0000  0.0000  0.0000  0.0000  0.0000 </r>
       </set>
       <set comment="band 9">
        <r>  0.0000  0.0033  0.0000  0.0033  0.0000  0.0000  0.0000  0.0000  0.0000 </r>
        <r>  0.0000  0.0033  0.0000  0.0033  0.0000  0.0000  0.0000  0.0000  0.0000 </r>
       </set>
       <set comment="band 10">
        <r>  0.0371  0.0135  0.0146  0.0135  0.0000  0.0000  0.0000  0.0000  0.0000 </r>
        <r>  0.0371  0.0135  0.0146  0.0135  0.0000  0.0000  0.0000  0.0000  0.0000 </r>
       </set>
       <set comment="band 11">
        <r>  0.0376  0.0148  0.0119  0.0148  0.0000  0.0000  0.0000  0.0000  0.0000 </r>
        <r>  0.0376  0.0148  0.0119  0.0148  0.0000  0.0000  0.0000  0.0000  0.0000 </r>
       </set>
       <set comment="band 12">
        <r>  0.0349  0.0194  0.0089  0.0194  0.0000  0.0000  0.0000  0.0000  0.0000 </r>
        <r>  0.0349  0.0194  0.0089  0.0194  0.0000  0.0000  0.0000  0.0000  0.0000 </r>
       </set>
       <set comment="band 13">
        <r>  0.0016  0.0032  0.0249  0.0032  0.0000  0.0000  0.0000  0.0000  0.0000 </r>
        <r>  0.0016  0.0032  0.0249  0.0032  0.0000  0.0000  0.0000  0.0000  0.0000 </r>
       </set>
       <set comment="band 14">
        <r>  0.0000  0.0165  0.0000  0.0165  0.0000  0.0000  0.0000  0.0000  0.0000 </r>
        <r>  0.0000  0.0165  0.0000  0.0165  0.0000  0.0000  0.0000  0.0000  0.0000 </r>
       </set>
       <set comment="band 15">
        <r>  0.0087  0.0284  0.0047  0.0284  0.0000  0.0000  0.0000  0.0000  0.0000 </r>
        <r>  0.0087  0.0284  0.0047  0.0284  0.0000  0.0000  0.0000  0.0000  0.0000 </r>
       </set>
       <set comment="band 16">
        <r>  0.0087  0.0165  0.0324  0.0165  0.0000  0.0000  0.0000  0.0000  0.0000 </r>
        <r>  0.0087  0.0165  0.0324  0.0165  0.0000  0.0000  0.0000  0.0000  0.0000 </r>
       </set>
      </set>
      <set comment="kpoint 21">
       <set comment="band 1">
        <r>  0.2104  0.0018  0.0002  0.0018  0.0000  0.0000  0.0000  0.0000  0.0000 </r>
        <r>  0.2104  0.0018  0.0002  0.0018  0.0000  0.0000  0.0000  0.0000  0.0000 </r>
       </set>
       <set comment="band 2">
        <r>  0.0839  0.0523  0.0355  0.0523  0.0000  0.0000  0.0000  0.0000  0.0000 </r>
        <r>  0.0839  0.0523  0.0355  0.0523  0.0000  0.0000  0.0000  0.0000  0.0000 </r>
       </set>
       <set comment="band 3">
        <r>  0.0073  0.0296  0.1329  0.0296  0.0000  0.0000  0.0000  0.0000  0.0000 </r>
        <r>  0.0073  0.0296  0.1329  0.0296  0.0000  0.0000  0.0000  0.0000  0.0000 </r>
       </set>
       <set comment="band 4">
        <r>  0.0000  0.1083  0.0000  0.1083  0.0000  0.0000  0.0000  0.0000  0.0000 </r>
        <r>  0.0000  0.1083  0.0000  0.1083  0.0000  0.0000  0.0000  0.0000  0.0000 </r>
       </set>
       <set comment="band 5">
        <r>  0.1063  0.0127  0.0680  0.0127  0.0000  0.0000  0.0000  0.0000  0.0000 </r>
        <r>  0.1063  0.0127  0.0680  0.0127  0.0000  0.0000  0.0000  0.0000  0.0000 </r>
       </set>
       <set comment="band 6">
        <r>  0.0000  0.0752  0.0000  0.0752  0.0000  0.0000  0.0000  0.0000  0.0000 </r>
        <r>  0.0000  0.0752  0.0000  0.0752  0.0000  0.0000  0.0000  0.0000  0.0000 </r>
       </set>
       <set comment="band 7">
        <r>  0.0207  0.0208  0.1005  0.0208  0.0000  0.0000  0.0000  0.0000  0.0000 </r>
        <r>  0.0207  0.0208  0.1005  0.0208  0.0000  0.0000  0.0000  0.0000  0.0000 </r>
       </set>
       <set comment="band 8">
        <r>  0.1452  0.0516  0.0170  0.0516  0.0000  0.0000  0.0000  0.0000  0.0000 </r>
        <r>  0.1452  0.0516  0.0170  0.0516  0.0000  0.0000  0.0000  0.0000  0.0000 </r>
       </set>
       <set comment="band 9">
        <r>  0.0000  0.0006  0.0000  0.0006  0.0000  0.0000  0.0000  0.0000  0.0000 </r>
        <r>  0.0000  0.0006  0.0000  0.0006  0.0000  0.0000  0.0000  0.0000  0.0000 </r>
       </set>
       <set comment="band 10">
        <r>  0.0140  0.0013  0.0064  0.0013  0.0000  0.0000  0.0000  0.0000  0.0000 </r>
        <r>  0.0140  0.0013  0.0064  0.0013  0.0000  0.0000  0.0000  0.0000  0.0000 </r>
       </set>
       <set comment="band 11">
        <r>  0.0630  0.0203  0.0083  0.0203  0.0000  0.0000  0.0000  0.0000  0.0000 </r>
        <r>  0.0630  0.0203  0.0083  0.0203  0.0000  0.0000  0.0000  0.0000  0.0000 </r>
       </set>
       <set comment="band 12">
        <r>  0.0197  0.0065  0.0043  0.0065  0.0000  0.0000  0.0000  0.0000  0.0000 </r>
        <r>  0.0197  0.0065  0.0043  0.0065  0.0000  0.0000  0.0000  0.0000  0.0000 </r>
       </set>
       <set comment="band 13">
        <r>  0.0014  0.0028  0.0273  0.0028  0.0000  0.0000  0.0000  0.0000  0.0000 </r>
        <r>  0.0014  0.0028  0.0273  0.0028  0.0000  0.0000  0.0000  0.0000  0.0000 </r>
       </set>
       <set comment="band 14">
        <r>  0.0000  0.0168  0.0000  0.0168  0.0000  0.0000  0.0000  0.0000  0.0000 </r>
        <r>  0.0000  0.0168  0.0000  0.0168  0.0000  0.0000  0.0000  0.0000  0.0000 </r>
       </set>
       <set comment="band 15">
        <r>  0.0181  0.0114  0.0029  0.0114  0.0000  0.0000  0.0000  0.0000  0.0000 </r>
        <r>  0.0181  0.0114  0.0029  0.0114  0.0000  0.0000  0.0000  0.0000  0.0000 </r>
       </set>
       <set comment="band 16">
        <r>  0.0051  0.0278  0.0054  0.0278  0.0000  0.0000  0.0000  0.0000  0.0000 </r>
        <r>  0.0051  0.0278  0.0054  0.0278  0.0000  0.0000  0.0000  0.0000  0.0000 </r>
       </set>
      </set>
      <set comment="kpoint 22">
       <set comment="band 1">
        <r>  0.2112  0.0008  0.0000  0.0008  0.0000  0.0000  0.0000  0.0000  0.0000 </r>
        <r>  0.2112  0.0008  0.0000  0.0008  0.0000  0.0000  0.0000  0.0000  0.0000 </r>
       </set>
       <set comment="band 2">
        <r>  0.0623  0.0717  0.0194  0.0717  0.0000  0.0000  0.0000  0.0000  0.0000 </r>
        <r>  0.0623  0.0717  0.0194  0.0717  0.0000  0.0000  0.0000  0.0000  0.0000 </r>
       </set>
       <set comment="band 3">
        <r>  0.0015  0.0163  0.1675  0.0163  0.0000  0.0000  0.0000  0.0000  0.0000 </r>
        <r>  0.0015  0.0163  0.1675  0.0163  0.0000  0.0000  0.0000  0.0000  0.0000 </r>
       </set>
       <set comment="band 4">
        <r>  0.0000  0.1080  0.0000  0.1080  0.0000  0.0000  0.0000  0.0000  0.0000 </r>
        <r>  0.0000  0.1080  0.0000  0.1080  0.0000  0.0000  0.0000  0.0000  0.0000 </r>
       </set>
       <set comment="band 5">
        <r>  0.0000  0.0752  0.0000  0.0752  0.0000  0.0000  0.0000  0.0000  0.0000 </r>
        <r>  0.0000  0.0752  0.0000  0.0752  0.0000  0.0000  0.0000  0.0000  0.0000 </r>
       </set>
       <set comment="band 6">
        <r>  0.0890  0.0006  0.1107  0.0006  0.0000  0.0000  0.0000  0.0000  0.0000 </r>
        <r>  0.0890  0.0006  0.1107  0.0006  0.0000  0.0000  0.0000  0.0000  0.0000 </r>
       </set>
       <set comment="band 7">
        <r>  0.0121  0.0480  0.0464  0.0480  0.0000  0.0000  0.0000  0.0000  0.0000 </r>
        <r>  0.0121  0.0480  0.0464  0.0480  0.0000  0.0000  0.0000  0.0000  0.0000 </r>
       </set>
       <set comment="band 8">
        <r>  0.2017  0.0377  0.0186  0.0377  0.0000  0.0000  0.0000  0.0000  0.0000 </r>
        <r>  0.2017  0.0377  0.0186  0.0377  0.0000  0.0000  0.0000  0.0000  0.0000 </r>
       </set>
       <set comment="band 9">
        <r>  0.0000  0.0006  0.0000  0.0006  0.0000  0.0000  0.0000  0.0000  0.0000 </r>
        <r>  0.0000  0.0006  0.0000  0.0006  0.0000  0.0000  0.0000  0.0000  0.0000 </r>
       </set>
       <set comment="band 10">
        <r>  0.0027  0.0001  0.0012  0.0001  0.0000  0.0000  0.0000  0.0000  0.0000 </r>
        <r>  0.0027  0.0001  0.0012  0.0001  0.0000  0.0000  0.0000  0.0000  0.0000 </r>
       </set>
       <set comment="band 11">
        <r>  0.0833  0.0120  0.0014  0.0120  0.0000  0.0000  0.0000  0.0000  0.0000 </r>
        <r>  0.0833  0.0120  0.0014  0.0120  0.0000  0.0000  0.0000  0.0000  0.0000 </r>
       </set>
       <set comment="band 12">
        <r>  0.0102  0.0115  0.0004  0.0115  0.0000  0.0000  0.0000  0.0000  0.0000 </r>
        <r>  0.0102  0.0115  0.0004  0.0115  0.0000  0.0000  0.0000  0.0000  0.0000 </r>
       </set>
       <set comment="band 13">
        <r>  0.0003  0.0004  0.0364  0.0004  0.0000  0.0000  0.0000  0.0000  0.0000 </r>
        <r>  0.0003  0.0004  0.0364  0.0004  0.0000  0.0000  0.0000  0.0000  0.0000 </r>
       </set>
       <set comment="band 14">
        <r>  0.0000  0.0176  0.0000  0.0176  0.0000  0.0000  0.0000  0.0000  0.0000 </r>
        <r>  0.0000  0.0176  0.0000  0.0176  0.0000  0.0000  0.0000  0.0000  0.0000 </r>
       </set>
       <set comment="band 15">
        <r>  0.0266  0.0064  0.0001  0.0064  0.0000  0.0000  0.0000  0.0000  0.0000 </r>
        <r>  0.0266  0.0064  0.0001  0.0064  0.0000  0.0000  0.0000  0.0000  0.0000 </r>
       </set>
       <set comment="band 16">
        <r>  0.0023  0.0257  0.0060  0.0257  0.0000  0.0000  0.0000  0.0000  0.0000 </r>
        <r>  0.0023  0.0257  0.0060  0.0257  0.0000  0.0000  0.0000  0.0000  0.0000 </r>
       </set>
      </set>
      <set comment="kpoint 23">
       <set comment="band 1">
        <r>  0.2105  0.0000  0.0033  0.0000  0.0000  0.0000  0.0000  0.0000  0.0000 </r>
        <r>  0.2105  0.0000  0.0033  0.0000  0.0000  0.0000  0.0000  0.0000  0.0000 </r>
       </set>
       <set comment="band 2">
        <r>  0.1057  0.0000  0.1392  0.0000  0.0000  0.0000  0.0000  0.0000  0.0000 </r>
        <r>  0.1057  0.0000  0.1392  0.0000  0.0000  0.0000  0.0000  0.0000  0.0000 </r>
       </set>
       <set comment="band 3">
        <r>  0.0000  0.1006  0.0000  0.1005  0.0000  0.0000  0.0000  0.0000  0.0000 </r>
        <r>  0.0000  0.1005  0.0000  0.1006  0.0000  0.0000  0.0000  0.0000  0.0000 </r>
       </set>
       <set comment="band 4">
        <r>  0.0000  0.1005  0.0000  0.1006  0.0000  0.0000  0.0000  0.0000  0.0000 </r>
        <r>  0.0000  0.1006  0.0000  0.1005  0.0000  0.0000  0.0000  0.0000  0.0000 </r>
       </set>
       <set comment="band 5">
        <r>  0.0218  0.0000  0.1149  0.0000  0.0000  0.0000  0.0000  0.0000  0.0000 </r>
        <r>  0.0218  0.0000  0.1149  0.0000  0.0000  0.0000  0.0000  0.0000  0.0000 </r>
       </set>
       <set comment="band 6">
        <r>  0.0000  0.0816  0.0000  0.0819  0.0000  0.0000  0.0000  0.0000  0.0000 </r>
        <r>  0.0000  0.0819  0.0000  0.0816  0.0000  0.0000  0.0000  0.0000  0.0000 </r>
       </set>
       <set comment="band 7">
        <r>  0.0000  0.0819  0.0000  0.0816  0.0000  0.0000  0.0000  0.0000  0.0000 </r>
        <r>  0.0000  0.0816  0.0000  0.0819  0.0000  0.0000  0.0000  0.0000  0.0000 </r>
       </set>
       <set comment="band 8">
        <r>  0.2053  0.0000  0.0790  0.0000  0.0000  0.0000  0.0000  0.0000  0.0000 </r>
        <r>  0.2053  0.0000  0.0790  0.0000  0.0000  0.0000  0.0000  0.0000  0.0000 </r>
       </set>
       <set comment="band 9">
        <r>  0.0463  0.0000  0.0054  0.0000  0.0000  0.0000  0.0000  0.0000  0.0000 </r>
        <r>  0.0463  0.0000  0.0054  0.0000  0.0000  0.0000  0.0000  0.0000  0.0000 </r>
       </set>
       <set comment="band 10">
        <r>  0.0000  0.0000  0.0000  0.0000  0.0000  0.0000  0.0000  0.0000  0.0000 </r>
        <r>  0.0000  0.0000  0.0000  0.0000  0.0000  0.0000  0.0000  0.0000  0.0000 </r>
       </set>
       <set comment="band 11">
        <r>  0.0722  0.0000  0.0423  0.0000  0.0000  0.0000  0.0000  0.0000  0.0000 </r>
        <r>  0.0722  0.0000  0.0423  0.0000  0.0000  0.0000  0.0000  0.0000  0.0000 </r>
       </set>
       <set comment="band 12">
        <r>  0.0000  0.0179  0.0000  0.0177  0.0000  0.0000  0.0000  0.0000  0.0000 </r>
        <r>  0.0000  0.0177  0.0000  0.0178  0.0000  0.0000  0.0000  0.0000  0.0000 </r>
       </set>
       <set comment="band 13">
        <r>  0.0000  0.0177  0.0000  0.0179  0.0000  0.0000  0.0000  0.0000  0.0000 </r>
        <r>  0.0000  0.0178  0.0000  0.0177  0.0000  0.0000  0.0000  0.0000  0.0000 </r>
       </set>
       <set comment="band 14">
        <r>  0.0136  0.0000  0.0137  0.0000  0.0000  0.0000  0.0000  0.0000  0.0000 </r>
        <r>  0.0136  0.0000  0.0137  0.0000  0.0000  0.0000  0.0000  0.0000  0.0000 </r>
       </set>
       <set comment="band 15">
        <r>  0.0182  0.0000  0.0223  0.0000  0.0000  0.0000  0.0000  0.0000  0.0000 </r>
        <r>  0.0182  0.0000  0.0223  0.0000  0.0000  0.0000  0.0000  0.0000  0.0000 </r>
       </set>
       <set comment="band 16">
        <r>  0.0000  0.0541  0.0000  0.0201  0.0000  0.0000  0.0000  0.0000  0.0000 </r>
        <r>  0.0000  0.0239  0.0000  0.0503  0.0000  0.0000  0.0000  0.0000  0.0000 </r>
       </set>
      </set>
      <set comment="kpoint 24">
       <set comment="band 1">
        <r>  0.2095  0.0002  0.0051  0.0002  0.0000  0.0000  0.0000  0.0000  0.0000 </r>
        <r>  0.2095  0.0002  0.0051  0.0002  0.0000  0.0000  0.0000  0.0000  0.0000 </r>
       </set>
       <set comment="band 2">
        <r>  0.1095  0.0208  0.0867  0.0208  0.0000  0.0000  0.0000  0.0000  0.0000 </r>
        <r>  0.1095  0.0208  0.0867  0.0208  0.0000  0.0000  0.0000  0.0000  0.0000 </r>
       </set>
       <set comment="band 3">
        <r>  0.0000  0.0998  0.0000  0.0998  0.0000  0.0000  0.0000  0.0000  0.0000 </r>
        <r>  0.0000  0.0998  0.0000  0.0998  0.0000  0.0000  0.0000  0.0000  0.0000 </r>
       </set>
       <set comment="band 4">
        <r>  0.0163  0.0711  0.0474  0.0711  0.0000  0.0000  0.0000  0.0000  0.0000 </r>
        <r>  0.0163  0.0711  0.0474  0.0711  0.0000  0.0000  0.0000  0.0000  0.0000 </r>
       </set>
       <set comment="band 5">
        <r>  0.0264  0.0061  0.0972  0.0061  0.0000  0.0000  0.0000  0.0000  0.0000 </r>
        <r>  0.0264  0.0061  0.0972  0.0061  0.0000  0.0000  0.0000  0.0000  0.0000 </r>
       </set>
       <set comment="band 6">
        <r>  0.0872  0.0468  0.0290  0.0468  0.0000  0.0000  0.0000  0.0000  0.0000 </r>
        <r>  0.0872  0.0468  0.0290  0.0468  0.0000  0.0000  0.0000  0.0000  0.0000 </r>
       </set>
       <set comment="band 7">
        <r>  0.0000  0.0816  0.0000  0.0816  0.0000  0.0000  0.0000  0.0000  0.0000 </r>
        <r>  0.0000  0.0816  0.0000  0.0816  0.0000  0.0000  0.0000  0.0000  0.0000 </r>
       </set>
       <set comment="band 8">
        <r>  0.0463  0.0287  0.0363  0.0287  0.0000  0.0000  0.0000  0.0000  0.0000 </r>
        <r>  0.0463  0.0287  0.0363  0.0287  0.0000  0.0000  0.0000  0.0000  0.0000 </r>
       </set>
       <set comment="band 9">
        <r>  0.1000  0.0068  0.0339  0.0068  0.0000  0.0000  0.0000  0.0000  0.0000 </r>
        <r>  0.1000  0.0068  0.0339  0.0068  0.0000  0.0000  0.0000  0.0000  0.0000 </r>
       </set>
       <set comment="band 10">
        <r>  0.0000  0.0010  0.0000  0.0010  0.0000  0.0000  0.0000  0.0000  0.0000 </r>
        <r>  0.0000  0.0010  0.0000  0.0010  0.0000  0.0000  0.0000  0.0000  0.0000 </r>
       </set>
       <set comment="band 11">
        <r>  0.0572  0.0037  0.0546  0.0037  0.0000  0.0000  0.0000  0.0000  0.0000 </r>
        <r>  0.0572  0.0037  0.0546  0.0037  0.0000  0.0000  0.0000  0.0000  0.0000 </r>
       </set>
       <set comment="band 12">
        <r>  0.0117  0.0084  0.0037  0.0084  0.0000  0.0000  0.0000  0.0000  0.0000 </r>
        <r>  0.0117  0.0084  0.0037  0.0084  0.0000  0.0000  0.0000  0.0000  0.0000 </r>
       </set>
       <set comment="band 13">
        <r>  0.0000  0.0166  0.0000  0.0166  0.0000  0.0000  0.0000  0.0000  0.0000 </r>
        <r>  0.0000  0.0166  0.0000  0.0166  0.0000  0.0000  0.0000  0.0000  0.0000 </r>
       </set>
       <set comment="band 14">
        <r>  0.0064  0.0071  0.0080  0.0071  0.0000  0.0000  0.0000  0.0000  0.0000 </r>
        <r>  0.0064  0.0071  0.0080  0.0071  0.0000  0.0000  0.0000  0.0000  0.0000 </r>
       </set>
       <set comment="band 15">
        <r>  0.0113  0.0042  0.0277  0.0042  0.0000  0.0000  0.0000  0.0000  0.0000 </r>
        <r>  0.0113  0.0042  0.0277  0.0042  0.0000  0.0000  0.0000  0.0000  0.0000 </r>
       </set>
       <set comment="band 16">
        <r>  0.0000  0.0321  0.0000  0.0321  0.0000  0.0000  0.0000  0.0000  0.0000 </r>
        <r>  0.0000  0.0321  0.0000  0.0321  0.0000  0.0000  0.0000  0.0000  0.0000 </r>
       </set>
      </set>
      <set comment="kpoint 25">
       <set comment="band 1">
        <r>  0.2085  0.0008  0.0071  0.0008  0.0000  0.0000  0.0000  0.0000  0.0000 </r>
        <r>  0.2085  0.0008  0.0071  0.0008  0.0000  0.0000  0.0000  0.0000  0.0000 </r>
       </set>
       <set comment="band 2">
        <r>  0.1141  0.0297  0.0561  0.0297  0.0000  0.0000  0.0000  0.0000  0.0000 </r>
        <r>  0.1141  0.0297  0.0561  0.0297  0.0000  0.0000  0.0000  0.0000  0.0000 </r>
       </set>
       <set comment="band 3">
        <r>  0.0000  0.1000  0.0000  0.1000  0.0000  0.0000  0.0000  0.0000  0.0000 </r>
        <r>  0.0000  0.1000  0.0000  0.1000  0.0000  0.0000  0.0000  0.0000  0.0000 </r>
       </set>
       <set comment="band 4">
        <r>  0.0281  0.0494  0.0795  0.0494  0.0000  0.0000  0.0000  0.0000  0.0000 </r>
        <r>  0.0281  0.0494  0.0795  0.0494  0.0000  0.0000  0.0000  0.0000  0.0000 </r>
       </set>
       <set comment="band 5">
        <r>  0.0338  0.0122  0.0805  0.0122  0.0000  0.0000  0.0000  0.0000  0.0000 </r>
        <r>  0.0338  0.0122  0.0805  0.0122  0.0000  0.0000  0.0000  0.0000  0.0000 </r>
       </set>
       <set comment="band 6">
        <r>  0.0951  0.0424  0.0335  0.0424  0.0000  0.0000  0.0000  0.0000  0.0000 </r>
        <r>  0.0951  0.0424  0.0335  0.0424  0.0000  0.0000  0.0000  0.0000  0.0000 </r>
       </set>
       <set comment="band 7">
        <r>  0.0000  0.0767  0.0000  0.0767  0.0000  0.0000  0.0000  0.0000  0.0000 </r>
        <r>  0.0000  0.0767  0.0000  0.0767  0.0000  0.0000  0.0000  0.0000  0.0000 </r>
       </set>
       <set comment="band 8">
        <r>  0.0138  0.0227  0.0155  0.0227  0.0000  0.0000  0.0000  0.0000  0.0000 </r>
        <r>  0.0138  0.0227  0.0155  0.0227  0.0000  0.0000  0.0000  0.0000  0.0000 </r>
       </set>
       <set comment="band 9">
        <r>  0.1025  0.0195  0.0620  0.0195  0.0000  0.0000  0.0000  0.0000  0.0000 </r>
        <r>  0.1025  0.0195  0.0620  0.0195  0.0000  0.0000  0.0000  0.0000  0.0000 </r>
       </set>
       <set comment="band 10">
        <r>  0.0000  0.0054  0.0000  0.0054  0.0000  0.0000  0.0000  0.0000  0.0000 </r>
        <r>  0.0000  0.0054  0.0000  0.0054  0.0000  0.0000  0.0000  0.0000  0.0000 </r>
       </set>
       <set comment="band 11">
        <r>  0.0326  0.0088  0.0418  0.0088  0.0000  0.0000  0.0000  0.0000  0.0000 </r>
        <r>  0.0326  0.0088  0.0418  0.0088  0.0000  0.0000  0.0000  0.0000  0.0000 </r>
       </set>
       <set comment="band 12">
        <r>  0.0270  0.0072  0.0280  0.0072  0.0000  0.0000  0.0000  0.0000  0.0000 </r>
        <r>  0.0270  0.0072  0.0280  0.0072  0.0000  0.0000  0.0000  0.0000  0.0000 </r>
       </set>
       <set comment="band 13">
        <r>  0.0000  0.0162  0.0000  0.0162  0.0000  0.0000  0.0000  0.0000  0.0000 </r>
        <r>  0.0000  0.0162  0.0000  0.0162  0.0000  0.0000  0.0000  0.0000  0.0000 </r>
       </set>
       <set comment="band 14">
        <r>  0.0042  0.0093  0.0066  0.0093  0.0000  0.0000  0.0000  0.0000  0.0000 </r>
        <r>  0.0042  0.0093  0.0066  0.0093  0.0000  0.0000  0.0000  0.0000  0.0000 </r>
       </set>
       <set comment="band 15">
        <r>  0.0000  0.0296  0.0000  0.0296  0.0000  0.0000  0.0000  0.0000  0.0000 </r>
        <r>  0.0000  0.0296  0.0000  0.0296  0.0000  0.0000  0.0000  0.0000  0.0000 </r>
       </set>
       <set comment="band 16">
        <r>  0.0166  0.0248  0.0335  0.0248  0.0000  0.0000  0.0000  0.0000  0.0000 </r>
        <r>  0.0166  0.0248  0.0335  0.0248  0.0000  0.0000  0.0000  0.0000  0.0000 </r>
       </set>
      </set>
      <set comment="kpoint 26">
       <set comment="band 1">
        <r>  0.2080  0.0016  0.0091  0.0016  0.0000  0.0000  0.0000  0.0000  0.0000 </r>
        <r>  0.2080  0.0016  0.0091  0.0016  0.0000  0.0000  0.0000  0.0000  0.0000 </r>
       </set>
       <set comment="band 2">
        <r>  0.1187  0.0314  0.0406  0.0314  0.0000  0.0000  0.0000  0.0000  0.0000 </r>
        <r>  0.1187  0.0314  0.0406  0.0314  0.0000  0.0000  0.0000  0.0000  0.0000 </r>
       </set>
       <set comment="band 3">
        <r>  0.0349  0.0386  0.0931  0.0387  0.0000  0.0000  0.0000  0.0000  0.0000 </r>
        <r>  0.0349  0.0386  0.0931  0.0387  0.0000  0.0000  0.0000  0.0000  0.0000 </r>
       </set>
       <set comment="band 4">
        <r>  0.0000  0.1006  0.0000  0.1006  0.0000  0.0000  0.0000  0.0000  0.0000 </r>
        <r>  0.0000  0.1006  0.0000  0.1006  0.0000  0.0000  0.0000  0.0000  0.0000 </r>
       </set>
       <set comment="band 5">
        <r>  0.0518  0.0102  0.0686  0.0102  0.0000  0.0000  0.0000  0.0000  0.0000 </r>
        <r>  0.0518  0.0102  0.0686  0.0102  0.0000  0.0000  0.0000  0.0000  0.0000 </r>
       </set>
       <set comment="band 6">
        <r>  0.0749  0.0437  0.0319  0.0437  0.0000  0.0000  0.0000  0.0000  0.0000 </r>
        <r>  0.0749  0.0437  0.0319  0.0437  0.0000  0.0000  0.0000  0.0000  0.0000 </r>
       </set>
       <set comment="band 7">
        <r>  0.0000  0.0675  0.0000  0.0675  0.0000  0.0000  0.0000  0.0000  0.0000 </r>
        <r>  0.0000  0.0675  0.0000  0.0675  0.0000  0.0000  0.0000  0.0000  0.0000 </r>
       </set>
       <set comment="band 8">
        <r>  0.0187  0.0214  0.0147  0.0214  0.0000  0.0000  0.0000  0.0000  0.0000 </r>
        <r>  0.0187  0.0214  0.0147  0.0214  0.0000  0.0000  0.0000  0.0000  0.0000 </r>
       </set>
       <set comment="band 9">
        <r>  0.0000  0.0127  0.0000  0.0127  0.0000  0.0000  0.0000  0.0000  0.0000 </r>
        <r>  0.0000  0.0127  0.0000  0.0127  0.0000  0.0000  0.0000  0.0000  0.0000 </r>
       </set>
       <set comment="band 10">
        <r>  0.0745  0.0277  0.0749  0.0277  0.0000  0.0000  0.0000  0.0000  0.0000 </r>
        <r>  0.0745  0.0277  0.0749  0.0277  0.0000  0.0000  0.0000  0.0000  0.0000 </r>
       </set>
       <set comment="band 11">
        <r>  0.0327  0.0043  0.0324  0.0043  0.0000  0.0000  0.0000  0.0000  0.0000 </r>
        <r>  0.0327  0.0043  0.0324  0.0043  0.0000  0.0000  0.0000  0.0000  0.0000 </r>
       </set>
       <set comment="band 12">
        <r>  0.0207  0.0217  0.0589  0.0217  0.0000  0.0000  0.0000  0.0000  0.0000 </r>
        <r>  0.0207  0.0217  0.0589  0.0217  0.0000  0.0000  0.0000  0.0000  0.0000 </r>
       </set>
       <set comment="band 13">
        <r>  0.0000  0.0236  0.0000  0.0236  0.0000  0.0000  0.0000  0.0000  0.0000 </r>
        <r>  0.0000  0.0236  0.0000  0.0236  0.0000  0.0000  0.0000  0.0000  0.0000 </r>
       </set>
       <set comment="band 14">
        <r>  0.0214  0.0104  0.0089  0.0104  0.0000  0.0000  0.0000  0.0000  0.0000 </r>
        <r>  0.0214  0.0104  0.0089  0.0104  0.0000  0.0000  0.0000  0.0000  0.0000 </r>
       </set>
       <set comment="band 15">
        <r>  0.0000  0.0221  0.0000  0.0221  0.0000  0.0000  0.0000  0.0000  0.0000 </r>
        <r>  0.0000  0.0221  0.0000  0.0221  0.0000  0.0000  0.0000  0.0000  0.0000 </r>
       </set>
       <set comment="band 16">
        <r>  0.0167  0.0122  0.0288  0.0122  0.0000  0.0000  0.0000  0.0000  0.0000 </r>
        <r>  0.0167  0.0122  0.0288  0.0122  0.0000  0.0000  0.0000  0.0000  0.0000 </r>
       </set>
      </set>
      <set comment="kpoint 27">
       <set comment="band 1">
        <r>  0.2093  0.0025  0.0107  0.0025  0.0000  0.0000  0.0000  0.0000  0.0000 </r>
        <r>  0.2093  0.0025  0.0107  0.0025  0.0000  0.0000  0.0000  0.0000  0.0000 </r>
       </set>
       <set comment="band 2">
        <r>  0.1207  0.0307  0.0324  0.0307  0.0000  0.0000  0.0000  0.0000  0.0000 </r>
        <r>  0.1207  0.0307  0.0324  0.0307  0.0000  0.0000  0.0000  0.0000  0.0000 </r>
       </set>
       <set comment="band 3">
        <r>  0.0384  0.0339  0.0979  0.0339  0.0000  0.0000  0.0000  0.0000  0.0000 </r>
        <r>  0.0384  0.0339  0.0979  0.0339  0.0000  0.0000  0.0000  0.0000  0.0000 </r>
       </set>
       <set comment="band 4">
        <r>  0.0000  0.1016  0.0000  0.1016  0.0000  0.0000  0.0000  0.0000  0.0000 </r>
        <r>  0.0000  0.1016  0.0000  0.1016  0.0000  0.0000  0.0000  0.0000  0.0000 </r>
       </set>
       <set comment="band 5">
        <r>  0.0691  0.0064  0.0612  0.0064  0.0000  0.0000  0.0000  0.0000  0.0000 </r>
        <r>  0.0691  0.0064  0.0612  0.0064  0.0000  0.0000  0.0000  0.0000  0.0000 </r>
       </set>
       <set comment="band 6">
        <r>  0.0583  0.0374  0.0304  0.0374  0.0000  0.0000  0.0000  0.0000  0.0000 </r>
        <r>  0.0583  0.0374  0.0304  0.0374  0.0000  0.0000  0.0000  0.0000  0.0000 </r>
       </set>
       <set comment="band 7">
        <r>  0.0000  0.0590  0.0000  0.0590  0.0000  0.0000  0.0000  0.0000  0.0000 </r>
        <r>  0.0000  0.0590  0.0000  0.0590  0.0000  0.0000  0.0000  0.0000  0.0000 </r>
       </set>
       <set comment="band 8">
        <r>  0.0211  0.0301  0.0192  0.0301  0.0000  0.0000  0.0000  0.0000  0.0000 </r>
        <r>  0.0211  0.0301  0.0192  0.0301  0.0000  0.0000  0.0000  0.0000  0.0000 </r>
       </set>
       <set comment="band 9">
        <r>  0.0036  0.0170  0.0259  0.0170  0.0000  0.0000  0.0000  0.0000  0.0000 </r>
        <r>  0.0036  0.0170  0.0259  0.0170  0.0000  0.0000  0.0000  0.0000  0.0000 </r>
       </set>
       <set comment="band 10">
        <r>  0.0000  0.0172  0.0000  0.0172  0.0000  0.0000  0.0000  0.0000  0.0000 </r>
        <r>  0.0000  0.0172  0.0000  0.0172  0.0000  0.0000  0.0000  0.0000  0.0000 </r>
       </set>
       <set comment="band 11">
        <r>  0.0792  0.0147  0.0943  0.0147  0.0000  0.0000  0.0000  0.0000  0.0000 </r>
        <r>  0.0792  0.0147  0.0943  0.0147  0.0000  0.0000  0.0000  0.0000  0.0000 </r>
       </set>
       <set comment="band 12">
        <r>  0.0000  0.0336  0.0000  0.0336  0.0000  0.0000  0.0000  0.0000  0.0000 </r>
        <r>  0.0000  0.0336  0.0000  0.0336  0.0000  0.0000  0.0000  0.0000  0.0000 </r>
       </set>
       <set comment="band 13">
        <r>  0.0164  0.0397  0.0765  0.0397  0.0000  0.0000  0.0000  0.0000  0.0000 </r>
        <r>  0.0164  0.0397  0.0765  0.0397  0.0000  0.0000  0.0000  0.0000  0.0000 </r>
       </set>
       <set comment="band 14">
        <r>  0.0342  0.0048  0.0077  0.0048  0.0000  0.0000  0.0000  0.0000  0.0000 </r>
        <r>  0.0342  0.0048  0.0077  0.0048  0.0000  0.0000  0.0000  0.0000  0.0000 </r>
       </set>
       <set comment="band 15">
        <r>  0.0000  0.0141  0.0000  0.0141  0.0000  0.0000  0.0000  0.0000  0.0000 </r>
        <r>  0.0000  0.0141  0.0000  0.0141  0.0000  0.0000  0.0000  0.0000  0.0000 </r>
       </set>
       <set comment="band 16">
        <r>  0.0228  0.0331  0.0175  0.0331  0.0000  0.0000  0.0000  0.0000  0.0000 </r>
        <r>  0.0228  0.0331  0.0175  0.0331  0.0000  0.0000  0.0000  0.0000  0.0000 </r>
       </set>
      </set>
      <set comment="kpoint 28">
       <set comment="band 1">
        <r>  0.2145  0.0033  0.0106  0.0033  0.0000  0.0000  0.0000  0.0000  0.0000 </r>
        <r>  0.2145  0.0033  0.0106  0.0033  0.0000  0.0000  0.0000  0.0000  0.0000 </r>
       </set>
       <set comment="band 2">
        <r>  0.1175  0.0297  0.0290  0.0297  0.0000  0.0000  0.0000  0.0000  0.0000 </r>
        <r>  0.1175  0.0297  0.0290  0.0297  0.0000  0.0000  0.0000  0.0000  0.0000 </r>
       </set>
       <set comment="band 3">
        <r>  0.0395  0.0321  0.0986  0.0321  0.0000  0.0000  0.0000  0.0000  0.0000 </r>
        <r>  0.0395  0.0321  0.0986  0.0321  0.0000  0.0000  0.0000  0.0000  0.0000 </r>
       </set>
       <set comment="band 4">
        <r>  0.0000  0.1027  0.0000  0.1027  0.0000  0.0000  0.0000  0.0000  0.0000 </r>
        <r>  0.0000  0.1027  0.0000  0.1027  0.0000  0.0000  0.0000  0.0000  0.0000 </r>
       </set>
       <set comment="band 5">
        <r>  0.0822  0.0036  0.0578  0.0036  0.0000  0.0000  0.0000  0.0000  0.0000 </r>
        <r>  0.0822  0.0036  0.0578  0.0036  0.0000  0.0000  0.0000  0.0000  0.0000 </r>
       </set>
       <set comment="band 6">
        <r>  0.0504  0.0316  0.0331  0.0316  0.0000  0.0000  0.0000  0.0000  0.0000 </r>
        <r>  0.0504  0.0316  0.0331  0.0316  0.0000  0.0000  0.0000  0.0000  0.0000 </r>
       </set>
       <set comment="band 7">
        <r>  0.0000  0.0538  0.0000  0.0538  0.0000  0.0000  0.0000  0.0000  0.0000 </r>
        <r>  0.0000  0.0538  0.0000  0.0538  0.0000  0.0000  0.0000  0.0000  0.0000 </r>
       </set>
       <set comment="band 8">
        <r>  0.0164  0.0376  0.0221  0.0376  0.0000  0.0000  0.0000  0.0000  0.0000 </r>
        <r>  0.0164  0.0376  0.0221  0.0376  0.0000  0.0000  0.0000  0.0000  0.0000 </r>
       </set>
       <set comment="band 9">
        <r>  0.0066  0.0120  0.0297  0.0120  0.0000  0.0000  0.0000  0.0000  0.0000 </r>
        <r>  0.0066  0.0120  0.0297  0.0120  0.0000  0.0000  0.0000  0.0000  0.0000 </r>
       </set>
       <set comment="band 10">
        <r>  0.0000  0.0035  0.0000  0.0035  0.0000  0.0000  0.0000  0.0000  0.0000 </r>
        <r>  0.0000  0.0035  0.0000  0.0035  0.0000  0.0000  0.0000  0.0000  0.0000 </r>
       </set>
       <set comment="band 11">
        <r>  0.0395  0.0134  0.1142  0.0134  0.0000  0.0000  0.0000  0.0000  0.0000 </r>
        <r>  0.0395  0.0134  0.1142  0.0134  0.0000  0.0000  0.0000  0.0000  0.0000 </r>
       </set>
       <set comment="band 12">
        <r>  0.0000  0.0522  0.0000  0.0522  0.0000  0.0000  0.0000  0.0000  0.0000 </r>
        <r>  0.0000  0.0522  0.0000  0.0522  0.0000  0.0000  0.0000  0.0000  0.0000 </r>
       </set>
       <set comment="band 13">
        <r>  0.0540  0.0356  0.0445  0.0356  0.0000  0.0000  0.0000  0.0000  0.0000 </r>
        <r>  0.0540  0.0356  0.0445  0.0356  0.0000  0.0000  0.0000  0.0000  0.0000 </r>
       </set>
       <set comment="band 14">
        <r>  0.0020  0.0551  0.0249  0.0551  0.0000  0.0000  0.0000  0.0000  0.0000 </r>
        <r>  0.0020  0.0551  0.0249  0.0551  0.0000  0.0000  0.0000  0.0000  0.0000 </r>
       </set>
       <set comment="band 15">
        <r>  0.0466  0.0028  0.0200  0.0028  0.0000  0.0000  0.0000  0.0000  0.0000 </r>
        <r>  0.0466  0.0028  0.0200  0.0028  0.0000  0.0000  0.0000  0.0000  0.0000 </r>
       </set>
       <set comment="band 16">
        <r>  0.0000  0.0122  0.0000  0.0122  0.0000  0.0000  0.0000  0.0000  0.0000 </r>
        <r>  0.0000  0.0122  0.0000  0.0122  0.0000  0.0000  0.0000  0.0000  0.0000 </r>
       </set>
      </set>
      <set comment="kpoint 29">
       <set comment="band 1">
        <r>  0.2213  0.0043  0.0076  0.0043  0.0000  0.0000  0.0000  0.0000  0.0000 </r>
        <r>  0.2213  0.0043  0.0076  0.0043  0.0000  0.0000  0.0000  0.0000  0.0000 </r>
       </set>
       <set comment="band 2">
        <r>  0.1115  0.0286  0.0307  0.0286  0.0000  0.0000  0.0000  0.0000  0.0000 </r>
        <r>  0.1115  0.0286  0.0307  0.0286  0.0000  0.0000  0.0000  0.0000  0.0000 </r>
       </set>
       <set comment="band 3">
        <r>  0.0387  0.0320  0.0974  0.0320  0.0000  0.0000  0.0000  0.0000  0.0000 </r>
        <r>  0.0387  0.0320  0.0974  0.0320  0.0000  0.0000  0.0000  0.0000  0.0000 </r>
       </set>
       <set comment="band 4">
        <r>  0.0000  0.1040  0.0000  0.1040  0.0000  0.0000  0.0000  0.0000  0.0000 </r>
        <r>  0.0000  0.1040  0.0000  0.1040  0.0000  0.0000  0.0000  0.0000  0.0000 </r>
       </set>
       <set comment="band 5">
        <r>  0.0932  0.0018  0.0576  0.0018  0.0000  0.0000  0.0000  0.0000  0.0000 </r>
        <r>  0.0932  0.0018  0.0576  0.0018  0.0000  0.0000  0.0000  0.0000  0.0000 </r>
       </set>
       <set comment="band 6">
        <r>  0.0432  0.0273  0.0382  0.0273  0.0000  0.0000  0.0000  0.0000  0.0000 </r>
        <r>  0.0432  0.0273  0.0382  0.0273  0.0000  0.0000  0.0000  0.0000  0.0000 </r>
       </set>
       <set comment="band 7">
        <r>  0.0000  0.0516  0.0000  0.0516  0.0000  0.0000  0.0000  0.0000  0.0000 </r>
        <r>  0.0000  0.0516  0.0000  0.0516  0.0000  0.0000  0.0000  0.0000  0.0000 </r>
       </set>
       <set comment="band 8">
        <r>  0.0085  0.0419  0.0304  0.0419  0.0000  0.0000  0.0000  0.0000  0.0000 </r>
        <r>  0.0085  0.0419  0.0304  0.0419  0.0000  0.0000  0.0000  0.0000  0.0000 </r>
       </set>
       <set comment="band 9">
        <r>  0.0083  0.0163  0.0397  0.0163  0.0000  0.0000  0.0000  0.0000  0.0000 </r>
        <r>  0.0083  0.0163  0.0397  0.0163  0.0000  0.0000  0.0000  0.0000  0.0000 </r>
       </set>
       <set comment="band 10">
        <r>  0.0000  0.0219  0.0000  0.0219  0.0000  0.0000  0.0000  0.0000  0.0000 </r>
        <r>  0.0000  0.0219  0.0000  0.0219  0.0000  0.0000  0.0000  0.0000  0.0000 </r>
       </set>
       <set comment="band 11">
        <r>  0.0413  0.0079  0.0521  0.0079  0.0000  0.0000  0.0000  0.0000  0.0000 </r>
        <r>  0.0413  0.0079  0.0521  0.0079  0.0000  0.0000  0.0000  0.0000  0.0000 </r>
       </set>
       <set comment="band 12">
        <r>  0.0000  0.0345  0.0000  0.0345  0.0000  0.0000  0.0000  0.0000  0.0000 </r>
        <r>  0.0000  0.0345  0.0000  0.0345  0.0000  0.0000  0.0000  0.0000  0.0000 </r>
       </set>
       <set comment="band 13">
        <r>  0.0454  0.0314  0.0788  0.0314  0.0000  0.0000  0.0000  0.0000  0.0000 </r>
        <r>  0.0454  0.0314  0.0788  0.0314  0.0000  0.0000  0.0000  0.0000  0.0000 </r>
       </set>
       <set comment="band 14">
        <r>  0.0184  0.0623  0.0333  0.0623  0.0000  0.0000  0.0000  0.0000  0.0000 </r>
        <r>  0.0184  0.0623  0.0333  0.0623  0.0000  0.0000  0.0000  0.0000  0.0000 </r>
       </set>
       <set comment="band 15">
        <r>  0.0445  0.0016  0.0095  0.0016  0.0000  0.0000  0.0000  0.0000  0.0000 </r>
        <r>  0.0445  0.0016  0.0095  0.0016  0.0000  0.0000  0.0000  0.0000  0.0000 </r>
       </set>
       <set comment="band 16">
        <r>  0.0091  0.0111  0.0369  0.0111  0.0000  0.0000  0.0000  0.0000  0.0000 </r>
        <r>  0.0091  0.0111  0.0369  0.0111  0.0000  0.0000  0.0000  0.0000  0.0000 </r>
       </set>
      </set>
      <set comment="kpoint 30">
       <set comment="band 1">
        <r>  0.2173  0.0064  0.0042  0.0064  0.0000  0.0000  0.0000  0.0000  0.0000 </r>
        <r>  0.2173  0.0064  0.0042  0.0064  0.0000  0.0000  0.0000  0.0000  0.0000 </r>
       </set>
       <set comment="band 2">
        <r>  0.1150  0.0270  0.0340  0.0270  0.0000  0.0000  0.0000  0.0000  0.0000 </r>
        <r>  0.1150  0.0270  0.0340  0.0270  0.0000  0.0000  0.0000  0.0000  0.0000 </r>
       </set>
       <set comment="band 3">
        <r>  0.0364  0.0326  0.0957  0.0326  0.0000  0.0000  0.0000  0.0000  0.0000 </r>
        <r>  0.0364  0.0326  0.0957  0.0326  0.0000  0.0000  0.0000  0.0000  0.0000 </r>
       </set>
       <set comment="band 4">
        <r>  0.0000  0.1052  0.0000  0.1052  0.0000  0.0000  0.0000  0.0000  0.0000 </r>
        <r>  0.0000  0.1052  0.0000  0.1052  0.0000  0.0000  0.0000  0.0000  0.0000 </r>
       </set>
       <set comment="band 5">
        <r>  0.1027  0.0007  0.0603  0.0007  0.0000  0.0000  0.0000  0.0000  0.0000 </r>
        <r>  0.1027  0.0007  0.0603  0.0007  0.0000  0.0000  0.0000  0.0000  0.0000 </r>
       </set>
       <set comment="band 6">
        <r>  0.0346  0.0241  0.0452  0.0241  0.0000  0.0000  0.0000  0.0000  0.0000 </r>
        <r>  0.0346  0.0241  0.0452  0.0241  0.0000  0.0000  0.0000  0.0000  0.0000 </r>
       </set>
       <set comment="band 7">
        <r>  0.0000  0.0524  0.0000  0.0524  0.0000  0.0000  0.0000  0.0000  0.0000 </r>
        <r>  0.0000  0.0524  0.0000  0.0524  0.0000  0.0000  0.0000  0.0000  0.0000 </r>
       </set>
       <set comment="band 8">
        <r>  0.0093  0.0262  0.0833  0.0262  0.0000  0.0000  0.0000  0.0000  0.0000 </r>
        <r>  0.0093  0.0262  0.0833  0.0262  0.0000  0.0000  0.0000  0.0000  0.0000 </r>
       </set>
       <set comment="band 9">
        <r>  0.0000  0.0232  0.0000  0.0232  0.0000  0.0000  0.0000  0.0000  0.0000 </r>
        <r>  0.0000  0.0232  0.0000  0.0232  0.0000  0.0000  0.0000  0.0000  0.0000 </r>
       </set>
       <set comment="band 10">
        <r>  0.0162  0.0372  0.0048  0.0372  0.0000  0.0000  0.0000  0.0000  0.0000 </r>
        <r>  0.0162  0.0372  0.0048  0.0372  0.0000  0.0000  0.0000  0.0000  0.0000 </r>
       </set>
       <set comment="band 11">
        <r>  0.0453  0.0067  0.0190  0.0067  0.0000  0.0000  0.0000  0.0000  0.0000 </r>
        <r>  0.0453  0.0067  0.0190  0.0067  0.0000  0.0000  0.0000  0.0000  0.0000 </r>
       </set>
       <set comment="band 12">
        <r>  0.0236  0.0458  0.0050  0.0458  0.0000  0.0000  0.0000  0.0000  0.0000 </r>
        <r>  0.0236  0.0458  0.0050  0.0458  0.0000  0.0000  0.0000  0.0000  0.0000 </r>
       </set>
       <set comment="band 13">
        <r>  0.0000  0.0299  0.0000  0.0299  0.0000  0.0000  0.0000  0.0000  0.0000 </r>
        <r>  0.0000  0.0299  0.0000  0.0299  0.0000  0.0000  0.0000  0.0000  0.0000 </r>
       </set>
       <set comment="band 14">
        <r>  0.0245  0.0476  0.1200  0.0476  0.0000  0.0000  0.0000  0.0000  0.0000 </r>
        <r>  0.0245  0.0476  0.1200  0.0476  0.0000  0.0000  0.0000  0.0000  0.0000 </r>
       </set>
       <set comment="band 15">
        <r>  0.0380  0.0034  0.0083  0.0034  0.0000  0.0000  0.0000  0.0000  0.0000 </r>
        <r>  0.0380  0.0034  0.0083  0.0034  0.0000  0.0000  0.0000  0.0000  0.0000 </r>
       </set>
       <set comment="band 16">
        <r>  0.0059  0.0104  0.0115  0.0104  0.0000  0.0000  0.0000  0.0000  0.0000 </r>
        <r>  0.0059  0.0104  0.0115  0.0104  0.0000  0.0000  0.0000  0.0000  0.0000 </r>
       </set>
      </set>
      <set comment="kpoint 31">
       <set comment="band 1">
        <r>  0.2109  0.0069  0.0024  0.0069  0.0000  0.0000  0.0000  0.0000  0.0000 </r>
        <r>  0.2109  0.0069  0.0024  0.0069  0.0000  0.0000  0.0000  0.0000  0.0000 </r>
       </set>
       <set comment="band 2">
        <r>  0.1200  0.0277  0.0362  0.0277  0.0000  0.0000  0.0000  0.0000  0.0000 </r>
        <r>  0.1200  0.0277  0.0362  0.0277  0.0000  0.0000  0.0000  0.0000  0.0000 </r>
       </set>
       <set comment="band 3">
        <r>  0.0324  0.0335  0.0947  0.0335  0.0000  0.0000  0.0000  0.0000  0.0000 </r>
        <r>  0.0324  0.0335  0.0947  0.0335  0.0000  0.0000  0.0000  0.0000  0.0000 </r>
       </set>
       <set comment="band 4">
        <r>  0.0000  0.1065  0.0000  0.1065  0.0000  0.0000  0.0000  0.0000  0.0000 </r>
        <r>  0.0000  0.1065  0.0000  0.1065  0.0000  0.0000  0.0000  0.0000  0.0000 </r>
       </set>
       <set comment="band 5">
        <r>  0.1093  0.0002  0.0659  0.0002  0.0000  0.0000  0.0000  0.0000  0.0000 </r>
        <r>  0.1093  0.0002  0.0659  0.0002  0.0000  0.0000  0.0000  0.0000  0.0000 </r>
       </set>
       <set comment="band 6">
        <r>  0.0258  0.0211  0.0556  0.0211  0.0000  0.0000  0.0000  0.0000  0.0000 </r>
        <r>  0.0258  0.0211  0.0556  0.0211  0.0000  0.0000  0.0000  0.0000  0.0000 </r>
       </set>
       <set comment="band 7">
        <r>  0.0000  0.0569  0.0000  0.0569  0.0000  0.0000  0.0000  0.0000  0.0000 </r>
        <r>  0.0000  0.0569  0.0000  0.0569  0.0000  0.0000  0.0000  0.0000  0.0000 </r>
       </set>
       <set comment="band 8">
        <r>  0.0334  0.0278  0.0704  0.0278  0.0000  0.0000  0.0000  0.0000  0.0000 </r>
        <r>  0.0334  0.0278  0.0704  0.0278  0.0000  0.0000  0.0000  0.0000  0.0000 </r>
       </set>
       <set comment="band 9">
        <r>  0.0000  0.0188  0.0000  0.0188  0.0000  0.0000  0.0000  0.0000  0.0000 </r>
        <r>  0.0000  0.0188  0.0000  0.0188  0.0000  0.0000  0.0000  0.0000  0.0000 </r>
       </set>
       <set comment="band 10">
        <r>  0.0188  0.0269  0.0114  0.0269  0.0000  0.0000  0.0000  0.0000  0.0000 </r>
        <r>  0.0188  0.0269  0.0114  0.0269  0.0000  0.0000  0.0000  0.0000  0.0000 </r>
       </set>
       <set comment="band 11">
        <r>  0.0288  0.0218  0.0127  0.0218  0.0000  0.0000  0.0000  0.0000  0.0000 </r>
        <r>  0.0288  0.0218  0.0127  0.0218  0.0000  0.0000  0.0000  0.0000  0.0000 </r>
       </set>
       <set comment="band 12">
        <r>  0.0347  0.0467  0.0153  0.0467  0.0000  0.0000  0.0000  0.0000  0.0000 </r>
        <r>  0.0347  0.0467  0.0153  0.0467  0.0000  0.0000  0.0000  0.0000  0.0000 </r>
       </set>
       <set comment="band 13">
        <r>  0.0078  0.0344  0.0688  0.0344  0.0000  0.0000  0.0000  0.0000  0.0000 </r>
        <r>  0.0078  0.0344  0.0688  0.0344  0.0000  0.0000  0.0000  0.0000  0.0000 </r>
       </set>
       <set comment="band 14">
        <r>  0.0000  0.0264  0.0000  0.0264  0.0000  0.0000  0.0000  0.0000  0.0000 </r>
        <r>  0.0000  0.0264  0.0000  0.0264  0.0000  0.0000  0.0000  0.0000  0.0000 </r>
       </set>
       <set comment="band 15">
        <r>  0.0373  0.0113  0.0325  0.0114  0.0000  0.0000  0.0000  0.0000  0.0000 </r>
        <r>  0.0373  0.0114  0.0325  0.0113  0.0000  0.0000  0.0000  0.0000  0.0000 </r>
       </set>
       <set comment="band 16">
        <r>  0.0115  0.0064  0.0286  0.0064  0.0000  0.0000  0.0000  0.0000  0.0000 </r>
        <r>  0.0115  0.0064  0.0286  0.0064  0.0000  0.0000  0.0000  0.0000  0.0000 </r>
       </set>
      </set>
      <set comment="kpoint 32">
       <set comment="band 1">
        <r>  0.2085  0.0060  0.0012  0.0060  0.0000  0.0000  0.0000  0.0000  0.0000 </r>
        <r>  0.2085  0.0060  0.0012  0.0060  0.0000  0.0000  0.0000  0.0000  0.0000 </r>
       </set>
       <set comment="band 2">
        <r>  0.1200  0.0312  0.0374  0.0312  0.0000  0.0000  0.0000  0.0000  0.0000 </r>
        <r>  0.1200  0.0312  0.0374  0.0312  0.0000  0.0000  0.0000  0.0000  0.0000 </r>
       </set>
       <set comment="band 3">
        <r>  0.0262  0.0340  0.0960  0.0340  0.0000  0.0000  0.0000  0.0000  0.0000 </r>
        <r>  0.0262  0.0340  0.0960  0.0340  0.0000  0.0000  0.0000  0.0000  0.0000 </r>
       </set>
       <set comment="band 4">
        <r>  0.0000  0.1076  0.0000  0.1076  0.0000  0.0000  0.0000  0.0000  0.0000 </r>
        <r>  0.0000  0.1076  0.0000  0.1076  0.0000  0.0000  0.0000  0.0000  0.0000 </r>
       </set>
       <set comment="band 5">
        <r>  0.1110  0.0004  0.0742  0.0004  0.0000  0.0000  0.0000  0.0000  0.0000 </r>
        <r>  0.1110  0.0004  0.0742  0.0004  0.0000  0.0000  0.0000  0.0000  0.0000 </r>
       </set>
       <set comment="band 6">
        <r>  0.0000  0.0653  0.0000  0.0653  0.0000  0.0000  0.0000  0.0000  0.0000 </r>
        <r>  0.0000  0.0653  0.0000  0.0653  0.0000  0.0000  0.0000  0.0000  0.0000 </r>
       </set>
       <set comment="band 7">
        <r>  0.0196  0.0172  0.0737  0.0172  0.0000  0.0000  0.0000  0.0000  0.0000 </r>
        <r>  0.0196  0.0172  0.0737  0.0172  0.0000  0.0000  0.0000  0.0000  0.0000 </r>
       </set>
       <set comment="band 8">
        <r>  0.0526  0.0339  0.0441  0.0339  0.0000  0.0000  0.0000  0.0000  0.0000 </r>
        <r>  0.0526  0.0339  0.0441  0.0339  0.0000  0.0000  0.0000  0.0000  0.0000 </r>
       </set>
       <set comment="band 9">
        <r>  0.0000  0.0101  0.0000  0.0101  0.0000  0.0000  0.0000  0.0000  0.0000 </r>
        <r>  0.0000  0.0101  0.0000  0.0101  0.0000  0.0000  0.0000  0.0000  0.0000 </r>
       </set>
       <set comment="band 10">
        <r>  0.0292  0.0218  0.0140  0.0218  0.0000  0.0000  0.0000  0.0000  0.0000 </r>
        <r>  0.0292  0.0218  0.0140  0.0218  0.0000  0.0000  0.0000  0.0000  0.0000 </r>
       </set>
       <set comment="band 11">
        <r>  0.0396  0.0390  0.0218  0.0390  0.0000  0.0000  0.0000  0.0000  0.0000 </r>
        <r>  0.0396  0.0390  0.0218  0.0390  0.0000  0.0000  0.0000  0.0000  0.0000 </r>
       </set>
       <set comment="band 12">
        <r>  0.0124  0.0356  0.0186  0.0356  0.0000  0.0000  0.0000  0.0000  0.0000 </r>
        <r>  0.0124  0.0356  0.0186  0.0356  0.0000  0.0000  0.0000  0.0000  0.0000 </r>
       </set>
       <set comment="band 13">
        <r>  0.0316  0.0039  0.0154  0.0039  0.0000  0.0000  0.0000  0.0000  0.0000 </r>
        <r>  0.0316  0.0039  0.0154  0.0039  0.0000  0.0000  0.0000  0.0000  0.0000 </r>
       </set>
       <set comment="band 14">
        <r>  0.0037  0.0248  0.0071  0.0248  0.0000  0.0000  0.0000  0.0000  0.0000 </r>
        <r>  0.0037  0.0248  0.0071  0.0248  0.0000  0.0000  0.0000  0.0000  0.0000 </r>
       </set>
       <set comment="band 15">
        <r>  0.0000  0.0201  0.0000  0.0201  0.0000  0.0000  0.0000  0.0000  0.0000 </r>
        <r>  0.0000  0.0201  0.0000  0.0201  0.0000  0.0000  0.0000  0.0000  0.0000 </r>
       </set>
       <set comment="band 16">
        <r>  0.0165  0.0123  0.0915  0.0123  0.0000  0.0000  0.0000  0.0000  0.0000 </r>
        <r>  0.0165  0.0123  0.0915  0.0123  0.0000  0.0000  0.0000  0.0000  0.0000 </r>
       </set>
      </set>
      <set comment="kpoint 33">
       <set comment="band 1">
        <r>  0.2086  0.0046  0.0005  0.0046  0.0000  0.0000  0.0000  0.0000  0.0000 </r>
        <r>  0.2086  0.0046  0.0005  0.0046  0.0000  0.0000  0.0000  0.0000  0.0000 </r>
       </set>
       <set comment="band 2">
        <r>  0.1173  0.0375  0.0356  0.0375  0.0000  0.0000  0.0000  0.0000  0.0000 </r>
        <r>  0.1173  0.0375  0.0356  0.0375  0.0000  0.0000  0.0000  0.0000  0.0000 </r>
       </set>
       <set comment="band 3">
        <r>  0.0169  0.0331  0.1030  0.0331  0.0000  0.0000  0.0000  0.0000  0.0000 </r>
        <r>  0.0169  0.0331  0.1030  0.0331  0.0000  0.0000  0.0000  0.0000  0.0000 </r>
       </set>
       <set comment="band 4">
        <r>  0.0000  0.1087  0.0000  0.1087  0.0000  0.0000  0.0000  0.0000  0.0000 </r>
        <r>  0.0000  0.1087  0.0000  0.1087  0.0000  0.0000  0.0000  0.0000  0.0000 </r>
       </set>
       <set comment="band 5">
        <r>  0.1078  0.0009  0.0854  0.0009  0.0000  0.0000  0.0000  0.0000  0.0000 </r>
        <r>  0.1078  0.0009  0.0854  0.0009  0.0000  0.0000  0.0000  0.0000  0.0000 </r>
       </set>
       <set comment="band 6">
        <r>  0.0000  0.0729  0.0000  0.0729  0.0000  0.0000  0.0000  0.0000  0.0000 </r>
        <r>  0.0000  0.0729  0.0000  0.0729  0.0000  0.0000  0.0000  0.0000  0.0000 </r>
       </set>
       <set comment="band 7">
        <r>  0.0221  0.0130  0.0961  0.0130  0.0000  0.0000  0.0000  0.0000  0.0000 </r>
        <r>  0.0221  0.0130  0.0961  0.0130  0.0000  0.0000  0.0000  0.0000  0.0000 </r>
       </set>
       <set comment="band 8">
        <r>  0.0682  0.0450  0.0105  0.0450  0.0000  0.0000  0.0000  0.0000  0.0000 </r>
        <r>  0.0682  0.0450  0.0105  0.0450  0.0000  0.0000  0.0000  0.0000  0.0000 </r>
       </set>
       <set comment="band 9">
        <r>  0.0000  0.0022  0.0000  0.0022  0.0000  0.0000  0.0000  0.0000  0.0000 </r>
        <r>  0.0000  0.0022  0.0000  0.0022  0.0000  0.0000  0.0000  0.0000  0.0000 </r>
       </set>
       <set comment="band 10">
        <r>  0.0579  0.0294  0.0208  0.0294  0.0000  0.0000  0.0000  0.0000  0.0000 </r>
        <r>  0.0579  0.0294  0.0208  0.0294  0.0000  0.0000  0.0000  0.0000  0.0000 </r>
       </set>
       <set comment="band 11">
        <r>  0.0232  0.0251  0.0210  0.0251  0.0000  0.0000  0.0000  0.0000  0.0000 </r>
        <r>  0.0232  0.0251  0.0210  0.0251  0.0000  0.0000  0.0000  0.0000  0.0000 </r>
       </set>
       <set comment="band 12">
        <r>  0.0226  0.0154  0.0070  0.0154  0.0000  0.0000  0.0000  0.0000  0.0000 </r>
        <r>  0.0226  0.0154  0.0070  0.0154  0.0000  0.0000  0.0000  0.0000  0.0000 </r>
       </set>
       <set comment="band 13">
        <r>  0.0105  0.0045  0.0179  0.0045  0.0000  0.0000  0.0000  0.0000  0.0000 </r>
        <r>  0.0105  0.0045  0.0179  0.0045  0.0000  0.0000  0.0000  0.0000  0.0000 </r>
       </set>
       <set comment="band 14">
        <r>  0.0136  0.0296  0.0007  0.0296  0.0000  0.0000  0.0000  0.0000  0.0000 </r>
        <r>  0.0136  0.0296  0.0007  0.0296  0.0000  0.0000  0.0000  0.0000  0.0000 </r>
       </set>
       <set comment="band 15">
        <r>  0.0000  0.0159  0.0000  0.0159  0.0000  0.0000  0.0000  0.0000  0.0000 </r>
        <r>  0.0000  0.0159  0.0000  0.0159  0.0000  0.0000  0.0000  0.0000  0.0000 </r>
       </set>
       <set comment="band 16">
        <r>  0.0036  0.0184  0.0735  0.0185  0.0000  0.0000  0.0000  0.0000  0.0000 </r>
        <r>  0.0036  0.0185  0.0735  0.0184  0.0000  0.0000  0.0000  0.0000  0.0000 </r>
       </set>
      </set>
      <set comment="kpoint 34">
       <set comment="band 1">
        <r>  0.2094  0.0031  0.0001  0.0031  0.0000  0.0000  0.0000  0.0000  0.0000 </r>
        <r>  0.2094  0.0031  0.0001  0.0031  0.0000  0.0000  0.0000  0.0000  0.0000 </r>
       </set>
       <set comment="band 2">
        <r>  0.1085  0.0471  0.0298  0.0471  0.0000  0.0000  0.0000  0.0000  0.0000 </r>
        <r>  0.1085  0.0471  0.0298  0.0471  0.0000  0.0000  0.0000  0.0000  0.0000 </r>
       </set>
       <set comment="band 3">
        <r>  0.0079  0.0294  0.1190  0.0294  0.0000  0.0000  0.0000  0.0000  0.0000 </r>
        <r>  0.0079  0.0294  0.1190  0.0294  0.0000  0.0000  0.0000  0.0000  0.0000 </r>
       </set>
       <set comment="band 4">
        <r>  0.0000  0.1092  0.0000  0.1092  0.0000  0.0000  0.0000  0.0000  0.0000 </r>
        <r>  0.0000  0.1092  0.0000  0.1092  0.0000  0.0000  0.0000  0.0000  0.0000 </r>
       </set>
       <set comment="band 5">
        <r>  0.1076  0.0000  0.0984  0.0000  0.0000  0.0000  0.0000  0.0000  0.0000 </r>
        <r>  0.1076  0.0000  0.0984  0.0000  0.0000  0.0000  0.0000  0.0000  0.0000 </r>
       </set>
       <set comment="band 6">
        <r>  0.0000  0.0749  0.0000  0.0749  0.0000  0.0000  0.0000  0.0000  0.0000 </r>
        <r>  0.0000  0.0749  0.0000  0.0749  0.0000  0.0000  0.0000  0.0000  0.0000 </r>
       </set>
       <set comment="band 7">
        <r>  0.0261  0.0187  0.0905  0.0187  0.0000  0.0000  0.0000  0.0000  0.0000 </r>
        <r>  0.0261  0.0187  0.0905  0.0187  0.0000  0.0000  0.0000  0.0000  0.0000 </r>
       </set>
       <set comment="band 8">
        <r>  0.0914  0.0542  0.0029  0.0542  0.0000  0.0000  0.0000  0.0000  0.0000 </r>
        <r>  0.0914  0.0542  0.0029  0.0542  0.0000  0.0000  0.0000  0.0000  0.0000 </r>
       </set>
       <set comment="band 9">
        <r>  0.0000  0.0000  0.0000  0.0000  0.0000  0.0000  0.0000  0.0000  0.0000 </r>
        <r>  0.0000  0.0000  0.0000  0.0000  0.0000  0.0000  0.0000  0.0000  0.0000 </r>
       </set>
       <set comment="band 10">
        <r>  0.0442  0.0132  0.0173  0.0132  0.0000  0.0000  0.0000  0.0000  0.0000 </r>
        <r>  0.0442  0.0132  0.0173  0.0132  0.0000  0.0000  0.0000  0.0000  0.0000 </r>
       </set>
       <set comment="band 11">
        <r>  0.0478  0.0295  0.0148  0.0295  0.0000  0.0000  0.0000  0.0000  0.0000 </r>
        <r>  0.0478  0.0295  0.0148  0.0295  0.0000  0.0000  0.0000  0.0000  0.0000 </r>
       </set>
       <set comment="band 12">
        <r>  0.0178  0.0032  0.0011  0.0032  0.0000  0.0000  0.0000  0.0000  0.0000 </r>
        <r>  0.0178  0.0032  0.0011  0.0032  0.0000  0.0000  0.0000  0.0000  0.0000 </r>
       </set>
       <set comment="band 13">
        <r>  0.0052  0.0041  0.0243  0.0041  0.0000  0.0000  0.0000  0.0000  0.0000 </r>
        <r>  0.0052  0.0041  0.0243  0.0041  0.0000  0.0000  0.0000  0.0000  0.0000 </r>
       </set>
       <set comment="band 14">
        <r>  0.0000  0.0162  0.0000  0.0162  0.0000  0.0000  0.0000  0.0000  0.0000 </r>
        <r>  0.0000  0.0162  0.0000  0.0162  0.0000  0.0000  0.0000  0.0000  0.0000 </r>
       </set>
       <set comment="band 15">
        <r>  0.0100  0.0301  0.0028  0.0301  0.0000  0.0000  0.0000  0.0000  0.0000 </r>
        <r>  0.0100  0.0301  0.0028  0.0301  0.0000  0.0000  0.0000  0.0000  0.0000 </r>
       </set>
       <set comment="band 16">
        <r>  0.0094  0.0170  0.0153  0.0170  0.0000  0.0000  0.0000  0.0000  0.0000 </r>
        <r>  0.0094  0.0170  0.0153  0.0170  0.0000  0.0000  0.0000  0.0000  0.0000 </r>
       </set>
      </set>
      <set comment="kpoint 35">
       <set comment="band 1">
        <r>  0.2086  0.0000  0.0074  0.0000  0.0000  0.0000  0.0000  0.0000  0.0000 </r>
        <r>  0.2086  0.0000  0.0074  0.0000  0.0000  0.0000  0.0000  0.0000  0.0000 </r>
       </set>
       <set comment="band 2">
        <r>  0.1399  0.0000  0.1122  0.0000  0.0000  0.0000  0.0000  0.0000  0.0000 </r>
        <r>  0.1399  0.0000  0.1122  0.0000  0.0000  0.0000  0.0000  0.0000  0.0000 </r>
       </set>
       <set comment="band 3">
        <r>  0.0000  0.0987  0.0000  0.0989  0.0000  0.0000  0.0000  0.0000  0.0000 </r>
        <r>  0.0000  0.0988  0.0000  0.0987  0.0000  0.0000  0.0000  0.0000  0.0000 </r>
       </set>
       <set comment="band 4">
        <r>  0.0000  0.0989  0.0000  0.0987  0.0000  0.0000  0.0000  0.0000  0.0000 </r>
        <r>  0.0000  0.0987  0.0000  0.0988  0.0000  0.0000  0.0000  0.0000  0.0000 </r>
       </set>
       <set comment="band 5">
        <r>  0.0348  0.0000  0.0918  0.0000  0.0000  0.0000  0.0000  0.0000  0.0000 </r>
        <r>  0.0348  0.0000  0.0918  0.0000  0.0000  0.0000  0.0000  0.0000  0.0000 </r>
       </set>
       <set comment="band 6">
        <r>  0.0782  0.0000  0.0547  0.0000  0.0000  0.0000  0.0000  0.0000  0.0000 </r>
        <r>  0.0782  0.0000  0.0547  0.0000  0.0000  0.0000  0.0000  0.0000  0.0000 </r>
       </set>
       <set comment="band 7">
        <r>  0.0000  0.0832  0.0000  0.0832  0.0000  0.0000  0.0000  0.0000  0.0000 </r>
        <r>  0.0000  0.0832  0.0000  0.0832  0.0000  0.0000  0.0000  0.0000  0.0000 </r>
       </set>
       <set comment="band 8">
        <r>  0.0000  0.0832  0.0000  0.0832  0.0000  0.0000  0.0000  0.0000  0.0000 </r>
        <r>  0.0000  0.0832  0.0000  0.0832  0.0000  0.0000  0.0000  0.0000  0.0000 </r>
       </set>
       <set comment="band 9">
        <r>  0.1394  0.0000  0.0615  0.0000  0.0000  0.0000  0.0000  0.0000  0.0000 </r>
        <r>  0.1394  0.0000  0.0615  0.0000  0.0000  0.0000  0.0000  0.0000  0.0000 </r>
       </set>
       <set comment="band 10">
        <r>  0.0000  0.0000  0.0000  0.0000  0.0000  0.0000  0.0000  0.0000  0.0000 </r>
        <r>  0.0000  0.0000  0.0000  0.0000  0.0000  0.0000  0.0000  0.0000  0.0000 </r>
       </set>
       <set comment="band 11">
        <r>  0.0507  0.0000  0.0753  0.0000  0.0000  0.0000  0.0000  0.0000  0.0000 </r>
        <r>  0.0507  0.0000  0.0753  0.0000  0.0000  0.0000  0.0000  0.0000  0.0000 </r>
       </set>
       <set comment="band 12">
        <r>  0.0000  0.0158  0.0000  0.0158  0.0000  0.0000  0.0000  0.0000  0.0000 </r>
        <r>  0.0000  0.0158  0.0000  0.0158  0.0000  0.0000  0.0000  0.0000  0.0000 </r>
       </set>
       <set comment="band 13">
        <r>  0.0000  0.0158  0.0000  0.0158  0.0000  0.0000  0.0000  0.0000  0.0000 </r>
        <r>  0.0000  0.0158  0.0000  0.0158  0.0000  0.0000  0.0000  0.0000  0.0000 </r>
       </set>
       <set comment="band 14">
        <r>  0.0143  0.0000  0.0062  0.0000  0.0000  0.0000  0.0000  0.0000  0.0000 </r>
        <r>  0.0143  0.0000  0.0062  0.0000  0.0000  0.0000  0.0000  0.0000  0.0000 </r>
       </set>
       <set comment="band 15">
        <r>  0.0000  0.0435  0.0000  0.0449  0.0000  0.0000  0.0000  0.0000  0.0000 </r>
        <r>  0.0000  0.0460  0.0000  0.0424  0.0000  0.0000  0.0000  0.0000  0.0000 </r>
       </set>
       <set comment="band 16">
        <r>  0.0000  0.0449  0.0000  0.0435  0.0000  0.0000  0.0000  0.0000  0.0000 </r>
        <r>  0.0000  0.0424  0.0000  0.0460  0.0000  0.0000  0.0000  0.0000  0.0000 </r>
       </set>
      </set>
      <set comment="kpoint 36">
       <set comment="band 1">
        <r>  0.2075  0.0002  0.0099  0.0002  0.0000  0.0000  0.0000  0.0000  0.0000 </r>
        <r>  0.2075  0.0002  0.0099  0.0002  0.0000  0.0000  0.0000  0.0000  0.0000 </r>
       </set>
       <set comment="band 2">
        <r>  0.1437  0.0095  0.0849  0.0095  0.0000  0.0000  0.0000  0.0000  0.0000 </r>
        <r>  0.1437  0.0095  0.0849  0.0095  0.0000  0.0000  0.0000  0.0000  0.0000 </r>
       </set>
       <set comment="band 3">
        <r>  0.0101  0.0812  0.0243  0.0812  0.0000  0.0000  0.0000  0.0000  0.0000 </r>
        <r>  0.0101  0.0812  0.0243  0.0812  0.0000  0.0000  0.0000  0.0000  0.0000 </r>
       </set>
       <set comment="band 4">
        <r>  0.0000  0.0986  0.0000  0.0986  0.0000  0.0000  0.0000  0.0000  0.0000 </r>
        <r>  0.0000  0.0986  0.0000  0.0986  0.0000  0.0000  0.0000  0.0000  0.0000 </r>
       </set>
       <set comment="band 5">
        <r>  0.0368  0.0058  0.0775  0.0058  0.0000  0.0000  0.0000  0.0000  0.0000 </r>
        <r>  0.0368  0.0058  0.0775  0.0058  0.0000  0.0000  0.0000  0.0000  0.0000 </r>
       </set>
       <set comment="band 6">
        <r>  0.0607  0.0023  0.0434  0.0023  0.0000  0.0000  0.0000  0.0000  0.0000 </r>
        <r>  0.0607  0.0023  0.0434  0.0023  0.0000  0.0000  0.0000  0.0000  0.0000 </r>
       </set>
       <set comment="band 7">
        <r>  0.0156  0.0714  0.0048  0.0714  0.0000  0.0000  0.0000  0.0000  0.0000 </r>
        <r>  0.0156  0.0714  0.0048  0.0714  0.0000  0.0000  0.0000  0.0000  0.0000 </r>
       </set>
       <set comment="band 8">
        <r>  0.0000  0.0810  0.0000  0.0810  0.0000  0.0000  0.0000  0.0000  0.0000 </r>
        <r>  0.0000  0.0810  0.0000  0.0810  0.0000  0.0000  0.0000  0.0000  0.0000 </r>
       </set>
       <set comment="band 9">
        <r>  0.1287  0.0101  0.0805  0.0101  0.0000  0.0000  0.0000  0.0000  0.0000 </r>
        <r>  0.1287  0.0101  0.0805  0.0101  0.0000  0.0000  0.0000  0.0000  0.0000 </r>
       </set>
       <set comment="band 10">
        <r>  0.0000  0.0021  0.0000  0.0021  0.0000  0.0000  0.0000  0.0000  0.0000 </r>
        <r>  0.0000  0.0021  0.0000  0.0021  0.0000  0.0000  0.0000  0.0000  0.0000 </r>
       </set>
       <set comment="band 11">
        <r>  0.0341  0.0042  0.0826  0.0042  0.0000  0.0000  0.0000  0.0000  0.0000 </r>
        <r>  0.0341  0.0042  0.0826  0.0042  0.0000  0.0000  0.0000  0.0000  0.0000 </r>
       </set>
       <set comment="band 12">
        <r>  0.0116  0.0063  0.0094  0.0063  0.0000  0.0000  0.0000  0.0000  0.0000 </r>
        <r>  0.0116  0.0063  0.0094  0.0063  0.0000  0.0000  0.0000  0.0000  0.0000 </r>
       </set>
       <set comment="band 13">
        <r>  0.0000  0.0150  0.0000  0.0150  0.0000  0.0000  0.0000  0.0000  0.0000 </r>
        <r>  0.0000  0.0150  0.0000  0.0150  0.0000  0.0000  0.0000  0.0000  0.0000 </r>
       </set>
       <set comment="band 14">
        <r>  0.0063  0.0071  0.0039  0.0071  0.0000  0.0000  0.0000  0.0000  0.0000 </r>
        <r>  0.0063  0.0071  0.0039  0.0071  0.0000  0.0000  0.0000  0.0000  0.0000 </r>
       </set>
       <set comment="band 15">
        <r>  0.0000  0.0349  0.0000  0.0349  0.0000  0.0000  0.0000  0.0000  0.0000 </r>
        <r>  0.0000  0.0349  0.0000  0.0349  0.0000  0.0000  0.0000  0.0000  0.0000 </r>
       </set>
       <set comment="band 16">
        <r>  0.0079  0.0390  0.0115  0.0390  0.0000  0.0000  0.0000  0.0000  0.0000 </r>
        <r>  0.0079  0.0390  0.0115  0.0390  0.0000  0.0000  0.0000  0.0000  0.0000 </r>
       </set>
      </set>
      <set comment="kpoint 37">
       <set comment="band 1">
        <r>  0.2066  0.0007  0.0125  0.0007  0.0000  0.0000  0.0000  0.0000  0.0000 </r>
        <r>  0.2066  0.0007  0.0125  0.0007  0.0000  0.0000  0.0000  0.0000  0.0000 </r>
       </set>
       <set comment="band 2">
        <r>  0.1432  0.0189  0.0582  0.0189  0.0000  0.0000  0.0000  0.0000  0.0000 </r>
        <r>  0.1432  0.0189  0.0582  0.0189  0.0000  0.0000  0.0000  0.0000  0.0000 </r>
       </set>
       <set comment="band 3">
        <r>  0.0229  0.0592  0.0524  0.0592  0.0000  0.0000  0.0000  0.0000  0.0000 </r>
        <r>  0.0229  0.0592  0.0524  0.0592  0.0000  0.0000  0.0000  0.0000  0.0000 </r>
       </set>
       <set comment="band 4">
        <r>  0.0000  0.0989  0.0000  0.0989  0.0000  0.0000  0.0000  0.0000  0.0000 </r>
        <r>  0.0000  0.0989  0.0000  0.0989  0.0000  0.0000  0.0000  0.0000  0.0000 </r>
       </set>
       <set comment="band 5">
        <r>  0.0385  0.0100  0.0652  0.0100  0.0000  0.0000  0.0000  0.0000  0.0000 </r>
        <r>  0.0385  0.0100  0.0652  0.0100  0.0000  0.0000  0.0000  0.0000  0.0000 </r>
       </set>
       <set comment="band 6">
        <r>  0.0507  0.0107  0.0338  0.0107  0.0000  0.0000  0.0000  0.0000  0.0000 </r>
        <r>  0.0507  0.0107  0.0338  0.0107  0.0000  0.0000  0.0000  0.0000  0.0000 </r>
       </set>
       <set comment="band 7">
        <r>  0.0384  0.0564  0.0154  0.0564  0.0000  0.0000  0.0000  0.0000  0.0000 </r>
        <r>  0.0384  0.0564  0.0154  0.0564  0.0000  0.0000  0.0000  0.0000  0.0000 </r>
       </set>
       <set comment="band 8">
        <r>  0.0000  0.0728  0.0000  0.0728  0.0000  0.0000  0.0000  0.0000  0.0000 </r>
        <r>  0.0000  0.0728  0.0000  0.0728  0.0000  0.0000  0.0000  0.0000  0.0000 </r>
       </set>
       <set comment="band 9">
        <r>  0.0985  0.0216  0.0902  0.0216  0.0000  0.0000  0.0000  0.0000  0.0000 </r>
        <r>  0.0985  0.0216  0.0902  0.0216  0.0000  0.0000  0.0000  0.0000  0.0000 </r>
       </set>
       <set comment="band 10">
        <r>  0.0000  0.0091  0.0000  0.0091  0.0000  0.0000  0.0000  0.0000  0.0000 </r>
        <r>  0.0000  0.0091  0.0000  0.0091  0.0000  0.0000  0.0000  0.0000  0.0000 </r>
       </set>
       <set comment="band 11">
        <r>  0.0166  0.0080  0.0578  0.0080  0.0000  0.0000  0.0000  0.0000  0.0000 </r>
        <r>  0.0166  0.0080  0.0578  0.0080  0.0000  0.0000  0.0000  0.0000  0.0000 </r>
       </set>
       <set comment="band 12">
        <r>  0.0167  0.0083  0.0522  0.0083  0.0000  0.0000  0.0000  0.0000  0.0000 </r>
        <r>  0.0167  0.0083  0.0522  0.0083  0.0000  0.0000  0.0000  0.0000  0.0000 </r>
       </set>
       <set comment="band 13">
        <r>  0.0000  0.0200  0.0000  0.0200  0.0000  0.0000  0.0000  0.0000  0.0000 </r>
        <r>  0.0000  0.0200  0.0000  0.0200  0.0000  0.0000  0.0000  0.0000  0.0000 </r>
       </set>
       <set comment="band 14">
        <r>  0.0143  0.0159  0.0019  0.0159  0.0000  0.0000  0.0000  0.0000  0.0000 </r>
        <r>  0.0143  0.0159  0.0019  0.0159  0.0000  0.0000  0.0000  0.0000  0.0000 </r>
       </set>
       <set comment="band 15">
        <r>  0.0000  0.0264  0.0000  0.0264  0.0000  0.0000  0.0000  0.0000  0.0000 </r>
        <r>  0.0000  0.0264  0.0000  0.0264  0.0000  0.0000  0.0000  0.0000  0.0000 </r>
       </set>
       <set comment="band 16">
        <r>  0.0162  0.0185  0.0204  0.0185  0.0000  0.0000  0.0000  0.0000  0.0000 </r>
        <r>  0.0162  0.0185  0.0204  0.0185  0.0000  0.0000  0.0000  0.0000  0.0000 </r>
       </set>
      </set>
      <set comment="kpoint 38">
       <set comment="band 1">
        <r>  0.2068  0.0015  0.0147  0.0015  0.0000  0.0000  0.0000  0.0000  0.0000 </r>
        <r>  0.2068  0.0015  0.0147  0.0015  0.0000  0.0000  0.0000  0.0000  0.0000 </r>
       </set>
       <set comment="band 2">
        <r>  0.1420  0.0234  0.0413  0.0234  0.0000  0.0000  0.0000  0.0000  0.0000 </r>
        <r>  0.1420  0.0234  0.0413  0.0234  0.0000  0.0000  0.0000  0.0000  0.0000 </r>
       </set>
       <set comment="band 3">
        <r>  0.0315  0.0458  0.0683  0.0458  0.0000  0.0000  0.0000  0.0000  0.0000 </r>
        <r>  0.0315  0.0458  0.0683  0.0458  0.0000  0.0000  0.0000  0.0000  0.0000 </r>
       </set>
       <set comment="band 4">
        <r>  0.0000  0.0995  0.0000  0.0995  0.0000  0.0000  0.0000  0.0000  0.0000 </r>
        <r>  0.0000  0.0995  0.0000  0.0995  0.0000  0.0000  0.0000  0.0000  0.0000 </r>
       </set>
       <set comment="band 5">
        <r>  0.0452  0.0064  0.0576  0.0064  0.0000  0.0000  0.0000  0.0000  0.0000 </r>
        <r>  0.0452  0.0064  0.0576  0.0064  0.0000  0.0000  0.0000  0.0000  0.0000 </r>
       </set>
       <set comment="band 6">
        <r>  0.0375  0.0238  0.0265  0.0238  0.0000  0.0000  0.0000  0.0000  0.0000 </r>
        <r>  0.0375  0.0238  0.0265  0.0238  0.0000  0.0000  0.0000  0.0000  0.0000 </r>
       </set>
       <set comment="band 7">
        <r>  0.0535  0.0459  0.0265  0.0459  0.0000  0.0000  0.0000  0.0000  0.0000 </r>
        <r>  0.0535  0.0459  0.0265  0.0459  0.0000  0.0000  0.0000  0.0000  0.0000 </r>
       </set>
       <set comment="band 8">
        <r>  0.0000  0.0634  0.0000  0.0634  0.0000  0.0000  0.0000  0.0000  0.0000 </r>
        <r>  0.0000  0.0634  0.0000  0.0634  0.0000  0.0000  0.0000  0.0000  0.0000 </r>
       </set>
       <set comment="band 9">
        <r>  0.0000  0.0150  0.0000  0.0150  0.0000  0.0000  0.0000  0.0000  0.0000 </r>
        <r>  0.0000  0.0150  0.0000  0.0150  0.0000  0.0000  0.0000  0.0000  0.0000 </r>
       </set>
       <set comment="band 10">
        <r>  0.0389  0.0346  0.0741  0.0346  0.0000  0.0000  0.0000  0.0000  0.0000 </r>
        <r>  0.0389  0.0346  0.0741  0.0346  0.0000  0.0000  0.0000  0.0000  0.0000 </r>
       </set>
       <set comment="band 11">
        <r>  0.0442  0.0002  0.0812  0.0002  0.0000  0.0000  0.0000  0.0000  0.0000 </r>
        <r>  0.0442  0.0002  0.0812  0.0002  0.0000  0.0000  0.0000  0.0000  0.0000 </r>
       </set>
       <set comment="band 12">
        <r>  0.0000  0.0320  0.0000  0.0320  0.0000  0.0000  0.0000  0.0000  0.0000 </r>
        <r>  0.0000  0.0320  0.0000  0.0320  0.0000  0.0000  0.0000  0.0000  0.0000 </r>
       </set>
       <set comment="band 13">
        <r>  0.0122  0.0320  0.0615  0.0320  0.0000  0.0000  0.0000  0.0000  0.0000 </r>
        <r>  0.0122  0.0320  0.0615  0.0320  0.0000  0.0000  0.0000  0.0000  0.0000 </r>
       </set>
       <set comment="band 14">
        <r>  0.0378  0.0010  0.0110  0.0010  0.0000  0.0000  0.0000  0.0000  0.0000 </r>
        <r>  0.0378  0.0010  0.0110  0.0010  0.0000  0.0000  0.0000  0.0000  0.0000 </r>
       </set>
       <set comment="band 15">
        <r>  0.0000  0.0149  0.0000  0.0149  0.0000  0.0000  0.0000  0.0000  0.0000 </r>
        <r>  0.0000  0.0149  0.0000  0.0149  0.0000  0.0000  0.0000  0.0000  0.0000 </r>
       </set>
       <set comment="band 16">
        <r>  0.0101  0.0082  0.0175  0.0082  0.0000  0.0000  0.0000  0.0000  0.0000 </r>
        <r>  0.0101  0.0082  0.0175  0.0082  0.0000  0.0000  0.0000  0.0000  0.0000 </r>
       </set>
      </set>
      <set comment="kpoint 39">
       <set comment="band 1">
        <r>  0.2101  0.0024  0.0156  0.0024  0.0000  0.0000  0.0000  0.0000  0.0000 </r>
        <r>  0.2101  0.0024  0.0156  0.0024  0.0000  0.0000  0.0000  0.0000  0.0000 </r>
       </set>
       <set comment="band 2">
        <r>  0.1383  0.0249  0.0324  0.0249  0.0000  0.0000  0.0000  0.0000  0.0000 </r>
        <r>  0.1383  0.0249  0.0324  0.0249  0.0000  0.0000  0.0000  0.0000  0.0000 </r>
       </set>
       <set comment="band 3">
        <r>  0.0360  0.0387  0.0757  0.0387  0.0000  0.0000  0.0000  0.0000  0.0000 </r>
        <r>  0.0360  0.0387  0.0757  0.0387  0.0000  0.0000  0.0000  0.0000  0.0000 </r>
       </set>
       <set comment="band 4">
        <r>  0.0000  0.1004  0.0000  0.1004  0.0000  0.0000  0.0000  0.0000  0.0000 </r>
        <r>  0.0000  0.1004  0.0000  0.1004  0.0000  0.0000  0.0000  0.0000  0.0000 </r>
       </set>
       <set comment="band 5">
        <r>  0.0520  0.0033  0.0534  0.0033  0.0000  0.0000  0.0000  0.0000  0.0000 </r>
        <r>  0.0520  0.0033  0.0534  0.0033  0.0000  0.0000  0.0000  0.0000  0.0000 </r>
       </set>
       <set comment="band 6">
        <r>  0.0494  0.0376  0.0272  0.0376  0.0000  0.0000  0.0000  0.0000  0.0000 </r>
        <r>  0.0494  0.0376  0.0272  0.0376  0.0000  0.0000  0.0000  0.0000  0.0000 </r>
       </set>
       <set comment="band 7">
        <r>  0.0385  0.0339  0.0314  0.0339  0.0000  0.0000  0.0000  0.0000  0.0000 </r>
        <r>  0.0385  0.0339  0.0314  0.0339  0.0000  0.0000  0.0000  0.0000  0.0000 </r>
       </set>
       <set comment="band 8">
        <r>  0.0000  0.0573  0.0000  0.0573  0.0000  0.0000  0.0000  0.0000  0.0000 </r>
        <r>  0.0000  0.0573  0.0000  0.0573  0.0000  0.0000  0.0000  0.0000  0.0000 </r>
       </set>
       <set comment="band 9">
        <r>  0.0015  0.0184  0.0630  0.0184  0.0000  0.0000  0.0000  0.0000  0.0000 </r>
        <r>  0.0015  0.0184  0.0630  0.0184  0.0000  0.0000  0.0000  0.0000  0.0000 </r>
       </set>
       <set comment="band 10">
        <r>  0.0000  0.0003  0.0000  0.0003  0.0000  0.0000  0.0000  0.0000  0.0000 </r>
        <r>  0.0000  0.0003  0.0000  0.0003  0.0000  0.0000  0.0000  0.0000  0.0000 </r>
       </set>
       <set comment="band 11">
        <r>  0.0000  0.0534  0.0000  0.0534  0.0000  0.0000  0.0000  0.0000  0.0000 </r>
        <r>  0.0000  0.0534  0.0000  0.0534  0.0000  0.0000  0.0000  0.0000  0.0000 </r>
       </set>
       <set comment="band 12">
        <r>  0.0475  0.0167  0.1174  0.0167  0.0000  0.0000  0.0000  0.0000  0.0000 </r>
        <r>  0.0475  0.0167  0.1174  0.0167  0.0000  0.0000  0.0000  0.0000  0.0000 </r>
       </set>
       <set comment="band 13">
        <r>  0.0454  0.0324  0.0253  0.0324  0.0000  0.0000  0.0000  0.0000  0.0000 </r>
        <r>  0.0454  0.0324  0.0253  0.0324  0.0000  0.0000  0.0000  0.0000  0.0000 </r>
       </set>
       <set comment="band 14">
        <r>  0.0188  0.0098  0.0337  0.0098  0.0000  0.0000  0.0000  0.0000  0.0000 </r>
        <r>  0.0188  0.0098  0.0337  0.0098  0.0000  0.0000  0.0000  0.0000  0.0000 </r>
       </set>
       <set comment="band 15">
        <r>  0.0000  0.0122  0.0000  0.0122  0.0000  0.0000  0.0000  0.0000  0.0000 </r>
        <r>  0.0000  0.0122  0.0000  0.0122  0.0000  0.0000  0.0000  0.0000  0.0000 </r>
       </set>
       <set comment="band 16">
        <r>  0.0129  0.0418  0.0279  0.0418  0.0000  0.0000  0.0000  0.0000  0.0000 </r>
        <r>  0.0129  0.0418  0.0279  0.0418  0.0000  0.0000  0.0000  0.0000  0.0000 </r>
       </set>
      </set>
      <set comment="kpoint 40">
       <set comment="band 1">
        <r>  0.2172  0.0037  0.0129  0.0037  0.0000  0.0000  0.0000  0.0000  0.0000 </r>
        <r>  0.2172  0.0037  0.0129  0.0037  0.0000  0.0000  0.0000  0.0000  0.0000 </r>
       </set>
       <set comment="band 2">
        <r>  0.1310  0.0249  0.0310  0.0249  0.0000  0.0000  0.0000  0.0000  0.0000 </r>
        <r>  0.1310  0.0249  0.0310  0.0249  0.0000  0.0000  0.0000  0.0000  0.0000 </r>
       </set>
       <set comment="band 3">
        <r>  0.0371  0.0355  0.0787  0.0355  0.0000  0.0000  0.0000  0.0000  0.0000 </r>
        <r>  0.0371  0.0355  0.0787  0.0355  0.0000  0.0000  0.0000  0.0000  0.0000 </r>
       </set>
       <set comment="band 4">
        <r>  0.0000  0.1014  0.0000  0.1014  0.0000  0.0000  0.0000  0.0000  0.0000 </r>
        <r>  0.0000  0.1014  0.0000  0.1014  0.0000  0.0000  0.0000  0.0000  0.0000 </r>
       </set>
       <set comment="band 5">
        <r>  0.0578  0.0018  0.0524  0.0018  0.0000  0.0000  0.0000  0.0000  0.0000 </r>
        <r>  0.0578  0.0018  0.0524  0.0018  0.0000  0.0000  0.0000  0.0000  0.0000 </r>
       </set>
       <set comment="band 6">
        <r>  0.0576  0.0312  0.0408  0.0312  0.0000  0.0000  0.0000  0.0000  0.0000 </r>
        <r>  0.0576  0.0312  0.0408  0.0312  0.0000  0.0000  0.0000  0.0000  0.0000 </r>
       </set>
       <set comment="band 7">
        <r>  0.0000  0.0547  0.0000  0.0547  0.0000  0.0000  0.0000  0.0000  0.0000 </r>
        <r>  0.0000  0.0547  0.0000  0.0547  0.0000  0.0000  0.0000  0.0000  0.0000 </r>
       </set>
       <set comment="band 8">
        <r>  0.0240  0.0403  0.0242  0.0403  0.0000  0.0000  0.0000  0.0000  0.0000 </r>
        <r>  0.0240  0.0403  0.0242  0.0403  0.0000  0.0000  0.0000  0.0000  0.0000 </r>
       </set>
       <set comment="band 9">
        <r>  0.0091  0.0233  0.0819  0.0233  0.0000  0.0000  0.0000  0.0000  0.0000 </r>
        <r>  0.0091  0.0233  0.0819  0.0233  0.0000  0.0000  0.0000  0.0000  0.0000 </r>
       </set>
       <set comment="band 10">
        <r>  0.0000  0.0240  0.0000  0.0240  0.0000  0.0000  0.0000  0.0000  0.0000 </r>
        <r>  0.0000  0.0240  0.0000  0.0240  0.0000  0.0000  0.0000  0.0000  0.0000 </r>
       </set>
       <set comment="band 11">
        <r>  0.0358  0.0085  0.0165  0.0085  0.0000  0.0000  0.0000  0.0000  0.0000 </r>
        <r>  0.0358  0.0085  0.0165  0.0085  0.0000  0.0000  0.0000  0.0000  0.0000 </r>
       </set>
       <set comment="band 12">
        <r>  0.0000  0.0305  0.0000  0.0305  0.0000  0.0000  0.0000  0.0000  0.0000 </r>
        <r>  0.0000  0.0305  0.0000  0.0305  0.0000  0.0000  0.0000  0.0000  0.0000 </r>
       </set>
       <set comment="band 13">
        <r>  0.0455  0.0328  0.1091  0.0328  0.0000  0.0000  0.0000  0.0000  0.0000 </r>
        <r>  0.0455  0.0328  0.1091  0.0328  0.0000  0.0000  0.0000  0.0000  0.0000 </r>
       </set>
       <set comment="band 14">
        <r>  0.0038  0.0552  0.0184  0.0552  0.0000  0.0000  0.0000  0.0000  0.0000 </r>
        <r>  0.0038  0.0552  0.0184  0.0552  0.0000  0.0000  0.0000  0.0000  0.0000 </r>
       </set>
       <set comment="band 15">
        <r>  0.0284  0.0011  0.0480  0.0011  0.0000  0.0000  0.0000  0.0000  0.0000 </r>
        <r>  0.0284  0.0011  0.0480  0.0011  0.0000  0.0000  0.0000  0.0000  0.0000 </r>
       </set>
       <set comment="band 16">
        <r>  0.0123  0.0146  0.0203  0.0035  0.0000  0.0000  0.0000  0.0000  0.0000 </r>
        <r>  0.0123  0.0136  0.0204  0.0046  0.0000  0.0000  0.0000  0.0000  0.0000 </r>
       </set>
      </set>
      <set comment="kpoint 41">
       <set comment="band 1">
        <r>  0.2176  0.0064  0.0071  0.0064  0.0000  0.0000  0.0000  0.0000  0.0000 </r>
        <r>  0.2176  0.0064  0.0071  0.0064  0.0000  0.0000  0.0000  0.0000  0.0000 </r>
       </set>
       <set comment="band 2">
        <r>  0.1306  0.0230  0.0350  0.0230  0.0000  0.0000  0.0000  0.0000  0.0000 </r>
        <r>  0.1306  0.0230  0.0350  0.0230  0.0000  0.0000  0.0000  0.0000  0.0000 </r>
       </set>
       <set comment="band 3">
        <r>  0.0350  0.0344  0.0798  0.0344  0.0000  0.0000  0.0000  0.0000  0.0000 </r>
        <r>  0.0350  0.0344  0.0798  0.0344  0.0000  0.0000  0.0000  0.0000  0.0000 </r>
       </set>
       <set comment="band 4">
        <r>  0.0000  0.1027  0.0000  0.1027  0.0000  0.0000  0.0000  0.0000  0.0000 </r>
        <r>  0.0000  0.1027  0.0000  0.1027  0.0000  0.0000  0.0000  0.0000  0.0000 </r>
       </set>
       <set comment="band 5">
        <r>  0.0631  0.0012  0.0543  0.0012  0.0000  0.0000  0.0000  0.0000  0.0000 </r>
        <r>  0.0631  0.0012  0.0543  0.0012  0.0000  0.0000  0.0000  0.0000  0.0000 </r>
       </set>
       <set comment="band 6">
        <r>  0.0560  0.0253  0.0508  0.0253  0.0000  0.0000  0.0000  0.0000  0.0000 </r>
        <r>  0.0560  0.0253  0.0508  0.0253  0.0000  0.0000  0.0000  0.0000  0.0000 </r>
       </set>
       <set comment="band 7">
        <r>  0.0000  0.0556  0.0000  0.0556  0.0000  0.0000  0.0000  0.0000  0.0000 </r>
        <r>  0.0000  0.0556  0.0000  0.0556  0.0000  0.0000  0.0000  0.0000  0.0000 </r>
       </set>
       <set comment="band 8">
        <r>  0.0158  0.0448  0.0178  0.0448  0.0000  0.0000  0.0000  0.0000  0.0000 </r>
        <r>  0.0158  0.0448  0.0178  0.0448  0.0000  0.0000  0.0000  0.0000  0.0000 </r>
       </set>
       <set comment="band 9">
        <r>  0.0253  0.0278  0.0892  0.0278  0.0000  0.0000  0.0000  0.0000  0.0000 </r>
        <r>  0.0253  0.0278  0.0892  0.0278  0.0000  0.0000  0.0000  0.0000  0.0000 </r>
       </set>
       <set comment="band 10">
        <r>  0.0000  0.0235  0.0000  0.0235  0.0000  0.0000  0.0000  0.0000  0.0000 </r>
        <r>  0.0000  0.0235  0.0000  0.0235  0.0000  0.0000  0.0000  0.0000  0.0000 </r>
       </set>
       <set comment="band 11">
        <r>  0.0388  0.0036  0.0018  0.0036  0.0000  0.0000  0.0000  0.0000  0.0000 </r>
        <r>  0.0388  0.0036  0.0018  0.0036  0.0000  0.0000  0.0000  0.0000  0.0000 </r>
       </set>
       <set comment="band 12">
        <r>  0.0000  0.0273  0.0000  0.0273  0.0000  0.0000  0.0000  0.0000  0.0000 </r>
        <r>  0.0000  0.0273  0.0000  0.0273  0.0000  0.0000  0.0000  0.0000  0.0000 </r>
       </set>
       <set comment="band 13">
        <r>  0.0195  0.0354  0.1223  0.0354  0.0000  0.0000  0.0000  0.0000  0.0000 </r>
        <r>  0.0195  0.0354  0.1223  0.0354  0.0000  0.0000  0.0000  0.0000  0.0000 </r>
       </set>
       <set comment="band 14">
        <r>  0.0152  0.0536  0.0173  0.0536  0.0000  0.0000  0.0000  0.0000  0.0000 </r>
        <r>  0.0152  0.0536  0.0173  0.0536  0.0000  0.0000  0.0000  0.0000  0.0000 </r>
       </set>
       <set comment="band 15">
        <r>  0.0295  0.0032  0.0118  0.0032  0.0000  0.0000  0.0000  0.0000  0.0000 </r>
        <r>  0.0295  0.0032  0.0118  0.0032  0.0000  0.0000  0.0000  0.0000  0.0000 </r>
       </set>
       <set comment="band 16">
        <r>  0.0000  0.0269  0.0000  0.0268  0.0000  0.0000  0.0000  0.0000  0.0000 </r>
        <r>  0.0000  0.0269  0.0000  0.0268  0.0000  0.0000  0.0000  0.0000  0.0000 </r>
       </set>
      </set>
      <set comment="kpoint 42">
       <set comment="band 1">
        <r>  0.2114  0.0080  0.0035  0.0080  0.0000  0.0000  0.0000  0.0000  0.0000 </r>
        <r>  0.2114  0.0080  0.0035  0.0080  0.0000  0.0000  0.0000  0.0000  0.0000 </r>
       </set>
       <set comment="band 2">
        <r>  0.1376  0.0226  0.0376  0.0226  0.0000  0.0000  0.0000  0.0000  0.0000 </r>
        <r>  0.1376  0.0226  0.0376  0.0226  0.0000  0.0000  0.0000  0.0000  0.0000 </r>
       </set>
       <set comment="band 3">
        <r>  0.0295  0.0344  0.0811  0.0344  0.0000  0.0000  0.0000  0.0000  0.0000 </r>
        <r>  0.0295  0.0344  0.0811  0.0344  0.0000  0.0000  0.0000  0.0000  0.0000 </r>
       </set>
       <set comment="band 4">
        <r>  0.0000  0.1041  0.0000  0.1041  0.0000  0.0000  0.0000  0.0000  0.0000 </r>
        <r>  0.0000  0.1041  0.0000  0.1041  0.0000  0.0000  0.0000  0.0000  0.0000 </r>
       </set>
       <set comment="band 5">
        <r>  0.0684  0.0009  0.0594  0.0009  0.0000  0.0000  0.0000  0.0000  0.0000 </r>
        <r>  0.0684  0.0009  0.0594  0.0009  0.0000  0.0000  0.0000  0.0000  0.0000 </r>
       </set>
       <set comment="band 6">
        <r>  0.0495  0.0192  0.0633  0.0192  0.0000  0.0000  0.0000  0.0000  0.0000 </r>
        <r>  0.0495  0.0192  0.0633  0.0192  0.0000  0.0000  0.0000  0.0000  0.0000 </r>
       </set>
       <set comment="band 7">
        <r>  0.0000  0.0609  0.0000  0.0609  0.0000  0.0000  0.0000  0.0000  0.0000 </r>
        <r>  0.0000  0.0609  0.0000  0.0609  0.0000  0.0000  0.0000  0.0000  0.0000 </r>
       </set>
       <set comment="band 8">
        <r>  0.0438  0.0308  0.0644  0.0308  0.0000  0.0000  0.0000  0.0000  0.0000 </r>
        <r>  0.0438  0.0308  0.0644  0.0308  0.0000  0.0000  0.0000  0.0000  0.0000 </r>
       </set>
       <set comment="band 9">
        <r>  0.0000  0.0174  0.0000  0.0174  0.0000  0.0000  0.0000  0.0000  0.0000 </r>
        <r>  0.0000  0.0174  0.0000  0.0174  0.0000  0.0000  0.0000  0.0000  0.0000 </r>
       </set>
       <set comment="band 10">
        <r>  0.0073  0.0490  0.0322  0.0490  0.0000  0.0000  0.0000  0.0000  0.0000 </r>
        <r>  0.0073  0.0490  0.0322  0.0490  0.0000  0.0000  0.0000  0.0000  0.0000 </r>
       </set>
       <set comment="band 11">
        <r>  0.0387  0.0020  0.0000  0.0020  0.0000  0.0000  0.0000  0.0000  0.0000 </r>
        <r>  0.0387  0.0020  0.0000  0.0020  0.0000  0.0000  0.0000  0.0000  0.0000 </r>
       </set>
       <set comment="band 12">
        <r>  0.0247  0.0525  0.0235  0.0525  0.0000  0.0000  0.0000  0.0000  0.0000 </r>
        <r>  0.0247  0.0525  0.0235  0.0525  0.0000  0.0000  0.0000  0.0000  0.0000 </r>
       </set>
       <set comment="band 13">
        <r>  0.0077  0.0214  0.0508  0.0214  0.0000  0.0000  0.0000  0.0000  0.0000 </r>
        <r>  0.0077  0.0214  0.0508  0.0214  0.0000  0.0000  0.0000  0.0000  0.0000 </r>
       </set>
       <set comment="band 14">
        <r>  0.0000  0.0232  0.0000  0.0232  0.0000  0.0000  0.0000  0.0000  0.0000 </r>
        <r>  0.0000  0.0232  0.0000  0.0232  0.0000  0.0000  0.0000  0.0000  0.0000 </r>
       </set>
       <set comment="band 15">
        <r>  0.0291  0.0147  0.0693  0.0147  0.0000  0.0000  0.0000  0.0000  0.0000 </r>
        <r>  0.0291  0.0147  0.0693  0.0147  0.0000  0.0000  0.0000  0.0000  0.0000 </r>
       </set>
       <set comment="band 16">
        <r>  0.0055  0.0179  0.0195  0.0180  0.0000  0.0000  0.0000  0.0000  0.0000 </r>
        <r>  0.0055  0.0179  0.0195  0.0180  0.0000  0.0000  0.0000  0.0000  0.0000 </r>
       </set>
      </set>
      <set comment="kpoint 43">
       <set comment="band 1">
        <r>  0.2083  0.0075  0.0017  0.0075  0.0000  0.0000  0.0000  0.0000  0.0000 </r>
        <r>  0.2083  0.0075  0.0017  0.0075  0.0000  0.0000  0.0000  0.0000  0.0000 </r>
       </set>
       <set comment="band 2">
        <r>  0.1420  0.0253  0.0377  0.0253  0.0000  0.0000  0.0000  0.0000  0.0000 </r>
        <r>  0.1420  0.0253  0.0377  0.0253  0.0000  0.0000  0.0000  0.0000  0.0000 </r>
       </set>
       <set comment="band 3">
        <r>  0.0204  0.0346  0.0849  0.0346  0.0000  0.0000  0.0000  0.0000  0.0000 </r>
        <r>  0.0204  0.0346  0.0849  0.0346  0.0000  0.0000  0.0000  0.0000  0.0000 </r>
       </set>
       <set comment="band 4">
        <r>  0.0000  0.1057  0.0000  0.1057  0.0000  0.0000  0.0000  0.0000  0.0000 </r>
        <r>  0.0000  0.1057  0.0000  0.1057  0.0000  0.0000  0.0000  0.0000  0.0000 </r>
       </set>
       <set comment="band 5">
        <r>  0.0744  0.0008  0.0685  0.0008  0.0000  0.0000  0.0000  0.0000  0.0000 </r>
        <r>  0.0744  0.0008  0.0685  0.0008  0.0000  0.0000  0.0000  0.0000  0.0000 </r>
       </set>
       <set comment="band 6">
        <r>  0.0000  0.0701  0.0000  0.0701  0.0000  0.0000  0.0000  0.0000  0.0000 </r>
        <r>  0.0000  0.0701  0.0000  0.0701  0.0000  0.0000  0.0000  0.0000  0.0000 </r>
       </set>
       <set comment="band 7">
        <r>  0.0381  0.0104  0.0854  0.0104  0.0000  0.0000  0.0000  0.0000  0.0000 </r>
        <r>  0.0381  0.0104  0.0854  0.0104  0.0000  0.0000  0.0000  0.0000  0.0000 </r>
       </set>
       <set comment="band 8">
        <r>  0.0618  0.0385  0.0383  0.0385  0.0000  0.0000  0.0000  0.0000  0.0000 </r>
        <r>  0.0618  0.0385  0.0383  0.0385  0.0000  0.0000  0.0000  0.0000  0.0000 </r>
       </set>
       <set comment="band 9">
        <r>  0.0000  0.0073  0.0000  0.0073  0.0000  0.0000  0.0000  0.0000  0.0000 </r>
        <r>  0.0000  0.0073  0.0000  0.0073  0.0000  0.0000  0.0000  0.0000  0.0000 </r>
       </set>
       <set comment="band 10">
        <r>  0.0023  0.0499  0.0348  0.0499  0.0000  0.0000  0.0000  0.0000  0.0000 </r>
        <r>  0.0023  0.0499  0.0348  0.0499  0.0000  0.0000  0.0000  0.0000  0.0000 </r>
       </set>
       <set comment="band 11">
        <r>  0.0581  0.0226  0.0150  0.0226  0.0000  0.0000  0.0000  0.0000  0.0000 </r>
        <r>  0.0581  0.0226  0.0150  0.0226  0.0000  0.0000  0.0000  0.0000  0.0000 </r>
       </set>
       <set comment="band 12">
        <r>  0.0085  0.0298  0.0111  0.0298  0.0000  0.0000  0.0000  0.0000  0.0000 </r>
        <r>  0.0085  0.0298  0.0111  0.0298  0.0000  0.0000  0.0000  0.0000  0.0000 </r>
       </set>
       <set comment="band 13">
        <r>  0.0330  0.0027  0.0092  0.0027  0.0000  0.0000  0.0000  0.0000  0.0000 </r>
        <r>  0.0330  0.0027  0.0092  0.0027  0.0000  0.0000  0.0000  0.0000  0.0000 </r>
       </set>
       <set comment="band 14">
        <r>  0.0001  0.0327  0.0117  0.0327  0.0000  0.0000  0.0000  0.0000  0.0000 </r>
        <r>  0.0001  0.0327  0.0117  0.0327  0.0000  0.0000  0.0000  0.0000  0.0000 </r>
       </set>
       <set comment="band 15">
        <r>  0.0000  0.0155  0.0000  0.0155  0.0000  0.0000  0.0000  0.0000  0.0000 </r>
        <r>  0.0000  0.0155  0.0000  0.0155  0.0000  0.0000  0.0000  0.0000  0.0000 </r>
       </set>
       <set comment="band 16">
        <r>  0.0081  0.0126  0.1121  0.0126  0.0000  0.0000  0.0000  0.0000  0.0000 </r>
        <r>  0.0081  0.0126  0.1121  0.0126  0.0000  0.0000  0.0000  0.0000  0.0000 </r>
       </set>
      </set>
      <set comment="kpoint 44">
       <set comment="band 1">
        <r>  0.2079  0.0062  0.0007  0.0062  0.0000  0.0000  0.0000  0.0000  0.0000 </r>
        <r>  0.2079  0.0062  0.0007  0.0062  0.0000  0.0000  0.0000  0.0000  0.0000 </r>
       </set>
       <set comment="band 2">
        <r>  0.1383  0.0310  0.0352  0.0310  0.0000  0.0000  0.0000  0.0000  0.0000 </r>
        <r>  0.1383  0.0310  0.0352  0.0310  0.0000  0.0000  0.0000  0.0000  0.0000 </r>
       </set>
       <set comment="band 3">
        <r>  0.0130  0.0338  0.0931  0.0338  0.0000  0.0000  0.0000  0.0000  0.0000 </r>
        <r>  0.0130  0.0338  0.0931  0.0338  0.0000  0.0000  0.0000  0.0000  0.0000 </r>
       </set>
       <set comment="band 4">
        <r>  0.0000  0.1074  0.0000  0.1074  0.0000  0.0000  0.0000  0.0000  0.0000 </r>
        <r>  0.0000  0.1074  0.0000  0.1074  0.0000  0.0000  0.0000  0.0000  0.0000 </r>
       </set>
       <set comment="band 5">
        <r>  0.0840  0.0005  0.0809  0.0005  0.0000  0.0000  0.0000  0.0000  0.0000 </r>
        <r>  0.0840  0.0005  0.0809  0.0005  0.0000  0.0000  0.0000  0.0000  0.0000 </r>
       </set>
       <set comment="band 6">
        <r>  0.0000  0.0746  0.0000  0.0746  0.0000  0.0000  0.0000  0.0000  0.0000 </r>
        <r>  0.0000  0.0746  0.0000  0.0746  0.0000  0.0000  0.0000  0.0000  0.0000 </r>
       </set>
       <set comment="band 7">
        <r>  0.0313  0.0050  0.1056  0.0050  0.0000  0.0000  0.0000  0.0000  0.0000 </r>
        <r>  0.0313  0.0050  0.1056  0.0050  0.0000  0.0000  0.0000  0.0000  0.0000 </r>
       </set>
       <set comment="band 8">
        <r>  0.0692  0.0463  0.0075  0.0463  0.0000  0.0000  0.0000  0.0000  0.0000 </r>
        <r>  0.0692  0.0463  0.0075  0.0463  0.0000  0.0000  0.0000  0.0000  0.0000 </r>
       </set>
       <set comment="band 9">
        <r>  0.0000  0.0015  0.0000  0.0015  0.0000  0.0000  0.0000  0.0000  0.0000 </r>
        <r>  0.0000  0.0015  0.0000  0.0015  0.0000  0.0000  0.0000  0.0000  0.0000 </r>
       </set>
       <set comment="band 10">
        <r>  0.0076  0.0466  0.0370  0.0466  0.0000  0.0000  0.0000  0.0000  0.0000 </r>
        <r>  0.0076  0.0466  0.0370  0.0466  0.0000  0.0000  0.0000  0.0000  0.0000 </r>
       </set>
       <set comment="band 11">
        <r>  0.0574  0.0401  0.0254  0.0401  0.0000  0.0000  0.0000  0.0000  0.0000 </r>
        <r>  0.0574  0.0401  0.0254  0.0401  0.0000  0.0000  0.0000  0.0000  0.0000 </r>
       </set>
       <set comment="band 12">
        <r>  0.0135  0.0011  0.0006  0.0011  0.0000  0.0000  0.0000  0.0000  0.0000 </r>
        <r>  0.0135  0.0011  0.0006  0.0011  0.0000  0.0000  0.0000  0.0000  0.0000 </r>
       </set>
       <set comment="band 13">
        <r>  0.0379  0.0001  0.0021  0.0001  0.0000  0.0000  0.0000  0.0000  0.0000 </r>
        <r>  0.0379  0.0001  0.0021  0.0001  0.0000  0.0000  0.0000  0.0000  0.0000 </r>
       </set>
       <set comment="band 14">
        <r>  0.0007  0.0339  0.0045  0.0339  0.0000  0.0000  0.0000  0.0000  0.0000 </r>
        <r>  0.0007  0.0339  0.0045  0.0339  0.0000  0.0000  0.0000  0.0000  0.0000 </r>
       </set>
       <set comment="band 15">
        <r>  0.0000  0.0137  0.0000  0.0137  0.0000  0.0000  0.0000  0.0000  0.0000 </r>
        <r>  0.0000  0.0137  0.0000  0.0137  0.0000  0.0000  0.0000  0.0000  0.0000 </r>
       </set>
       <set comment="band 16">
        <r>  0.0003  0.0167  0.1100  0.0168  0.0000  0.0000  0.0000  0.0000  0.0000 </r>
        <r>  0.0003  0.0168  0.1100  0.0167  0.0000  0.0000  0.0000  0.0000  0.0000 </r>
       </set>
      </set>
      <set comment="kpoint 45">
       <set comment="band 1">
        <r>  0.2062  0.0000  0.0130  0.0000  0.0000  0.0000  0.0000  0.0000  0.0000 </r>
        <r>  0.2062  0.0000  0.0130  0.0000  0.0000  0.0000  0.0000  0.0000  0.0000 </r>
       </set>
       <set comment="band 2">
        <r>  0.1614  0.0000  0.0924  0.0000  0.0000  0.0000  0.0000  0.0000  0.0000 </r>
        <r>  0.1614  0.0000  0.0924  0.0000  0.0000  0.0000  0.0000  0.0000  0.0000 </r>
       </set>
       <set comment="band 3">
        <r>  0.0000  0.0979  0.0000  0.0981  0.0000  0.0000  0.0000  0.0000  0.0000 </r>
        <r>  0.0000  0.0980  0.0000  0.0980  0.0000  0.0000  0.0000  0.0000  0.0000 </r>
       </set>
       <set comment="band 4">
        <r>  0.0000  0.0981  0.0000  0.0979  0.0000  0.0000  0.0000  0.0000  0.0000 </r>
        <r>  0.0000  0.0980  0.0000  0.0980  0.0000  0.0000  0.0000  0.0000  0.0000 </r>
       </set>
       <set comment="band 5">
        <r>  0.0441  0.0000  0.0731  0.0000  0.0000  0.0000  0.0000  0.0000  0.0000 </r>
        <r>  0.0441  0.0000  0.0731  0.0000  0.0000  0.0000  0.0000  0.0000  0.0000 </r>
       </set>
       <set comment="band 6">
        <r>  0.0482  0.0000  0.0383  0.0000  0.0000  0.0000  0.0000  0.0000  0.0000 </r>
        <r>  0.0482  0.0000  0.0383  0.0000  0.0000  0.0000  0.0000  0.0000  0.0000 </r>
       </set>
       <set comment="band 7">
        <r>  0.0000  0.0834  0.0000  0.0834  0.0000  0.0000  0.0000  0.0000  0.0000 </r>
        <r>  0.0000  0.0834  0.0000  0.0835  0.0000  0.0000  0.0000  0.0000  0.0000 </r>
       </set>
       <set comment="band 8">
        <r>  0.0000  0.0834  0.0000  0.0834  0.0000  0.0000  0.0000  0.0000  0.0000 </r>
        <r>  0.0000  0.0835  0.0000  0.0834  0.0000  0.0000  0.0000  0.0000  0.0000 </r>
       </set>
       <set comment="band 9">
        <r>  0.1464  0.0000  0.1046  0.0000  0.0000  0.0000  0.0000  0.0000  0.0000 </r>
        <r>  0.1464  0.0000  0.1046  0.0000  0.0000  0.0000  0.0000  0.0000  0.0000 </r>
       </set>
       <set comment="band 10">
        <r>  0.0000  0.0000  0.0000  0.0000  0.0000  0.0000  0.0000  0.0000  0.0000 </r>
        <r>  0.0000  0.0000  0.0000  0.0000  0.0000  0.0000  0.0000  0.0000  0.0000 </r>
       </set>
       <set comment="band 11">
        <r>  0.0284  0.0000  0.1136  0.0000  0.0000  0.0000  0.0000  0.0000  0.0000 </r>
        <r>  0.0284  0.0000  0.1136  0.0000  0.0000  0.0000  0.0000  0.0000  0.0000 </r>
       </set>
       <set comment="band 12">
        <r>  0.0000  0.0143  0.0000  0.0143  0.0000  0.0000  0.0000  0.0000  0.0000 </r>
        <r>  0.0000  0.0143  0.0000  0.0143  0.0000  0.0000  0.0000  0.0000  0.0000 </r>
       </set>
       <set comment="band 13">
        <r>  0.0000  0.0143  0.0000  0.0143  0.0000  0.0000  0.0000  0.0000  0.0000 </r>
        <r>  0.0000  0.0143  0.0000  0.0143  0.0000  0.0000  0.0000  0.0000  0.0000 </r>
       </set>
       <set comment="band 14">
        <r>  0.0103  0.0000  0.0033  0.0000  0.0000  0.0000  0.0000  0.0000  0.0000 </r>
        <r>  0.0103  0.0000  0.0033  0.0000  0.0000  0.0000  0.0000  0.0000  0.0000 </r>
       </set>
       <set comment="band 15">
        <r>  0.0000  0.0896  0.0000  0.0086  0.0000  0.0000  0.0000  0.0000  0.0000 </r>
        <r>  0.0000  0.0845  0.0000  0.0137  0.0000  0.0000  0.0000  0.0000  0.0000 </r>
       </set>
       <set comment="band 16">
        <r>  0.0000  0.0086  0.0000  0.0896  0.0000  0.0000  0.0000  0.0000  0.0000 </r>
        <r>  0.0000  0.0137  0.0000  0.0845  0.0000  0.0000  0.0000  0.0000  0.0000 </r>
       </set>
      </set>
      <set comment="kpoint 46">
       <set comment="band 1">
        <r>  0.2049  0.0002  0.0162  0.0002  0.0000  0.0000  0.0000  0.0000  0.0000 </r>
        <r>  0.2049  0.0002  0.0162  0.0002  0.0000  0.0000  0.0000  0.0000  0.0000 </r>
       </set>
       <set comment="band 2">
        <r>  0.1666  0.0039  0.0768  0.0039  0.0000  0.0000  0.0000  0.0000  0.0000 </r>
        <r>  0.1666  0.0039  0.0768  0.0039  0.0000  0.0000  0.0000  0.0000  0.0000 </r>
       </set>
       <set comment="band 3">
        <r>  0.0049  0.0862  0.0133  0.0862  0.0000  0.0000  0.0000  0.0000  0.0000 </r>
        <r>  0.0049  0.0862  0.0133  0.0862  0.0000  0.0000  0.0000  0.0000  0.0000 </r>
       </set>
       <set comment="band 4">
        <r>  0.0000  0.0980  0.0000  0.0980  0.0000  0.0000  0.0000  0.0000  0.0000 </r>
        <r>  0.0000  0.0980  0.0000  0.0980  0.0000  0.0000  0.0000  0.0000  0.0000 </r>
       </set>
       <set comment="band 5">
        <r>  0.0441  0.0052  0.0618  0.0052  0.0000  0.0000  0.0000  0.0000  0.0000 </r>
        <r>  0.0441  0.0052  0.0618  0.0052  0.0000  0.0000  0.0000  0.0000  0.0000 </r>
       </set>
       <set comment="band 6">
        <r>  0.0448  0.0027  0.0329  0.0027  0.0000  0.0000  0.0000  0.0000  0.0000 </r>
        <r>  0.0448  0.0027  0.0329  0.0027  0.0000  0.0000  0.0000  0.0000  0.0000 </r>
       </set>
       <set comment="band 7">
        <r>  0.0185  0.0718  0.0107  0.0718  0.0000  0.0000  0.0000  0.0000  0.0000 </r>
        <r>  0.0185  0.0718  0.0107  0.0718  0.0000  0.0000  0.0000  0.0000  0.0000 </r>
       </set>
       <set comment="band 8">
        <r>  0.0000  0.0789  0.0000  0.0789  0.0000  0.0000  0.0000  0.0000  0.0000 </r>
        <r>  0.0000  0.0789  0.0000  0.0789  0.0000  0.0000  0.0000  0.0000  0.0000 </r>
       </set>
       <set comment="band 9">
        <r>  0.1203  0.0105  0.1116  0.0105  0.0000  0.0000  0.0000  0.0000  0.0000 </r>
        <r>  0.1203  0.0105  0.1116  0.0105  0.0000  0.0000  0.0000  0.0000  0.0000 </r>
       </set>
       <set comment="band 10">
        <r>  0.0000  0.0040  0.0000  0.0040  0.0000  0.0000  0.0000  0.0000  0.0000 </r>
        <r>  0.0000  0.0040  0.0000  0.0040  0.0000  0.0000  0.0000  0.0000  0.0000 </r>
       </set>
       <set comment="band 11">
        <r>  0.0110  0.0069  0.1047  0.0069  0.0000  0.0000  0.0000  0.0000  0.0000 </r>
        <r>  0.0110  0.0069  0.1047  0.0069  0.0000  0.0000  0.0000  0.0000  0.0000 </r>
       </set>
       <set comment="band 12">
        <r>  0.0090  0.0040  0.0304  0.0040  0.0000  0.0000  0.0000  0.0000  0.0000 </r>
        <r>  0.0090  0.0040  0.0304  0.0040  0.0000  0.0000  0.0000  0.0000  0.0000 </r>
       </set>
       <set comment="band 13">
        <r>  0.0000  0.0185  0.0000  0.0185  0.0000  0.0000  0.0000  0.0000  0.0000 </r>
        <r>  0.0000  0.0185  0.0000  0.0185  0.0000  0.0000  0.0000  0.0000  0.0000 </r>
       </set>
       <set comment="band 14">
        <r>  0.0063  0.0149  0.0020  0.0149  0.0000  0.0000  0.0000  0.0000  0.0000 </r>
        <r>  0.0063  0.0149  0.0020  0.0149  0.0000  0.0000  0.0000  0.0000  0.0000 </r>
       </set>
       <set comment="band 15">
        <r>  0.0000  0.0289  0.0000  0.0289  0.0000  0.0000  0.0000  0.0000  0.0000 </r>
        <r>  0.0000  0.0289  0.0000  0.0289  0.0000  0.0000  0.0000  0.0000  0.0000 </r>
       </set>
       <set comment="band 16">
        <r>  0.0086  0.0330  0.0071  0.0330  0.0000  0.0000  0.0000  0.0000  0.0000 </r>
        <r>  0.0086  0.0330  0.0071  0.0330  0.0000  0.0000  0.0000  0.0000  0.0000 </r>
       </set>
      </set>
      <set comment="kpoint 47">
       <set comment="band 1">
        <r>  0.2043  0.0007  0.0192  0.0007  0.0000  0.0000  0.0000  0.0000  0.0000 </r>
        <r>  0.2043  0.0007  0.0192  0.0007  0.0000  0.0000  0.0000  0.0000  0.0000 </r>
       </set>
       <set comment="band 2">
        <r>  0.1686  0.0097  0.0579  0.0097  0.0000  0.0000  0.0000  0.0000  0.0000 </r>
        <r>  0.1686  0.0097  0.0579  0.0097  0.0000  0.0000  0.0000  0.0000  0.0000 </r>
       </set>
       <set comment="band 3">
        <r>  0.0121  0.0679  0.0336  0.0679  0.0000  0.0000  0.0000  0.0000  0.0000 </r>
        <r>  0.0121  0.0679  0.0336  0.0679  0.0000  0.0000  0.0000  0.0000  0.0000 </r>
       </set>
       <set comment="band 4">
        <r>  0.0000  0.0983  0.0000  0.0983  0.0000  0.0000  0.0000  0.0000  0.0000 </r>
        <r>  0.0000  0.0983  0.0000  0.0983  0.0000  0.0000  0.0000  0.0000  0.0000 </r>
       </set>
       <set comment="band 5">
        <r>  0.0443  0.0065  0.0524  0.0065  0.0000  0.0000  0.0000  0.0000  0.0000 </r>
        <r>  0.0443  0.0065  0.0524  0.0065  0.0000  0.0000  0.0000  0.0000  0.0000 </r>
       </set>
       <set comment="band 6">
        <r>  0.0394  0.0143  0.0263  0.0143  0.0000  0.0000  0.0000  0.0000  0.0000 </r>
        <r>  0.0394  0.0143  0.0263  0.0143  0.0000  0.0000  0.0000  0.0000  0.0000 </r>
       </set>
       <set comment="band 7">
        <r>  0.0402  0.0565  0.0270  0.0565  0.0000  0.0000  0.0000  0.0000  0.0000 </r>
        <r>  0.0402  0.0565  0.0270  0.0565  0.0000  0.0000  0.0000  0.0000  0.0000 </r>
       </set>
       <set comment="band 8">
        <r>  0.0000  0.0686  0.0000  0.0686  0.0000  0.0000  0.0000  0.0000  0.0000 </r>
        <r>  0.0000  0.0686  0.0000  0.0686  0.0000  0.0000  0.0000  0.0000  0.0000 </r>
       </set>
       <set comment="band 9">
        <r>  0.0000  0.0121  0.0000  0.0121  0.0000  0.0000  0.0000  0.0000  0.0000 </r>
        <r>  0.0000  0.0121  0.0000  0.0121  0.0000  0.0000  0.0000  0.0000  0.0000 </r>
       </set>
       <set comment="band 10">
        <r>  0.0849  0.0251  0.1122  0.0251  0.0000  0.0000  0.0000  0.0000  0.0000 </r>
        <r>  0.0849  0.0251  0.1122  0.0251  0.0000  0.0000  0.0000  0.0000  0.0000 </r>
       </set>
       <set comment="band 11">
        <r>  0.0050  0.0115  0.0875  0.0115  0.0000  0.0000  0.0000  0.0000  0.0000 </r>
        <r>  0.0050  0.0115  0.0875  0.0115  0.0000  0.0000  0.0000  0.0000  0.0000 </r>
       </set>
       <set comment="band 12">
        <r>  0.0000  0.0299  0.0000  0.0299  0.0000  0.0000  0.0000  0.0000  0.0000 </r>
        <r>  0.0000  0.0299  0.0000  0.0299  0.0000  0.0000  0.0000  0.0000  0.0000 </r>
       </set>
       <set comment="band 13">
        <r>  0.0072  0.0176  0.0392  0.0176  0.0000  0.0000  0.0000  0.0000  0.0000 </r>
        <r>  0.0072  0.0176  0.0392  0.0176  0.0000  0.0000  0.0000  0.0000  0.0000 </r>
       </set>
       <set comment="band 14">
        <r>  0.0226  0.0101  0.0302  0.0101  0.0000  0.0000  0.0000  0.0000  0.0000 </r>
        <r>  0.0226  0.0101  0.0302  0.0101  0.0000  0.0000  0.0000  0.0000  0.0000 </r>
       </set>
       <set comment="band 15">
        <r>  0.0000  0.0132  0.0000  0.0132  0.0000  0.0000  0.0000  0.0000  0.0000 </r>
        <r>  0.0000  0.0132  0.0000  0.0132  0.0000  0.0000  0.0000  0.0000  0.0000 </r>
       </set>
       <set comment="band 16">
        <r>  0.0133  0.0074  0.0161  0.0074  0.0000  0.0000  0.0000  0.0000  0.0000 </r>
        <r>  0.0133  0.0074  0.0161  0.0074  0.0000  0.0000  0.0000  0.0000  0.0000 </r>
       </set>
      </set>
      <set comment="kpoint 48">
       <set comment="band 1">
        <r>  0.2058  0.0015  0.0211  0.0015  0.0000  0.0000  0.0000  0.0000  0.0000 </r>
        <r>  0.2058  0.0015  0.0211  0.0015  0.0000  0.0000  0.0000  0.0000  0.0000 </r>
       </set>
       <set comment="band 2">
        <r>  0.1671  0.0142  0.0429  0.0142  0.0000  0.0000  0.0000  0.0000  0.0000 </r>
        <r>  0.1671  0.0142  0.0429  0.0142  0.0000  0.0000  0.0000  0.0000  0.0000 </r>
       </set>
       <set comment="band 3">
        <r>  0.0174  0.0544  0.0488  0.0544  0.0000  0.0000  0.0000  0.0000  0.0000 </r>
        <r>  0.0174  0.0544  0.0488  0.0544  0.0000  0.0000  0.0000  0.0000  0.0000 </r>
       </set>
       <set comment="band 4">
        <r>  0.0000  0.0989  0.0000  0.0989  0.0000  0.0000  0.0000  0.0000  0.0000 </r>
        <r>  0.0000  0.0989  0.0000  0.0989  0.0000  0.0000  0.0000  0.0000  0.0000 </r>
       </set>
       <set comment="band 5">
        <r>  0.0479  0.0032  0.0472  0.0032  0.0000  0.0000  0.0000  0.0000  0.0000 </r>
        <r>  0.0479  0.0032  0.0472  0.0032  0.0000  0.0000  0.0000  0.0000  0.0000 </r>
       </set>
       <set comment="band 6">
        <r>  0.0302  0.0275  0.0202  0.0275  0.0000  0.0000  0.0000  0.0000  0.0000 </r>
        <r>  0.0302  0.0275  0.0202  0.0275  0.0000  0.0000  0.0000  0.0000  0.0000 </r>
       </set>
       <set comment="band 7">
        <r>  0.0534  0.0450  0.0416  0.0450  0.0000  0.0000  0.0000  0.0000  0.0000 </r>
        <r>  0.0534  0.0450  0.0416  0.0450  0.0000  0.0000  0.0000  0.0000  0.0000 </r>
       </set>
       <set comment="band 8">
        <r>  0.0000  0.0610  0.0000  0.0610  0.0000  0.0000  0.0000  0.0000  0.0000 </r>
        <r>  0.0000  0.0610  0.0000  0.0610  0.0000  0.0000  0.0000  0.0000  0.0000 </r>
       </set>
       <set comment="band 9">
        <r>  0.0040  0.0292  0.0843  0.0292  0.0000  0.0000  0.0000  0.0000  0.0000 </r>
        <r>  0.0040  0.0292  0.0843  0.0292  0.0000  0.0000  0.0000  0.0000  0.0000 </r>
       </set>
       <set comment="band 10">
        <r>  0.0000  0.0079  0.0000  0.0079  0.0000  0.0000  0.0000  0.0000  0.0000 </r>
        <r>  0.0000  0.0079  0.0000  0.0079  0.0000  0.0000  0.0000  0.0000  0.0000 </r>
       </set>
       <set comment="band 11">
        <r>  0.0000  0.0426  0.0000  0.0426  0.0000  0.0000  0.0000  0.0000  0.0000 </r>
        <r>  0.0000  0.0426  0.0000  0.0426  0.0000  0.0000  0.0000  0.0000  0.0000 </r>
       </set>
       <set comment="band 12">
        <r>  0.0616  0.0203  0.1277  0.0203  0.0000  0.0000  0.0000  0.0000  0.0000 </r>
        <r>  0.0616  0.0203  0.1277  0.0203  0.0000  0.0000  0.0000  0.0000  0.0000 </r>
       </set>
       <set comment="band 13">
        <r>  0.0248  0.0206  0.0032  0.0206  0.0000  0.0000  0.0000  0.0000  0.0000 </r>
        <r>  0.0248  0.0206  0.0032  0.0206  0.0000  0.0000  0.0000  0.0000  0.0000 </r>
       </set>
       <set comment="band 14">
        <r>  0.0127  0.0001  0.0718  0.0001  0.0000  0.0000  0.0000  0.0000  0.0000 </r>
        <r>  0.0127  0.0001  0.0718  0.0001  0.0000  0.0000  0.0000  0.0000  0.0000 </r>
       </set>
       <set comment="band 15">
        <r>  0.0000  0.0105  0.0000  0.0105  0.0000  0.0000  0.0000  0.0000  0.0000 </r>
        <r>  0.0000  0.0105  0.0000  0.0105  0.0000  0.0000  0.0000  0.0000  0.0000 </r>
       </set>
       <set comment="band 16">
        <r>  0.0001  0.0255  0.0002  0.0264  0.0000  0.0000  0.0000  0.0000  0.0000 </r>
        <r>  0.0001  0.0242  0.0002  0.0276  0.0000  0.0000  0.0000  0.0000  0.0000 </r>
       </set>
      </set>
      <set comment="kpoint 49">
       <set comment="band 1">
        <r>  0.2114  0.0028  0.0198  0.0028  0.0000  0.0000  0.0000  0.0000  0.0000 </r>
        <r>  0.2114  0.0028  0.0198  0.0028  0.0000  0.0000  0.0000  0.0000  0.0000 </r>
       </set>
       <set comment="band 2">
        <r>  0.1611  0.0167  0.0353  0.0167  0.0000  0.0000  0.0000  0.0000  0.0000 </r>
        <r>  0.1611  0.0167  0.0353  0.0167  0.0000  0.0000  0.0000  0.0000  0.0000 </r>
       </set>
       <set comment="band 3">
        <r>  0.0198  0.0461  0.0585  0.0461  0.0000  0.0000  0.0000  0.0000  0.0000 </r>
        <r>  0.0198  0.0461  0.0585  0.0461  0.0000  0.0000  0.0000  0.0000  0.0000 </r>
       </set>
       <set comment="band 4">
        <r>  0.0000  0.0996  0.0000  0.0996  0.0000  0.0000  0.0000  0.0000  0.0000 </r>
        <r>  0.0000  0.0996  0.0000  0.0996  0.0000  0.0000  0.0000  0.0000  0.0000 </r>
       </set>
       <set comment="band 5">
        <r>  0.0514  0.0017  0.0455  0.0017  0.0000  0.0000  0.0000  0.0000  0.0000 </r>
        <r>  0.0514  0.0017  0.0455  0.0017  0.0000  0.0000  0.0000  0.0000  0.0000 </r>
       </set>
       <set comment="band 6">
        <r>  0.0188  0.0359  0.0119  0.0359  0.0000  0.0000  0.0000  0.0000  0.0000 </r>
        <r>  0.0188  0.0359  0.0119  0.0359  0.0000  0.0000  0.0000  0.0000  0.0000 </r>
       </set>
       <set comment="band 7">
        <r>  0.0627  0.0360  0.0580  0.0360  0.0000  0.0000  0.0000  0.0000  0.0000 </r>
        <r>  0.0627  0.0360  0.0580  0.0360  0.0000  0.0000  0.0000  0.0000  0.0000 </r>
       </set>
       <set comment="band 8">
        <r>  0.0000  0.0581  0.0000  0.0581  0.0000  0.0000  0.0000  0.0000  0.0000 </r>
        <r>  0.0000  0.0581  0.0000  0.0581  0.0000  0.0000  0.0000  0.0000  0.0000 </r>
       </set>
       <set comment="band 9">
        <r>  0.0174  0.0306  0.0875  0.0306  0.0000  0.0000  0.0000  0.0000  0.0000 </r>
        <r>  0.0174  0.0306  0.0875  0.0306  0.0000  0.0000  0.0000  0.0000  0.0000 </r>
       </set>
       <set comment="band 10">
        <r>  0.0000  0.0254  0.0000  0.0254  0.0000  0.0000  0.0000  0.0000  0.0000 </r>
        <r>  0.0000  0.0254  0.0000  0.0254  0.0000  0.0000  0.0000  0.0000  0.0000 </r>
       </set>
       <set comment="band 11">
        <r>  0.0000  0.0261  0.0000  0.0261  0.0000  0.0000  0.0000  0.0000  0.0000 </r>
        <r>  0.0000  0.0261  0.0000  0.0261  0.0000  0.0000  0.0000  0.0000  0.0000 </r>
       </set>
       <set comment="band 12">
        <r>  0.0223  0.0084  0.0116  0.0084  0.0000  0.0000  0.0000  0.0000  0.0000 </r>
        <r>  0.0223  0.0084  0.0116  0.0084  0.0000  0.0000  0.0000  0.0000  0.0000 </r>
       </set>
       <set comment="band 13">
        <r>  0.0433  0.0327  0.1234  0.0327  0.0000  0.0000  0.0000  0.0000  0.0000 </r>
        <r>  0.0433  0.0327  0.1234  0.0327  0.0000  0.0000  0.0000  0.0000  0.0000 </r>
       </set>
       <set comment="band 14">
        <r>  0.0083  0.0019  0.0751  0.0019  0.0000  0.0000  0.0000  0.0000  0.0000 </r>
        <r>  0.0083  0.0019  0.0751  0.0019  0.0000  0.0000  0.0000  0.0000  0.0000 </r>
       </set>
       <set comment="band 15">
        <r>  0.0000  0.0185  0.0000  0.0185  0.0000  0.0000  0.0000  0.0000  0.0000 </r>
        <r>  0.0000  0.0185  0.0000  0.0185  0.0000  0.0000  0.0000  0.0000  0.0000 </r>
       </set>
       <set comment="band 16">
        <r>  0.0017  0.0466  0.0341  0.0466  0.0000  0.0000  0.0000  0.0000  0.0000 </r>
        <r>  0.0017  0.0466  0.0340  0.0466  0.0000  0.0000  0.0000  0.0000  0.0000 </r>
       </set>
      </set>
      <set comment="kpoint 50">
       <set comment="band 1">
        <r>  0.2161  0.0058  0.0127  0.0058  0.0000  0.0000  0.0000  0.0000  0.0000 </r>
        <r>  0.2161  0.0058  0.0127  0.0058  0.0000  0.0000  0.0000  0.0000  0.0000 </r>
       </set>
       <set comment="band 2">
        <r>  0.1566  0.0161  0.0369  0.0161  0.0000  0.0000  0.0000  0.0000  0.0000 </r>
        <r>  0.1566  0.0161  0.0369  0.0161  0.0000  0.0000  0.0000  0.0000  0.0000 </r>
       </set>
       <set comment="band 3">
        <r>  0.0188  0.0416  0.0647  0.0416  0.0000  0.0000  0.0000  0.0000  0.0000 </r>
        <r>  0.0188  0.0416  0.0647  0.0416  0.0000  0.0000  0.0000  0.0000  0.0000 </r>
       </set>
       <set comment="band 4">
        <r>  0.0000  0.1007  0.0000  0.1007  0.0000  0.0000  0.0000  0.0000  0.0000 </r>
        <r>  0.0000  0.1007  0.0000  0.1007  0.0000  0.0000  0.0000  0.0000  0.0000 </r>
       </set>
       <set comment="band 5">
        <r>  0.0543  0.0013  0.0465  0.0013  0.0000  0.0000  0.0000  0.0000  0.0000 </r>
        <r>  0.0543  0.0013  0.0465  0.0013  0.0000  0.0000  0.0000  0.0000  0.0000 </r>
       </set>
       <set comment="band 6">
        <r>  0.0189  0.0301  0.0183  0.0301  0.0000  0.0000  0.0000  0.0000  0.0000 </r>
        <r>  0.0189  0.0301  0.0183  0.0301  0.0000  0.0000  0.0000  0.0000  0.0000 </r>
       </set>
       <set comment="band 7">
        <r>  0.0000  0.0601  0.0000  0.0601  0.0000  0.0000  0.0000  0.0000  0.0000 </r>
        <r>  0.0000  0.0601  0.0000  0.0601  0.0000  0.0000  0.0000  0.0000  0.0000 </r>
       </set>
       <set comment="band 8">
        <r>  0.0553  0.0391  0.0600  0.0391  0.0000  0.0000  0.0000  0.0000  0.0000 </r>
        <r>  0.0553  0.0391  0.0600  0.0391  0.0000  0.0000  0.0000  0.0000  0.0000 </r>
       </set>
       <set comment="band 9">
        <r>  0.0342  0.0327  0.0837  0.0327  0.0000  0.0000  0.0000  0.0000  0.0000 </r>
        <r>  0.0342  0.0327  0.0837  0.0327  0.0000  0.0000  0.0000  0.0000  0.0000 </r>
       </set>
       <set comment="band 10">
        <r>  0.0000  0.0221  0.0000  0.0221  0.0000  0.0000  0.0000  0.0000  0.0000 </r>
        <r>  0.0000  0.0221  0.0000  0.0221  0.0000  0.0000  0.0000  0.0000  0.0000 </r>
       </set>
       <set comment="band 11">
        <r>  0.0256  0.0067  0.0023  0.0067  0.0000  0.0000  0.0000  0.0000  0.0000 </r>
        <r>  0.0256  0.0067  0.0023  0.0067  0.0000  0.0000  0.0000  0.0000  0.0000 </r>
       </set>
       <set comment="band 12">
        <r>  0.0000  0.0235  0.0000  0.0235  0.0000  0.0000  0.0000  0.0000  0.0000 </r>
        <r>  0.0000  0.0235  0.0000  0.0235  0.0000  0.0000  0.0000  0.0000  0.0000 </r>
       </set>
       <set comment="band 13">
        <r>  0.0154  0.0373  0.1468  0.0373  0.0000  0.0000  0.0000  0.0000  0.0000 </r>
        <r>  0.0154  0.0373  0.1468  0.0373  0.0000  0.0000  0.0000  0.0000  0.0000 </r>
       </set>
       <set comment="band 14">
        <r>  0.0065  0.0214  0.0160  0.0214  0.0000  0.0000  0.0000  0.0000  0.0000 </r>
        <r>  0.0065  0.0214  0.0160  0.0214  0.0000  0.0000  0.0000  0.0000  0.0000 </r>
       </set>
       <set comment="band 15">
        <r>  0.0275  0.0311  0.0076  0.0311  0.0000  0.0000  0.0000  0.0000  0.0000 </r>
        <r>  0.0275  0.0311  0.0076  0.0311  0.0000  0.0000  0.0000  0.0000  0.0000 </r>
       </set>
       <set comment="band 16">
        <r>  0.0000  0.0282  0.0000  0.0282  0.0000  0.0000  0.0000  0.0000  0.0000 </r>
        <r>  0.0000  0.0282  0.0000  0.0281  0.0000  0.0000  0.0000  0.0000  0.0000 </r>
       </set>
      </set>
      <set comment="kpoint 51">
       <set comment="band 1">
        <r>  0.2121  0.0084  0.0064  0.0084  0.0000  0.0000  0.0000  0.0000  0.0000 </r>
        <r>  0.2121  0.0084  0.0064  0.0084  0.0000  0.0000  0.0000  0.0000  0.0000 </r>
       </set>
       <set comment="band 2">
        <r>  0.1614  0.0156  0.0394  0.0156  0.0000  0.0000  0.0000  0.0000  0.0000 </r>
        <r>  0.1614  0.0156  0.0394  0.0156  0.0000  0.0000  0.0000  0.0000  0.0000 </r>
       </set>
       <set comment="band 3">
        <r>  0.0143  0.0393  0.0699  0.0393  0.0000  0.0000  0.0000  0.0000  0.0000 </r>
        <r>  0.0143  0.0393  0.0699  0.0393  0.0000  0.0000  0.0000  0.0000  0.0000 </r>
       </set>
       <set comment="band 4">
        <r>  0.0000  0.1020  0.0000  0.1020  0.0000  0.0000  0.0000  0.0000  0.0000 </r>
        <r>  0.0000  0.1020  0.0000  0.1020  0.0000  0.0000  0.0000  0.0000  0.0000 </r>
       </set>
       <set comment="band 5">
        <r>  0.0573  0.0014  0.0503  0.0014  0.0000  0.0000  0.0000  0.0000  0.0000 </r>
        <r>  0.0573  0.0014  0.0503  0.0014  0.0000  0.0000  0.0000  0.0000  0.0000 </r>
       </set>
       <set comment="band 6">
        <r>  0.0000  0.0681  0.0000  0.0681  0.0000  0.0000  0.0000  0.0000  0.0000 </r>
        <r>  0.0000  0.0681  0.0000  0.0681  0.0000  0.0000  0.0000  0.0000  0.0000 </r>
       </set>
       <set comment="band 7">
        <r>  0.0387  0.0152  0.0676  0.0152  0.0000  0.0000  0.0000  0.0000  0.0000 </r>
        <r>  0.0387  0.0152  0.0676  0.0152  0.0000  0.0000  0.0000  0.0000  0.0000 </r>
       </set>
       <set comment="band 8">
        <r>  0.0458  0.0425  0.0315  0.0425  0.0000  0.0000  0.0000  0.0000  0.0000 </r>
        <r>  0.0458  0.0425  0.0315  0.0425  0.0000  0.0000  0.0000  0.0000  0.0000 </r>
       </set>
       <set comment="band 9">
        <r>  0.0000  0.0126  0.0000  0.0126  0.0000  0.0000  0.0000  0.0000  0.0000 </r>
        <r>  0.0000  0.0126  0.0000  0.0126  0.0000  0.0000  0.0000  0.0000  0.0000 </r>
       </set>
       <set comment="band 10">
        <r>  0.0288  0.0430  0.0648  0.0430  0.0000  0.0000  0.0000  0.0000  0.0000 </r>
        <r>  0.0288  0.0430  0.0648  0.0430  0.0000  0.0000  0.0000  0.0000  0.0000 </r>
       </set>
       <set comment="band 11">
        <r>  0.0262  0.0051  0.0048  0.0051  0.0000  0.0000  0.0000  0.0000  0.0000 </r>
        <r>  0.0262  0.0051  0.0048  0.0051  0.0000  0.0000  0.0000  0.0000  0.0000 </r>
       </set>
       <set comment="band 12">
        <r>  0.0125  0.0201  0.0443  0.0201  0.0000  0.0000  0.0000  0.0000  0.0000 </r>
        <r>  0.0125  0.0201  0.0443  0.0201  0.0000  0.0000  0.0000  0.0000  0.0000 </r>
       </set>
       <set comment="band 13">
        <r>  0.0081  0.0586  0.0565  0.0586  0.0000  0.0000  0.0000  0.0000  0.0000 </r>
        <r>  0.0081  0.0586  0.0565  0.0586  0.0000  0.0000  0.0000  0.0000  0.0000 </r>
       </set>
       <set comment="band 14">
        <r>  0.0000  0.0165  0.0000  0.0165  0.0000  0.0000  0.0000  0.0000  0.0000 </r>
        <r>  0.0000  0.0165  0.0000  0.0165  0.0000  0.0000  0.0000  0.0000  0.0000 </r>
       </set>
       <set comment="band 15">
        <r>  0.0281  0.0037  0.0715  0.0037  0.0000  0.0000  0.0000  0.0000  0.0000 </r>
        <r>  0.0281  0.0037  0.0715  0.0037  0.0000  0.0000  0.0000  0.0000  0.0000 </r>
       </set>
       <set comment="band 16">
        <r>  0.0000  0.0391  0.0000  0.0391  0.0000  0.0000  0.0000  0.0000  0.0000 </r>
        <r>  0.0000  0.0391  0.0000  0.0391  0.0000  0.0000  0.0000  0.0000  0.0000 </r>
       </set>
      </set>
      <set comment="kpoint 52">
       <set comment="band 1">
        <r>  0.2091  0.0086  0.0032  0.0086  0.0000  0.0000  0.0000  0.0000  0.0000 </r>
        <r>  0.2091  0.0086  0.0032  0.0086  0.0000  0.0000  0.0000  0.0000  0.0000 </r>
       </set>
       <set comment="band 2">
        <r>  0.1603  0.0189  0.0389  0.0189  0.0000  0.0000  0.0000  0.0000  0.0000 </r>
        <r>  0.1603  0.0189  0.0389  0.0189  0.0000  0.0000  0.0000  0.0000  0.0000 </r>
       </set>
       <set comment="band 3">
        <r>  0.0118  0.0373  0.0766  0.0373  0.0000  0.0000  0.0000  0.0000  0.0000 </r>
        <r>  0.0118  0.0373  0.0766  0.0373  0.0000  0.0000  0.0000  0.0000  0.0000 </r>
       </set>
       <set comment="band 4">
        <r>  0.0000  0.1036  0.0000  0.1036  0.0000  0.0000  0.0000  0.0000  0.0000 </r>
        <r>  0.0000  0.1036  0.0000  0.1036  0.0000  0.0000  0.0000  0.0000  0.0000 </r>
       </set>
       <set comment="band 5">
        <r>  0.0620  0.0014  0.0574  0.0014  0.0000  0.0000  0.0000  0.0000  0.0000 </r>
        <r>  0.0620  0.0014  0.0574  0.0014  0.0000  0.0000  0.0000  0.0000  0.0000 </r>
       </set>
       <set comment="band 6">
        <r>  0.0000  0.0747  0.0000  0.0747  0.0000  0.0000  0.0000  0.0000  0.0000 </r>
        <r>  0.0000  0.0747  0.0000  0.0747  0.0000  0.0000  0.0000  0.0000  0.0000 </r>
       </set>
       <set comment="band 7">
        <r>  0.0289  0.0001  0.1013  0.0001  0.0000  0.0000  0.0000  0.0000  0.0000 </r>
        <r>  0.0289  0.0001  0.1013  0.0001  0.0000  0.0000  0.0000  0.0000  0.0000 </r>
       </set>
       <set comment="band 8">
        <r>  0.0731  0.0500  0.0269  0.0500  0.0000  0.0000  0.0000  0.0000  0.0000 </r>
        <r>  0.0731  0.0500  0.0269  0.0500  0.0000  0.0000  0.0000  0.0000  0.0000 </r>
       </set>
       <set comment="band 9">
        <r>  0.0000  0.0045  0.0000  0.0045  0.0000  0.0000  0.0000  0.0000  0.0000 </r>
        <r>  0.0000  0.0045  0.0000  0.0045  0.0000  0.0000  0.0000  0.0000  0.0000 </r>
       </set>
       <set comment="band 10">
        <r>  0.0095  0.0509  0.0361  0.0509  0.0000  0.0000  0.0000  0.0000  0.0000 </r>
        <r>  0.0095  0.0509  0.0361  0.0509  0.0000  0.0000  0.0000  0.0000  0.0000 </r>
       </set>
       <set comment="band 11">
        <r>  0.0301  0.0073  0.0084  0.0073  0.0000  0.0000  0.0000  0.0000  0.0000 </r>
        <r>  0.0301  0.0073  0.0084  0.0073  0.0000  0.0000  0.0000  0.0000  0.0000 </r>
       </set>
       <set comment="band 12">
        <r>  0.0307  0.0044  0.0125  0.0044  0.0000  0.0000  0.0000  0.0000  0.0000 </r>
        <r>  0.0307  0.0044  0.0125  0.0044  0.0000  0.0000  0.0000  0.0000  0.0000 </r>
       </set>
       <set comment="band 13">
        <r>  0.0185  0.0505  0.0264  0.0505  0.0000  0.0000  0.0000  0.0000  0.0000 </r>
        <r>  0.0185  0.0505  0.0264  0.0505  0.0000  0.0000  0.0000  0.0000  0.0000 </r>
       </set>
       <set comment="band 14">
        <r>  0.0000  0.0058  0.0000  0.0058  0.0000  0.0000  0.0000  0.0000  0.0000 </r>
        <r>  0.0000  0.0058  0.0000  0.0058  0.0000  0.0000  0.0000  0.0000  0.0000 </r>
       </set>
       <set comment="band 15">
        <r>  0.0067  0.0124  0.1293  0.0124  0.0000  0.0000  0.0000  0.0000  0.0000 </r>
        <r>  0.0067  0.0124  0.1293  0.0124  0.0000  0.0000  0.0000  0.0000  0.0000 </r>
       </set>
       <set comment="band 16">
        <r>  0.0005  0.0356  0.0012  0.0356  0.0000  0.0000  0.0000  0.0000  0.0000 </r>
        <r>  0.0005  0.0356  0.0012  0.0356  0.0000  0.0000  0.0000  0.0000  0.0000 </r>
       </set>
      </set>
      <set comment="kpoint 53">
       <set comment="band 1">
        <r>  0.2032  0.0000  0.0201  0.0000  0.0000  0.0000  0.0000  0.0000  0.0000 </r>
        <r>  0.2032  0.0000  0.0201  0.0000  0.0000  0.0000  0.0000  0.0000  0.0000 </r>
       </set>
       <set comment="band 2">
        <r>  0.1752  0.0000  0.0762  0.0000  0.0000  0.0000  0.0000  0.0000  0.0000 </r>
        <r>  0.1752  0.0000  0.0762  0.0000  0.0000  0.0000  0.0000  0.0000  0.0000 </r>
       </set>
       <set comment="band 3">
        <r>  0.0000  0.0982  0.0000  0.0970  0.0000  0.0000  0.0000  0.0000  0.0000 </r>
        <r>  0.0000  0.0970  0.0000  0.0983  0.0000  0.0000  0.0000  0.0000  0.0000 </r>
       </set>
       <set comment="band 4">
        <r>  0.0000  0.0970  0.0000  0.0982  0.0000  0.0000  0.0000  0.0000  0.0000 </r>
        <r>  0.0000  0.0983  0.0000  0.0970  0.0000  0.0000  0.0000  0.0000  0.0000 </r>
       </set>
       <set comment="band 5">
        <r>  0.0497  0.0000  0.0584  0.0000  0.0000  0.0000  0.0000  0.0000  0.0000 </r>
        <r>  0.0497  0.0000  0.0584  0.0000  0.0000  0.0000  0.0000  0.0000  0.0000 </r>
       </set>
       <set comment="band 6">
        <r>  0.0443  0.0000  0.0326  0.0000  0.0000  0.0000  0.0000  0.0000  0.0000 </r>
        <r>  0.0443  0.0000  0.0326  0.0000  0.0000  0.0000  0.0000  0.0000  0.0000 </r>
       </set>
       <set comment="band 7">
        <r>  0.0000  0.0834  0.0000  0.0828  0.0000  0.0000  0.0000  0.0000  0.0000 </r>
        <r>  0.0000  0.0828  0.0000  0.0834  0.0000  0.0000  0.0000  0.0000  0.0000 </r>
       </set>
       <set comment="band 8">
        <r>  0.0000  0.0828  0.0000  0.0834  0.0000  0.0000  0.0000  0.0000  0.0000 </r>
        <r>  0.0000  0.0834  0.0000  0.0828  0.0000  0.0000  0.0000  0.0000  0.0000 </r>
       </set>
       <set comment="band 9">
        <r>  0.1308  0.0000  0.1366  0.0000  0.0000  0.0000  0.0000  0.0000  0.0000 </r>
        <r>  0.1308  0.0000  0.1366  0.0000  0.0000  0.0000  0.0000  0.0000  0.0000 </r>
       </set>
       <set comment="band 10">
        <r>  0.0000  0.0000  0.0000  0.0000  0.0000  0.0000  0.0000  0.0000  0.0000 </r>
        <r>  0.0000  0.0000  0.0000  0.0000  0.0000  0.0000  0.0000  0.0000  0.0000 </r>
       </set>
       <set comment="band 11">
        <r>  0.0065  0.0000  0.1646  0.0000  0.0000  0.0000  0.0000  0.0000  0.0000 </r>
        <r>  0.0065  0.0000  0.1646  0.0000  0.0000  0.0000  0.0000  0.0000  0.0000 </r>
       </set>
       <set comment="band 12">
        <r>  0.0000  0.0231  0.0000  0.0231  0.0000  0.0000  0.0000  0.0000  0.0000 </r>
        <r>  0.0000  0.0231  0.0000  0.0231  0.0000  0.0000  0.0000  0.0000  0.0000 </r>
       </set>
       <set comment="band 13">
        <r>  0.0000  0.0231  0.0000  0.0231  0.0000  0.0000  0.0000  0.0000  0.0000 </r>
        <r>  0.0000  0.0231  0.0000  0.0231  0.0000  0.0000  0.0000  0.0000  0.0000 </r>
       </set>
       <set comment="band 14">
        <r>  0.0049  0.0000  0.0028  0.0000  0.0000  0.0000  0.0000  0.0000  0.0000 </r>
        <r>  0.0049  0.0000  0.0028  0.0000  0.0000  0.0000  0.0000  0.0000  0.0000 </r>
       </set>
       <set comment="band 15">
        <r>  0.0000  0.0000  0.0000  0.0000  0.0000  0.0000  0.0000  0.0000  0.0000 </r>
        <r>  0.0000  0.0000  0.0000  0.0000  0.0000  0.0000  0.0000  0.0000  0.0000 </r>
       </set>
       <set comment="band 16">
        <r>  0.0000  0.0434  0.0000  0.0419  0.0000  0.0000  0.0000  0.0000  0.0000 </r>
        <r>  0.0000  0.0442  0.0000  0.0411  0.0000  0.0000  0.0000  0.0000  0.0000 </r>
       </set>
      </set>
      <set comment="kpoint 54">
       <set comment="band 1">
        <r>  0.2018  0.0002  0.0239  0.0002  0.0000  0.0000  0.0000  0.0000  0.0000 </r>
        <r>  0.2018  0.0002  0.0239  0.0002  0.0000  0.0000  0.0000  0.0000  0.0000 </r>
       </set>
       <set comment="band 2">
        <r>  0.1802  0.0015  0.0658  0.0015  0.0000  0.0000  0.0000  0.0000  0.0000 </r>
        <r>  0.1802  0.0015  0.0658  0.0015  0.0000  0.0000  0.0000  0.0000  0.0000 </r>
       </set>
       <set comment="band 3">
        <r>  0.0026  0.0881  0.0085  0.0881  0.0000  0.0000  0.0000  0.0000  0.0000 </r>
        <r>  0.0026  0.0881  0.0085  0.0881  0.0000  0.0000  0.0000  0.0000  0.0000 </r>
       </set>
       <set comment="band 4">
        <r>  0.0000  0.0977  0.0000  0.0977  0.0000  0.0000  0.0000  0.0000  0.0000 </r>
        <r>  0.0000  0.0977  0.0000  0.0977  0.0000  0.0000  0.0000  0.0000  0.0000 </r>
       </set>
       <set comment="band 5">
        <r>  0.0485  0.0042  0.0497  0.0042  0.0000  0.0000  0.0000  0.0000  0.0000 </r>
        <r>  0.0485  0.0042  0.0497  0.0042  0.0000  0.0000  0.0000  0.0000  0.0000 </r>
       </set>
       <set comment="band 6">
        <r>  0.0439  0.0040  0.0297  0.0040  0.0000  0.0000  0.0000  0.0000  0.0000 </r>
        <r>  0.0439  0.0040  0.0297  0.0040  0.0000  0.0000  0.0000  0.0000  0.0000 </r>
       </set>
       <set comment="band 7">
        <r>  0.0160  0.0718  0.0138  0.0718  0.0000  0.0000  0.0000  0.0000  0.0000 </r>
        <r>  0.0160  0.0718  0.0138  0.0718  0.0000  0.0000  0.0000  0.0000  0.0000 </r>
       </set>
       <set comment="band 8">
        <r>  0.0000  0.0766  0.0000  0.0766  0.0000  0.0000  0.0000  0.0000  0.0000 </r>
        <r>  0.0000  0.0766  0.0000  0.0766  0.0000  0.0000  0.0000  0.0000  0.0000 </r>
       </set>
       <set comment="band 9">
        <r>  0.0000  0.0062  0.0000  0.0062  0.0000  0.0000  0.0000  0.0000  0.0000 </r>
        <r>  0.0000  0.0062  0.0000  0.0062  0.0000  0.0000  0.0000  0.0000  0.0000 </r>
       </set>
       <set comment="band 10">
        <r>  0.1022  0.0120  0.1382  0.0120  0.0000  0.0000  0.0000  0.0000  0.0000 </r>
        <r>  0.1022  0.0120  0.1382  0.0120  0.0000  0.0000  0.0000  0.0000  0.0000 </r>
       </set>
       <set comment="band 11">
        <r>  0.0017  0.0204  0.0792  0.0204  0.0000  0.0000  0.0000  0.0000  0.0000 </r>
        <r>  0.0017  0.0204  0.0792  0.0204  0.0000  0.0000  0.0000  0.0000  0.0000 </r>
       </set>
       <set comment="band 12">
        <r>  0.0000  0.0307  0.0000  0.0307  0.0000  0.0000  0.0000  0.0000  0.0000 </r>
        <r>  0.0000  0.0307  0.0000  0.0307  0.0000  0.0000  0.0000  0.0000  0.0000 </r>
       </set>
       <set comment="band 13">
        <r>  0.0024  0.0075  0.1111  0.0075  0.0000  0.0000  0.0000  0.0000  0.0000 </r>
        <r>  0.0024  0.0075  0.1111  0.0075  0.0000  0.0000  0.0000  0.0000  0.0000 </r>
       </set>
       <set comment="band 14">
        <r>  0.0044  0.0143  0.0024  0.0143  0.0000  0.0000  0.0000  0.0000  0.0000 </r>
        <r>  0.0044  0.0143  0.0024  0.0143  0.0000  0.0000  0.0000  0.0000  0.0000 </r>
       </set>
       <set comment="band 15">
        <r>  0.0000  0.0031  0.0000  0.0031  0.0000  0.0000  0.0000  0.0000  0.0000 </r>
        <r>  0.0000  0.0031  0.0000  0.0031  0.0000  0.0000  0.0000  0.0000  0.0000 </r>
       </set>
       <set comment="band 16">
        <r>  0.0000  0.0326  0.0000  0.0330  0.0000  0.0000  0.0000  0.0000  0.0000 </r>
        <r>  0.0000  0.0325  0.0000  0.0331  0.0000  0.0000  0.0000  0.0000  0.0000 </r>
       </set>
      </set>
      <set comment="kpoint 55">
       <set comment="band 1">
        <r>  0.2018  0.0007  0.0270  0.0007  0.0000  0.0000  0.0000  0.0000  0.0000 </r>
        <r>  0.2018  0.0007  0.0270  0.0007  0.0000  0.0000  0.0000  0.0000  0.0000 </r>
       </set>
       <set comment="band 2">
        <r>  0.1844  0.0043  0.0532  0.0043  0.0000  0.0000  0.0000  0.0000  0.0000 </r>
        <r>  0.1844  0.0043  0.0532  0.0043  0.0000  0.0000  0.0000  0.0000  0.0000 </r>
       </set>
       <set comment="band 3">
        <r>  0.0051  0.0728  0.0229  0.0728  0.0000  0.0000  0.0000  0.0000  0.0000 </r>
        <r>  0.0051  0.0728  0.0229  0.0728  0.0000  0.0000  0.0000  0.0000  0.0000 </r>
       </set>
       <set comment="band 4">
        <r>  0.0000  0.0980  0.0000  0.0980  0.0000  0.0000  0.0000  0.0000  0.0000 </r>
        <r>  0.0000  0.0980  0.0000  0.0980  0.0000  0.0000  0.0000  0.0000  0.0000 </r>
       </set>
       <set comment="band 5">
        <r>  0.0487  0.0029  0.0430  0.0029  0.0000  0.0000  0.0000  0.0000  0.0000 </r>
        <r>  0.0487  0.0029  0.0430  0.0029  0.0000  0.0000  0.0000  0.0000  0.0000 </r>
       </set>
       <set comment="band 6">
        <r>  0.0384  0.0182  0.0248  0.0182  0.0000  0.0000  0.0000  0.0000  0.0000 </r>
        <r>  0.0384  0.0182  0.0248  0.0182  0.0000  0.0000  0.0000  0.0000  0.0000 </r>
       </set>
       <set comment="band 7">
        <r>  0.0346  0.0560  0.0341  0.0560  0.0000  0.0000  0.0000  0.0000  0.0000 </r>
        <r>  0.0346  0.0560  0.0341  0.0560  0.0000  0.0000  0.0000  0.0000  0.0000 </r>
       </set>
       <set comment="band 8">
        <r>  0.0000  0.0668  0.0000  0.0668  0.0000  0.0000  0.0000  0.0000  0.0000 </r>
        <r>  0.0000  0.0668  0.0000  0.0668  0.0000  0.0000  0.0000  0.0000  0.0000 </r>
       </set>
       <set comment="band 9">
        <r>  0.0111  0.0405  0.0767  0.0405  0.0000  0.0000  0.0000  0.0000  0.0000 </r>
        <r>  0.0111  0.0405  0.0767  0.0405  0.0000  0.0000  0.0000  0.0000  0.0000 </r>
       </set>
       <set comment="band 10">
        <r>  0.0000  0.0234  0.0000  0.0234  0.0000  0.0000  0.0000  0.0000  0.0000 </r>
        <r>  0.0000  0.0234  0.0000  0.0234  0.0000  0.0000  0.0000  0.0000  0.0000 </r>
       </set>
       <set comment="band 11">
        <r>  0.0000  0.0227  0.0000  0.0227  0.0000  0.0000  0.0000  0.0000  0.0000 </r>
        <r>  0.0000  0.0227  0.0000  0.0227  0.0000  0.0000  0.0000  0.0000  0.0000 </r>
       </set>
       <set comment="band 12">
        <r>  0.0673  0.0107  0.1410  0.0107  0.0000  0.0000  0.0000  0.0000  0.0000 </r>
        <r>  0.0673  0.0107  0.1410  0.0107  0.0000  0.0000  0.0000  0.0000  0.0000 </r>
       </set>
       <set comment="band 13">
        <r>  0.0073  0.0185  0.0276  0.0185  0.0000  0.0000  0.0000  0.0000  0.0000 </r>
        <r>  0.0073  0.0185  0.0276  0.0185  0.0000  0.0000  0.0000  0.0000  0.0000 </r>
       </set>
       <set comment="band 14">
        <r>  0.0060  0.0003  0.0992  0.0003  0.0000  0.0000  0.0000  0.0000  0.0000 </r>
        <r>  0.0060  0.0003  0.0992  0.0003  0.0000  0.0000  0.0000  0.0000  0.0000 </r>
       </set>
       <set comment="band 15">
        <r>  0.0000  0.0098  0.0000  0.0098  0.0000  0.0000  0.0000  0.0000  0.0000 </r>
        <r>  0.0000  0.0098  0.0000  0.0098  0.0000  0.0000  0.0000  0.0000  0.0000 </r>
       </set>
       <set comment="band 16">
        <r>  0.0000  0.0269  0.0000  0.0269  0.0000  0.0000  0.0000  0.0000  0.0000 </r>
        <r>  0.0000  0.0268  0.0000  0.0269  0.0000  0.0000  0.0000  0.0000  0.0000 </r>
       </set>
      </set>
      <set comment="kpoint 56">
       <set comment="band 1">
        <r>  0.2052  0.0018  0.0275  0.0018  0.0000  0.0000  0.0000  0.0000  0.0000 </r>
        <r>  0.2052  0.0018  0.0275  0.0018  0.0000  0.0000  0.0000  0.0000  0.0000 </r>
       </set>
       <set comment="band 2">
        <r>  0.1849  0.0069  0.0428  0.0069  0.0000  0.0000  0.0000  0.0000  0.0000 </r>
        <r>  0.1849  0.0069  0.0428  0.0069  0.0000  0.0000  0.0000  0.0000  0.0000 </r>
       </set>
       <set comment="band 3">
        <r>  0.0048  0.0610  0.0361  0.0610  0.0000  0.0000  0.0000  0.0000  0.0000 </r>
        <r>  0.0048  0.0610  0.0361  0.0610  0.0000  0.0000  0.0000  0.0000  0.0000 </r>
       </set>
       <set comment="band 4">
        <r>  0.0000  0.0985  0.0000  0.0985  0.0000  0.0000  0.0000  0.0000  0.0000 </r>
        <r>  0.0000  0.0985  0.0000  0.0985  0.0000  0.0000  0.0000  0.0000  0.0000 </r>
       </set>
       <set comment="band 5">
        <r>  0.0507  0.0012  0.0408  0.0012  0.0000  0.0000  0.0000  0.0000  0.0000 </r>
        <r>  0.0507  0.0012  0.0408  0.0012  0.0000  0.0000  0.0000  0.0000  0.0000 </r>
       </set>
       <set comment="band 6">
        <r>  0.0305  0.0299  0.0192  0.0299  0.0000  0.0000  0.0000  0.0000  0.0000 </r>
        <r>  0.0305  0.0299  0.0192  0.0299  0.0000  0.0000  0.0000  0.0000  0.0000 </r>
       </set>
       <set comment="band 7">
        <r>  0.0000  0.0635  0.0000  0.0635  0.0000  0.0000  0.0000  0.0000  0.0000 </r>
        <r>  0.0000  0.0635  0.0000  0.0635  0.0000  0.0000  0.0000  0.0000  0.0000 </r>
       </set>
       <set comment="band 8">
        <r>  0.0448  0.0432  0.0517  0.0432  0.0000  0.0000  0.0000  0.0000  0.0000 </r>
        <r>  0.0448  0.0432  0.0517  0.0432  0.0000  0.0000  0.0000  0.0000  0.0000 </r>
       </set>
       <set comment="band 9">
        <r>  0.0211  0.0366  0.0765  0.0366  0.0000  0.0000  0.0000  0.0000  0.0000 </r>
        <r>  0.0211  0.0366  0.0765  0.0366  0.0000  0.0000  0.0000  0.0000  0.0000 </r>
       </set>
       <set comment="band 10">
        <r>  0.0000  0.0254  0.0000  0.0254  0.0000  0.0000  0.0000  0.0000  0.0000 </r>
        <r>  0.0000  0.0254  0.0000  0.0254  0.0000  0.0000  0.0000  0.0000  0.0000 </r>
       </set>
       <set comment="band 11">
        <r>  0.0000  0.0208  0.0000  0.0208  0.0000  0.0000  0.0000  0.0000  0.0000 </r>
        <r>  0.0000  0.0208  0.0000  0.0208  0.0000  0.0000  0.0000  0.0000  0.0000 </r>
       </set>
       <set comment="band 12">
        <r>  0.0410  0.0266  0.1508  0.0266  0.0000  0.0000  0.0000  0.0000  0.0000 </r>
        <r>  0.0410  0.0266  0.1508  0.0266  0.0000  0.0000  0.0000  0.0000  0.0000 </r>
       </set>
       <set comment="band 13">
        <r>  0.0117  0.0126  0.0095  0.0126  0.0000  0.0000  0.0000  0.0000  0.0000 </r>
        <r>  0.0117  0.0126  0.0095  0.0126  0.0000  0.0000  0.0000  0.0000  0.0000 </r>
       </set>
       <set comment="band 14">
        <r>  0.0000  0.0186  0.0000  0.0186  0.0000  0.0000  0.0000  0.0000  0.0000 </r>
        <r>  0.0000  0.0186  0.0000  0.0186  0.0000  0.0000  0.0000  0.0000  0.0000 </r>
       </set>
       <set comment="band 15">
        <r>  0.0141  0.0029  0.1155  0.0029  0.0000  0.0000  0.0000  0.0000  0.0000 </r>
        <r>  0.0141  0.0029  0.1155  0.0029  0.0000  0.0000  0.0000  0.0000  0.0000 </r>
       </set>
       <set comment="band 16">
        <r>  0.0132  0.0100  0.0094  0.0100  0.0000  0.0000  0.0000  0.0000  0.0000 </r>
        <r>  0.0132  0.0100  0.0094  0.0100  0.0000  0.0000  0.0000  0.0000  0.0000 </r>
       </set>
      </set>
      <set comment="kpoint 57">
       <set comment="band 1">
        <r>  0.2128  0.0046  0.0206  0.0046  0.0000  0.0000  0.0000  0.0000  0.0000 </r>
        <r>  0.2128  0.0046  0.0206  0.0046  0.0000  0.0000  0.0000  0.0000  0.0000 </r>
       </set>
       <set comment="band 2">
        <r>  0.1797  0.0081  0.0407  0.0081  0.0000  0.0000  0.0000  0.0000  0.0000 </r>
        <r>  0.1797  0.0081  0.0407  0.0081  0.0000  0.0000  0.0000  0.0000  0.0000 </r>
       </set>
       <set comment="band 3">
        <r>  0.0030  0.0526  0.0476  0.0526  0.0000  0.0000  0.0000  0.0000  0.0000 </r>
        <r>  0.0030  0.0526  0.0476  0.0526  0.0000  0.0000  0.0000  0.0000  0.0000 </r>
       </set>
       <set comment="band 4">
        <r>  0.0000  0.0993  0.0000  0.0993  0.0000  0.0000  0.0000  0.0000  0.0000 </r>
        <r>  0.0000  0.0993  0.0000  0.0993  0.0000  0.0000  0.0000  0.0000  0.0000 </r>
       </set>
       <set comment="band 5">
        <r>  0.0523  0.0010  0.0415  0.0010  0.0000  0.0000  0.0000  0.0000  0.0000 </r>
        <r>  0.0523  0.0010  0.0415  0.0010  0.0000  0.0000  0.0000  0.0000  0.0000 </r>
       </set>
       <set comment="band 6">
        <r>  0.0215  0.0369  0.0129  0.0369  0.0000  0.0000  0.0000  0.0000  0.0000 </r>
        <r>  0.0215  0.0369  0.0129  0.0369  0.0000  0.0000  0.0000  0.0000  0.0000 </r>
       </set>
       <set comment="band 7">
        <r>  0.0000  0.0687  0.0000  0.0687  0.0000  0.0000  0.0000  0.0000  0.0000 </r>
        <r>  0.0000  0.0687  0.0000  0.0687  0.0000  0.0000  0.0000  0.0000  0.0000 </r>
       </set>
       <set comment="band 8">
        <r>  0.0484  0.0304  0.0715  0.0304  0.0000  0.0000  0.0000  0.0000  0.0000 </r>
        <r>  0.0484  0.0304  0.0715  0.0304  0.0000  0.0000  0.0000  0.0000  0.0000 </r>
       </set>
       <set comment="band 9">
        <r>  0.0374  0.0393  0.0715  0.0393  0.0000  0.0000  0.0000  0.0000  0.0000 </r>
        <r>  0.0374  0.0393  0.0715  0.0393  0.0000  0.0000  0.0000  0.0000  0.0000 </r>
       </set>
       <set comment="band 10">
        <r>  0.0000  0.0165  0.0000  0.0165  0.0000  0.0000  0.0000  0.0000  0.0000 </r>
        <r>  0.0000  0.0165  0.0000  0.0165  0.0000  0.0000  0.0000  0.0000  0.0000 </r>
       </set>
       <set comment="band 11">
        <r>  0.0101  0.0268  0.0711  0.0268  0.0000  0.0000  0.0000  0.0000  0.0000 </r>
        <r>  0.0101  0.0268  0.0711  0.0268  0.0000  0.0000  0.0000  0.0000  0.0000 </r>
       </set>
       <set comment="band 12">
        <r>  0.0000  0.0175  0.0000  0.0175  0.0000  0.0000  0.0000  0.0000  0.0000 </r>
        <r>  0.0000  0.0175  0.0000  0.0175  0.0000  0.0000  0.0000  0.0000  0.0000 </r>
       </set>
       <set comment="band 13">
        <r>  0.0183  0.0174  0.1017  0.0174  0.0000  0.0000  0.0000  0.0000  0.0000 </r>
        <r>  0.0183  0.0174  0.1017  0.0174  0.0000  0.0000  0.0000  0.0000  0.0000 </r>
       </set>
       <set comment="band 14">
        <r>  0.0000  0.0299  0.0000  0.0299  0.0000  0.0000  0.0000  0.0000  0.0000 </r>
        <r>  0.0000  0.0299  0.0000  0.0299  0.0000  0.0000  0.0000  0.0000  0.0000 </r>
       </set>
       <set comment="band 15">
        <r>  0.0101  0.0101  0.0352  0.0101  0.0000  0.0000  0.0000  0.0000  0.0000 </r>
        <r>  0.0101  0.0101  0.0352  0.0101  0.0000  0.0000  0.0000  0.0000  0.0000 </r>
       </set>
       <set comment="band 16">
        <r>  0.0383  0.0046  0.0681  0.0046  0.0000  0.0000  0.0000  0.0000  0.0000 </r>
        <r>  0.0383  0.0046  0.0681  0.0046  0.0000  0.0000  0.0000  0.0000  0.0000 </r>
       </set>
      </set>
      <set comment="kpoint 58">
       <set comment="band 1">
        <r>  0.2134  0.0076  0.0118  0.0076  0.0000  0.0000  0.0000  0.0000  0.0000 </r>
        <r>  0.2134  0.0076  0.0118  0.0076  0.0000  0.0000  0.0000  0.0000  0.0000 </r>
       </set>
       <set comment="band 2">
        <r>  0.1764  0.0098  0.0414  0.0098  0.0000  0.0000  0.0000  0.0000  0.0000 </r>
        <r>  0.1764  0.0098  0.0414  0.0098  0.0000  0.0000  0.0000  0.0000  0.0000 </r>
       </set>
       <set comment="band 3">
        <r>  0.0035  0.0460  0.0586  0.0460  0.0000  0.0000  0.0000  0.0000  0.0000 </r>
        <r>  0.0035  0.0460  0.0586  0.0460  0.0000  0.0000  0.0000  0.0000  0.0000 </r>
       </set>
       <set comment="band 4">
        <r>  0.0000  0.1004  0.0000  0.1004  0.0000  0.0000  0.0000  0.0000  0.0000 </r>
        <r>  0.0000  0.1004  0.0000  0.1004  0.0000  0.0000  0.0000  0.0000  0.0000 </r>
       </set>
       <set comment="band 5">
        <r>  0.0540  0.0012  0.0445  0.0012  0.0000  0.0000  0.0000  0.0000  0.0000 </r>
        <r>  0.0540  0.0012  0.0445  0.0012  0.0000  0.0000  0.0000  0.0000  0.0000 </r>
       </set>
       <set comment="band 6">
        <r>  0.0068  0.0377  0.0012  0.0377  0.0000  0.0000  0.0000  0.0000  0.0000 </r>
        <r>  0.0068  0.0377  0.0012  0.0377  0.0000  0.0000  0.0000  0.0000  0.0000 </r>
       </set>
       <set comment="band 7">
        <r>  0.0000  0.0765  0.0000  0.0765  0.0000  0.0000  0.0000  0.0000  0.0000 </r>
        <r>  0.0000  0.0765  0.0000  0.0765  0.0000  0.0000  0.0000  0.0000  0.0000 </r>
       </set>
       <set comment="band 8">
        <r>  0.0442  0.0040  0.1249  0.0040  0.0000  0.0000  0.0000  0.0000  0.0000 </r>
        <r>  0.0442  0.0040  0.1249  0.0040  0.0000  0.0000  0.0000  0.0000  0.0000 </r>
       </set>
       <set comment="band 9">
        <r>  0.0625  0.0615  0.0355  0.0615  0.0000  0.0000  0.0000  0.0000  0.0000 </r>
        <r>  0.0625  0.0615  0.0355  0.0615  0.0000  0.0000  0.0000  0.0000  0.0000 </r>
       </set>
       <set comment="band 10">
        <r>  0.0000  0.0063  0.0000  0.0063  0.0000  0.0000  0.0000  0.0000  0.0000 </r>
        <r>  0.0000  0.0063  0.0000  0.0063  0.0000  0.0000  0.0000  0.0000  0.0000 </r>
       </set>
       <set comment="band 11">
        <r>  0.0122  0.0131  0.0205  0.0131  0.0000  0.0000  0.0000  0.0000  0.0000 </r>
        <r>  0.0122  0.0131  0.0205  0.0131  0.0000  0.0000  0.0000  0.0000  0.0000 </r>
       </set>
       <set comment="band 12">
        <r>  0.0137  0.0119  0.0236  0.0119  0.0000  0.0000  0.0000  0.0000  0.0000 </r>
        <r>  0.0137  0.0119  0.0236  0.0119  0.0000  0.0000  0.0000  0.0000  0.0000 </r>
       </set>
       <set comment="band 13">
        <r>  0.0086  0.0350  0.1542  0.0350  0.0000  0.0000  0.0000  0.0000  0.0000 </r>
        <r>  0.0086  0.0350  0.1542  0.0350  0.0000  0.0000  0.0000  0.0000  0.0000 </r>
       </set>
       <set comment="band 14">
        <r>  0.0000  0.0020  0.0000  0.0020  0.0000  0.0000  0.0000  0.0000  0.0000 </r>
        <r>  0.0000  0.0020  0.0000  0.0020  0.0000  0.0000  0.0000  0.0000  0.0000 </r>
       </set>
       <set comment="band 15">
        <r>  0.0000  0.0506  0.0000  0.0506  0.0000  0.0000  0.0000  0.0000  0.0000 </r>
        <r>  0.0000  0.0506  0.0000  0.0506  0.0000  0.0000  0.0000  0.0000  0.0000 </r>
       </set>
       <set comment="band 16">
        <r>  0.0211  0.0289  0.0001  0.0289  0.0000  0.0000  0.0000  0.0000  0.0000 </r>
        <r>  0.0211  0.0289  0.0000  0.0289  0.0000  0.0000  0.0000  0.0000  0.0000 </r>
       </set>
      </set>
      <set comment="kpoint 59">
       <set comment="band 1">
        <r>  0.1997  0.0000  0.0286  0.0000  0.0000  0.0000  0.0000  0.0000  0.0000 </r>
        <r>  0.1997  0.0000  0.0286  0.0000  0.0000  0.0000  0.0000  0.0000  0.0000 </r>
       </set>
       <set comment="band 2">
        <r>  0.1843  0.0000  0.0622  0.0000  0.0000  0.0000  0.0000  0.0000  0.0000 </r>
        <r>  0.1843  0.0000  0.0622  0.0000  0.0000  0.0000  0.0000  0.0000  0.0000 </r>
       </set>
       <set comment="band 3">
        <r>  0.0000  0.0979  0.0000  0.0971  0.0000  0.0000  0.0000  0.0000  0.0000 </r>
        <r>  0.0000  0.0968  0.0000  0.0982  0.0000  0.0000  0.0000  0.0000  0.0000 </r>
       </set>
       <set comment="band 4">
        <r>  0.0000  0.0971  0.0000  0.0979  0.0000  0.0000  0.0000  0.0000  0.0000 </r>
        <r>  0.0000  0.0982  0.0000  0.0968  0.0000  0.0000  0.0000  0.0000  0.0000 </r>
       </set>
       <set comment="band 5">
        <r>  0.0523  0.0000  0.0472  0.0000  0.0000  0.0000  0.0000  0.0000  0.0000 </r>
        <r>  0.0523  0.0000  0.0472  0.0000  0.0000  0.0000  0.0000  0.0000  0.0000 </r>
       </set>
       <set comment="band 6">
        <r>  0.0465  0.0000  0.0316  0.0000  0.0000  0.0000  0.0000  0.0000  0.0000 </r>
        <r>  0.0465  0.0000  0.0316  0.0000  0.0000  0.0000  0.0000  0.0000  0.0000 </r>
       </set>
       <set comment="band 7">
        <r>  0.0000  0.0843  0.0000  0.0842  0.0000  0.0000  0.0000  0.0000  0.0000 </r>
        <r>  0.0000  0.0843  0.0000  0.0843  0.0000  0.0000  0.0000  0.0000  0.0000 </r>
       </set>
       <set comment="band 8">
        <r>  0.0000  0.0842  0.0000  0.0843  0.0000  0.0000  0.0000  0.0000  0.0000 </r>
        <r>  0.0000  0.0843  0.0000  0.0843  0.0000  0.0000  0.0000  0.0000  0.0000 </r>
       </set>
       <set comment="band 9">
        <r>  0.0000  0.0000  0.0000  0.0000  0.0000  0.0000  0.0000  0.0000  0.0000 </r>
        <r>  0.0000  0.0000  0.0000  0.0000  0.0000  0.0000  0.0000  0.0000  0.0000 </r>
       </set>
       <set comment="band 10">
        <r>  0.1068  0.0000  0.1655  0.0000  0.0000  0.0000  0.0000  0.0000  0.0000 </r>
        <r>  0.1068  0.0000  0.1655  0.0000  0.0000  0.0000  0.0000  0.0000  0.0000 </r>
       </set>
       <set comment="band 11">
        <r>  0.0000  0.0359  0.0000  0.0364  0.0000  0.0000  0.0000  0.0000  0.0000 </r>
        <r>  0.0000  0.0343  0.0000  0.0380  0.0000  0.0000  0.0000  0.0000  0.0000 </r>
       </set>
       <set comment="band 12">
        <r>  0.0000  0.0364  0.0000  0.0359  0.0000  0.0000  0.0000  0.0000  0.0000 </r>
        <r>  0.0000  0.0380  0.0000  0.0343  0.0000  0.0000  0.0000  0.0000  0.0000 </r>
       </set>
       <set comment="band 13">
        <r>  0.0035  0.0000  0.2173  0.0000  0.0000  0.0000  0.0000  0.0000  0.0000 </r>
        <r>  0.0035  0.0000  0.2173  0.0000  0.0000  0.0000  0.0000  0.0000  0.0000 </r>
       </set>
       <set comment="band 14">
        <r>  0.0000  0.0000  0.0000  0.0000  0.0000  0.0000  0.0000  0.0000  0.0000 </r>
        <r>  0.0000  0.0000  0.0000  0.0000  0.0000  0.0000  0.0000  0.0000  0.0000 </r>
       </set>
       <set comment="band 15">
        <r>  0.0009  0.0000  0.0034  0.0000  0.0000  0.0000  0.0000  0.0000  0.0000 </r>
        <r>  0.0009  0.0000  0.0034  0.0000  0.0000  0.0000  0.0000  0.0000  0.0000 </r>
       </set>
       <set comment="band 16">
        <r>  0.0000  0.0036  0.0000  0.0552  0.0000  0.0000  0.0000  0.0000  0.0000 </r>
        <r>  0.0000  0.0086  0.0000  0.0502  0.0000  0.0000  0.0000  0.0000  0.0000 </r>
       </set>
      </set>
      <set comment="kpoint 60">
       <set comment="band 1">
        <r>  0.1983  0.0002  0.0329  0.0002  0.0000  0.0000  0.0000  0.0000  0.0000 </r>
        <r>  0.1983  0.0002  0.0329  0.0002  0.0000  0.0000  0.0000  0.0000  0.0000 </r>
       </set>
       <set comment="band 2">
        <r>  0.1885  0.0006  0.0542  0.0006  0.0000  0.0000  0.0000  0.0000  0.0000 </r>
        <r>  0.1885  0.0006  0.0542  0.0006  0.0000  0.0000  0.0000  0.0000  0.0000 </r>
       </set>
       <set comment="band 3">
        <r>  0.0019  0.0887  0.0065  0.0887  0.0000  0.0000  0.0000  0.0000  0.0000 </r>
        <r>  0.0019  0.0887  0.0065  0.0887  0.0000  0.0000  0.0000  0.0000  0.0000 </r>
       </set>
       <set comment="band 4">
        <r>  0.0000  0.0976  0.0000  0.0976  0.0000  0.0000  0.0000  0.0000  0.0000 </r>
        <r>  0.0000  0.0976  0.0000  0.0976  0.0000  0.0000  0.0000  0.0000  0.0000 </r>
       </set>
       <set comment="band 5">
        <r>  0.0506  0.0024  0.0408  0.0024  0.0000  0.0000  0.0000  0.0000  0.0000 </r>
        <r>  0.0506  0.0024  0.0408  0.0024  0.0000  0.0000  0.0000  0.0000  0.0000 </r>
       </set>
       <set comment="band 6">
        <r>  0.0458  0.0059  0.0301  0.0059  0.0000  0.0000  0.0000  0.0000  0.0000 </r>
        <r>  0.0458  0.0059  0.0301  0.0059  0.0000  0.0000  0.0000  0.0000  0.0000 </r>
       </set>
       <set comment="band 7">
        <r>  0.0000  0.0786  0.0000  0.0786  0.0000  0.0000  0.0000  0.0000  0.0000 </r>
        <r>  0.0000  0.0786  0.0000  0.0786  0.0000  0.0000  0.0000  0.0000  0.0000 </r>
       </set>
       <set comment="band 8">
        <r>  0.0129  0.0748  0.0159  0.0748  0.0000  0.0000  0.0000  0.0000  0.0000 </r>
        <r>  0.0129  0.0748  0.0159  0.0748  0.0000  0.0000  0.0000  0.0000  0.0000 </r>
       </set>
       <set comment="band 9">
        <r>  0.0149  0.0399  0.0555  0.0399  0.0000  0.0000  0.0000  0.0000  0.0000 </r>
        <r>  0.0149  0.0399  0.0555  0.0399  0.0000  0.0000  0.0000  0.0000  0.0000 </r>
       </set>
       <set comment="band 10">
        <r>  0.0000  0.0372  0.0000  0.0372  0.0000  0.0000  0.0000  0.0000  0.0000 </r>
        <r>  0.0000  0.0372  0.0000  0.0372  0.0000  0.0000  0.0000  0.0000  0.0000 </r>
       </set>
       <set comment="band 11">
        <r>  0.0000  0.0020  0.0000  0.0020  0.0000  0.0000  0.0000  0.0000  0.0000 </r>
        <r>  0.0000  0.0020  0.0000  0.0020  0.0000  0.0000  0.0000  0.0000  0.0000 </r>
       </set>
       <set comment="band 12">
        <r>  0.0706  0.0022  0.1500  0.0022  0.0000  0.0000  0.0000  0.0000  0.0000 </r>
        <r>  0.0706  0.0022  0.1500  0.0022  0.0000  0.0000  0.0000  0.0000  0.0000 </r>
       </set>
       <set comment="band 13">
        <r>  0.0116  0.0057  0.1829  0.0057  0.0000  0.0000  0.0000  0.0000  0.0000 </r>
        <r>  0.0116  0.0057  0.1829  0.0057  0.0000  0.0000  0.0000  0.0000  0.0000 </r>
       </set>
       <set comment="band 14">
        <r>  0.0000  0.0063  0.0000  0.0063  0.0000  0.0000  0.0000  0.0000  0.0000 </r>
        <r>  0.0000  0.0063  0.0000  0.0063  0.0000  0.0000  0.0000  0.0000  0.0000 </r>
       </set>
       <set comment="band 15">
        <r>  0.0036  0.0088  0.0024  0.0088  0.0000  0.0000  0.0000  0.0000  0.0000 </r>
        <r>  0.0036  0.0088  0.0024  0.0088  0.0000  0.0000  0.0000  0.0000  0.0000 </r>
       </set>
       <set comment="band 16">
        <r>  0.0000  0.0258  0.0000  0.0260  0.0000  0.0000  0.0000  0.0000  0.0000 </r>
        <r>  0.0000  0.0258  0.0000  0.0260  0.0000  0.0000  0.0000  0.0000  0.0000 </r>
       </set>
      </set>
      <set comment="kpoint 61">
       <set comment="band 1">
        <r>  0.1994  0.0010  0.0354  0.0010  0.0000  0.0000  0.0000  0.0000  0.0000 </r>
        <r>  0.1994  0.0010  0.0354  0.0010  0.0000  0.0000  0.0000  0.0000  0.0000 </r>
       </set>
       <set comment="band 2">
        <r>  0.1920  0.0019  0.0456  0.0019  0.0000  0.0000  0.0000  0.0000  0.0000 </r>
        <r>  0.1920  0.0019  0.0456  0.0019  0.0000  0.0000  0.0000  0.0000  0.0000 </r>
       </set>
       <set comment="band 3">
        <r>  0.0026  0.0747  0.0185  0.0747  0.0000  0.0000  0.0000  0.0000  0.0000 </r>
        <r>  0.0026  0.0747  0.0185  0.0747  0.0000  0.0000  0.0000  0.0000  0.0000 </r>
       </set>
       <set comment="band 4">
        <r>  0.0000  0.0979  0.0000  0.0979  0.0000  0.0000  0.0000  0.0000  0.0000 </r>
        <r>  0.0000  0.0979  0.0000  0.0979  0.0000  0.0000  0.0000  0.0000  0.0000 </r>
       </set>
       <set comment="band 5">
        <r>  0.0511  0.0006  0.0379  0.0006  0.0000  0.0000  0.0000  0.0000  0.0000 </r>
        <r>  0.0511  0.0006  0.0379  0.0006  0.0000  0.0000  0.0000  0.0000  0.0000 </r>
       </set>
       <set comment="band 6">
        <r>  0.0388  0.0208  0.0248  0.0208  0.0000  0.0000  0.0000  0.0000  0.0000 </r>
        <r>  0.0388  0.0208  0.0248  0.0208  0.0000  0.0000  0.0000  0.0000  0.0000 </r>
       </set>
       <set comment="band 7">
        <r>  0.0000  0.0765  0.0000  0.0765  0.0000  0.0000  0.0000  0.0000  0.0000 </r>
        <r>  0.0000  0.0765  0.0000  0.0765  0.0000  0.0000  0.0000  0.0000  0.0000 </r>
       </set>
       <set comment="band 8">
        <r>  0.0279  0.0597  0.0388  0.0597  0.0000  0.0000  0.0000  0.0000  0.0000 </r>
        <r>  0.0279  0.0597  0.0388  0.0597  0.0000  0.0000  0.0000  0.0000  0.0000 </r>
       </set>
       <set comment="band 9">
        <r>  0.0192  0.0358  0.0613  0.0358  0.0000  0.0000  0.0000  0.0000  0.0000 </r>
        <r>  0.0192  0.0358  0.0613  0.0358  0.0000  0.0000  0.0000  0.0000  0.0000 </r>
       </set>
       <set comment="band 10">
        <r>  0.0000  0.0205  0.0000  0.0205  0.0000  0.0000  0.0000  0.0000  0.0000 </r>
        <r>  0.0000  0.0205  0.0000  0.0205  0.0000  0.0000  0.0000  0.0000  0.0000 </r>
       </set>
       <set comment="band 11">
        <r>  0.0000  0.0147  0.0000  0.0147  0.0000  0.0000  0.0000  0.0000  0.0000 </r>
        <r>  0.0000  0.0147  0.0000  0.0147  0.0000  0.0000  0.0000  0.0000  0.0000 </r>
       </set>
       <set comment="band 12">
        <r>  0.0435  0.0191  0.1698  0.0191  0.0000  0.0000  0.0000  0.0000  0.0000 </r>
        <r>  0.0435  0.0191  0.1698  0.0191  0.0000  0.0000  0.0000  0.0000  0.0000 </r>
       </set>
       <set comment="band 13">
        <r>  0.0000  0.0156  0.0000  0.0156  0.0000  0.0000  0.0000  0.0000  0.0000 </r>
        <r>  0.0000  0.0156  0.0000  0.0156  0.0000  0.0000  0.0000  0.0000  0.0000 </r>
       </set>
       <set comment="band 14">
        <r>  0.0217  0.0086  0.1446  0.0086  0.0000  0.0000  0.0000  0.0000  0.0000 </r>
        <r>  0.0217  0.0086  0.1446  0.0086  0.0000  0.0000  0.0000  0.0000  0.0000 </r>
       </set>
       <set comment="band 15">
        <r>  0.0120  0.0066  0.0022  0.0066  0.0000  0.0000  0.0000  0.0000  0.0000 </r>
        <r>  0.0120  0.0066  0.0022  0.0066  0.0000  0.0000  0.0000  0.0000  0.0000 </r>
       </set>
       <set comment="band 16">
        <r>  0.0091  0.0081  0.0049  0.0081  0.0000  0.0000  0.0000  0.0000  0.0000 </r>
        <r>  0.0091  0.0081  0.0049  0.0081  0.0000  0.0000  0.0000  0.0000  0.0000 </r>
       </set>
      </set>
      <set comment="kpoint 62">
       <set comment="band 1">
        <r>  0.2086  0.0028  0.0295  0.0028  0.0000  0.0000  0.0000  0.0000  0.0000 </r>
        <r>  0.2086  0.0028  0.0295  0.0028  0.0000  0.0000  0.0000  0.0000  0.0000 </r>
       </set>
       <set comment="band 2">
        <r>  0.1872  0.0036  0.0430  0.0036  0.0000  0.0000  0.0000  0.0000  0.0000 </r>
        <r>  0.1872  0.0036  0.0430  0.0036  0.0000  0.0000  0.0000  0.0000  0.0000 </r>
       </set>
       <set comment="band 3">
        <r>  0.0006  0.0632  0.0318  0.0632  0.0000  0.0000  0.0000  0.0000  0.0000 </r>
        <r>  0.0006  0.0632  0.0318  0.0632  0.0000  0.0000  0.0000  0.0000  0.0000 </r>
       </set>
       <set comment="band 4">
        <r>  0.0000  0.0984  0.0000  0.0984  0.0000  0.0000  0.0000  0.0000  0.0000 </r>
        <r>  0.0000  0.0984  0.0000  0.0984  0.0000  0.0000  0.0000  0.0000  0.0000 </r>
       </set>
       <set comment="band 5">
        <r>  0.0517  0.0005  0.0387  0.0005  0.0000  0.0000  0.0000  0.0000  0.0000 </r>
        <r>  0.0517  0.0005  0.0387  0.0005  0.0000  0.0000  0.0000  0.0000  0.0000 </r>
       </set>
       <set comment="band 6">
        <r>  0.0308  0.0307  0.0190  0.0307  0.0000  0.0000  0.0000  0.0000  0.0000 </r>
        <r>  0.0308  0.0307  0.0190  0.0307  0.0000  0.0000  0.0000  0.0000  0.0000 </r>
       </set>
       <set comment="band 7">
        <r>  0.0000  0.0831  0.0000  0.0831  0.0000  0.0000  0.0000  0.0000  0.0000 </r>
        <r>  0.0000  0.0831  0.0000  0.0831  0.0000  0.0000  0.0000  0.0000  0.0000 </r>
       </set>
       <set comment="band 8">
        <r>  0.0280  0.0005  0.0929  0.0005  0.0000  0.0000  0.0000  0.0000  0.0000 </r>
        <r>  0.0280  0.0005  0.0929  0.0005  0.0000  0.0000  0.0000  0.0000  0.0000 </r>
       </set>
       <set comment="band 9">
        <r>  0.0405  0.0804  0.0323  0.0804  0.0000  0.0000  0.0000  0.0000  0.0000 </r>
        <r>  0.0405  0.0804  0.0323  0.0804  0.0000  0.0000  0.0000  0.0000  0.0000 </r>
       </set>
       <set comment="band 10">
        <r>  0.0000  0.0064  0.0000  0.0064  0.0000  0.0000  0.0000  0.0000  0.0000 </r>
        <r>  0.0000  0.0064  0.0000  0.0064  0.0000  0.0000  0.0000  0.0000  0.0000 </r>
       </set>
       <set comment="band 11">
        <r>  0.0167  0.0321  0.1753  0.0321  0.0000  0.0000  0.0000  0.0000  0.0000 </r>
        <r>  0.0167  0.0321  0.1753  0.0321  0.0000  0.0000  0.0000  0.0000  0.0000 </r>
       </set>
       <set comment="band 12">
        <r>  0.0000  0.0002  0.0000  0.0002  0.0000  0.0000  0.0000  0.0000  0.0000 </r>
        <r>  0.0000  0.0002  0.0000  0.0002  0.0000  0.0000  0.0000  0.0000  0.0000 </r>
       </set>
       <set comment="band 13">
        <r>  0.0000  0.0407  0.0000  0.0407  0.0000  0.0000  0.0000  0.0000  0.0000 </r>
        <r>  0.0000  0.0407  0.0000  0.0407  0.0000  0.0000  0.0000  0.0000  0.0000 </r>
       </set>
       <set comment="band 14">
        <r>  0.0206  0.0132  0.1201  0.0132  0.0000  0.0000  0.0000  0.0000  0.0000 </r>
        <r>  0.0206  0.0132  0.1201  0.0132  0.0000  0.0000  0.0000  0.0000  0.0000 </r>
       </set>
       <set comment="band 15">
        <r>  0.0177  0.0018  0.0034  0.0018  0.0000  0.0000  0.0000  0.0000  0.0000 </r>
        <r>  0.0177  0.0018  0.0034  0.0018  0.0000  0.0000  0.0000  0.0000  0.0000 </r>
       </set>
       <set comment="band 16">
        <r>  0.0227  0.0062  0.0000  0.0062  0.0000  0.0000  0.0000  0.0000  0.0000 </r>
        <r>  0.0227  0.0062  0.0000  0.0062  0.0000  0.0000  0.0000  0.0000  0.0000 </r>
       </set>
      </set>
      <set comment="kpoint 63">
       <set comment="band 1">
        <r>  0.1956  0.0000  0.0385  0.0000  0.0000  0.0000  0.0000  0.0000  0.0000 </r>
        <r>  0.1956  0.0000  0.0385  0.0000  0.0000  0.0000  0.0000  0.0000  0.0000 </r>
       </set>
       <set comment="band 2">
        <r>  0.1907  0.0000  0.0497  0.0000  0.0000  0.0000  0.0000  0.0000  0.0000 </r>
        <r>  0.1907  0.0000  0.0497  0.0000  0.0000  0.0000  0.0000  0.0000  0.0000 </r>
       </set>
       <set comment="band 3">
        <r>  0.0000  0.0975  0.0000  0.0975  0.0000  0.0000  0.0000  0.0000  0.0000 </r>
        <r>  0.0000  0.0975  0.0000  0.0974  0.0000  0.0000  0.0000  0.0000  0.0000 </r>
       </set>
       <set comment="band 4">
        <r>  0.0000  0.0975  0.0000  0.0975  0.0000  0.0000  0.0000  0.0000  0.0000 </r>
        <r>  0.0000  0.0974  0.0000  0.0975  0.0000  0.0000  0.0000  0.0000  0.0000 </r>
       </set>
       <set comment="band 5">
        <r>  0.0521  0.0000  0.0391  0.0000  0.0000  0.0000  0.0000  0.0000  0.0000 </r>
        <r>  0.0521  0.0000  0.0391  0.0000  0.0000  0.0000  0.0000  0.0000  0.0000 </r>
       </set>
       <set comment="band 6">
        <r>  0.0498  0.0000  0.0339  0.0000  0.0000  0.0000  0.0000  0.0000  0.0000 </r>
        <r>  0.0498  0.0000  0.0339  0.0000  0.0000  0.0000  0.0000  0.0000  0.0000 </r>
       </set>
       <set comment="band 7">
        <r>  0.0000  0.0989  0.0000  0.0989  0.0000  0.0000  0.0000  0.0000  0.0000 </r>
        <r>  0.0000  0.0989  0.0000  0.0989  0.0000  0.0000  0.0000  0.0000  0.0000 </r>
       </set>
       <set comment="band 8">
        <r>  0.0000  0.0989  0.0000  0.0989  0.0000  0.0000  0.0000  0.0000  0.0000 </r>
        <r>  0.0000  0.0989  0.0000  0.0989  0.0000  0.0000  0.0000  0.0000  0.0000 </r>
       </set>
       <set comment="band 9">
        <r>  0.0000  0.0262  0.0000  0.0262  0.0000  0.0000  0.0000  0.0000  0.0000 </r>
        <r>  0.0000  0.0262  0.0000  0.0262  0.0000  0.0000  0.0000  0.0000  0.0000 </r>
       </set>
       <set comment="band 10">
        <r>  0.0000  0.0262  0.0000  0.0262  0.0000  0.0000  0.0000  0.0000  0.0000 </r>
        <r>  0.0000  0.0262  0.0000  0.0262  0.0000  0.0000  0.0000  0.0000  0.0000 </r>
       </set>
       <set comment="band 11">
        <r>  0.0000  0.0000  0.0000  0.0000  0.0000  0.0000  0.0000  0.0000  0.0000 </r>
        <r>  0.0000  0.0000  0.0000  0.0000  0.0000  0.0000  0.0000  0.0000  0.0000 </r>
       </set>
       <set comment="band 12">
        <r>  0.0757  0.0000  0.1936  0.0000  0.0000  0.0000  0.0000  0.0000  0.0000 </r>
        <r>  0.0757  0.0000  0.1936  0.0000  0.0000  0.0000  0.0000  0.0000  0.0000 </r>
       </set>
       <set comment="band 13">
        <r>  0.0000  0.0000  0.0000  0.0000  0.0000  0.0000  0.0000  0.0000  0.0000 </r>
        <r>  0.0000  0.0000  0.0000  0.0000  0.0000  0.0000  0.0000  0.0000  0.0000 </r>
       </set>
       <set comment="band 14">
        <r>  0.0372  0.0000  0.2194  0.0000  0.0000  0.0000  0.0000  0.0000  0.0000 </r>
        <r>  0.0372  0.0000  0.2194  0.0000  0.0000  0.0000  0.0000  0.0000  0.0000 </r>
       </set>
       <set comment="band 15">
        <r>  0.0007  0.0000  0.0037  0.0000  0.0000  0.0000  0.0000  0.0000  0.0000 </r>
        <r>  0.0007  0.0000  0.0037  0.0000  0.0000  0.0000  0.0000  0.0000  0.0000 </r>
       </set>
       <set comment="band 16">
        <r>  0.0000  0.0445  0.0000  0.0058  0.0000  0.0000  0.0000  0.0000  0.0000 </r>
        <r>  0.0000  0.0358  0.0000  0.0145  0.0000  0.0000  0.0000  0.0000  0.0000 </r>
       </set>
      </set>
      <set comment="kpoint 64">
       <set comment="band 1">
        <r>  0.1955  0.0002  0.0423  0.0002  0.0000  0.0000  0.0000  0.0000  0.0000 </r>
        <r>  0.1955  0.0002  0.0423  0.0002  0.0000  0.0000  0.0000  0.0000  0.0000 </r>
       </set>
       <set comment="band 2">
        <r>  0.1926  0.0004  0.0438  0.0004  0.0000  0.0000  0.0000  0.0000  0.0000 </r>
        <r>  0.1926  0.0004  0.0438  0.0004  0.0000  0.0000  0.0000  0.0000  0.0000 </r>
       </set>
       <set comment="band 3">
        <r>  0.0018  0.0888  0.0060  0.0888  0.0000  0.0000  0.0000  0.0000  0.0000 </r>
        <r>  0.0018  0.0888  0.0060  0.0888  0.0000  0.0000  0.0000  0.0000  0.0000 </r>
       </set>
       <set comment="band 4">
        <r>  0.0000  0.0976  0.0000  0.0976  0.0000  0.0000  0.0000  0.0000  0.0000 </r>
        <r>  0.0000  0.0976  0.0000  0.0976  0.0000  0.0000  0.0000  0.0000  0.0000 </r>
       </set>
       <set comment="band 5">
        <r>  0.0512  0.0001  0.0364  0.0001  0.0000  0.0000  0.0000  0.0000  0.0000 </r>
        <r>  0.0512  0.0001  0.0364  0.0001  0.0000  0.0000  0.0000  0.0000  0.0000 </r>
       </set>
       <set comment="band 6">
        <r>  0.0467  0.0083  0.0318  0.0083  0.0000  0.0000  0.0000  0.0000  0.0000 </r>
        <r>  0.0467  0.0083  0.0318  0.0083  0.0000  0.0000  0.0000  0.0000  0.0000 </r>
       </set>
       <set comment="band 7">
        <r>  0.0000  0.1061  0.0000  0.1061  0.0000  0.0000  0.0000  0.0000  0.0000 </r>
        <r>  0.0000  0.1061  0.0000  0.1061  0.0000  0.0000  0.0000  0.0000  0.0000 </r>
       </set>
       <set comment="band 8">
        <r>  0.0091  0.1104  0.0099  0.1104  0.0000  0.0000  0.0000  0.0000  0.0000 </r>
        <r>  0.0091  0.1104  0.0099  0.1104  0.0000  0.0000  0.0000  0.0000  0.0000 </r>
       </set>
       <set comment="band 9">
        <r>  0.0122  0.0035  0.0424  0.0035  0.0000  0.0000  0.0000  0.0000  0.0000 </r>
        <r>  0.0122  0.0035  0.0424  0.0035  0.0000  0.0000  0.0000  0.0000  0.0000 </r>
       </set>
       <set comment="band 10">
        <r>  0.0000  0.0055  0.0000  0.0055  0.0000  0.0000  0.0000  0.0000  0.0000 </r>
        <r>  0.0000  0.0055  0.0000  0.0055  0.0000  0.0000  0.0000  0.0000  0.0000 </r>
       </set>
       <set comment="band 11">
        <r>  0.0000  0.0001  0.0000  0.0001  0.0000  0.0000  0.0000  0.0000  0.0000 </r>
        <r>  0.0000  0.0001  0.0000  0.0001  0.0000  0.0000  0.0000  0.0000  0.0000 </r>
       </set>
       <set comment="band 12">
        <r>  0.0000  0.0144  0.0000  0.0144  0.0000  0.0000  0.0000  0.0000  0.0000 </r>
        <r>  0.0000  0.0144  0.0000  0.0144  0.0000  0.0000  0.0000  0.0000  0.0000 </r>
       </set>
       <set comment="band 13">
        <r>  0.0482  0.0086  0.1980  0.0086  0.0000  0.0000  0.0000  0.0000  0.0000 </r>
        <r>  0.0482  0.0086  0.1980  0.0086  0.0000  0.0000  0.0000  0.0000  0.0000 </r>
       </set>
       <set comment="band 14">
        <r>  0.0451  0.0024  0.1653  0.0024  0.0000  0.0000  0.0000  0.0000  0.0000 </r>
        <r>  0.0451  0.0024  0.1653  0.0024  0.0000  0.0000  0.0000  0.0000  0.0000 </r>
       </set>
       <set comment="band 15">
        <r>  0.0090  0.0033  0.0015  0.0033  0.0000  0.0000  0.0000  0.0000  0.0000 </r>
        <r>  0.0090  0.0033  0.0015  0.0033  0.0000  0.0000  0.0000  0.0000  0.0000 </r>
       </set>
       <set comment="band 16">
        <r>  0.0002  0.0091  0.0043  0.0091  0.0000  0.0000  0.0000  0.0000  0.0000 </r>
        <r>  0.0002  0.0091  0.0043  0.0091  0.0000  0.0000  0.0000  0.0000  0.0000 </r>
       </set>
      </set>
      <set comment="kpoint 65">
       <set comment="band 1">
        <r>  0.2102  0.0008  0.0032  0.0000  0.0000  0.0000  0.0000  0.0000  0.0000 </r>
        <r>  0.2102  0.0008  0.0032  0.0000  0.0000  0.0000  0.0000  0.0000  0.0000 </r>
       </set>
       <set comment="band 2">
        <r>  0.0947  0.0400  0.0761  0.0220  0.0000  0.0000  0.0000  0.0000  0.0000 </r>
        <r>  0.0947  0.0400  0.0761  0.0220  0.0000  0.0000  0.0000  0.0000  0.0000 </r>
       </set>
       <set comment="band 3">
        <r>  0.0035  0.0373  0.0128  0.1407  0.0000  0.0000  0.0000  0.0000  0.0000 </r>
        <r>  0.0035  0.0373  0.0128  0.1407  0.0000  0.0000  0.0000  0.0000  0.0000 </r>
       </set>
       <set comment="band 4">
        <r>  0.0083  0.1208  0.0712  0.0143  0.0000  0.0000  0.0000  0.0000  0.0000 </r>
        <r>  0.0083  0.1208  0.0712  0.0143  0.0000  0.0000  0.0000  0.0000  0.0000 </r>
       </set>
       <set comment="band 5">
        <r>  0.0172  0.0071  0.1033  0.0157  0.0000  0.0000  0.0000  0.0000  0.0000 </r>
        <r>  0.0172  0.0071  0.1033  0.0157  0.0000  0.0000  0.0000  0.0000  0.0000 </r>
       </set>
       <set comment="band 6">
        <r>  0.0914  0.0160  0.0096  0.0919  0.0000  0.0000  0.0000  0.0000  0.0000 </r>
        <r>  0.0914  0.0160  0.0096  0.0919  0.0000  0.0000  0.0000  0.0000  0.0000 </r>
       </set>
       <set comment="band 7">
        <r>  0.0052  0.0964  0.0013  0.0571  0.0000  0.0000  0.0000  0.0000  0.0000 </r>
        <r>  0.0052  0.0964  0.0013  0.0571  0.0000  0.0000  0.0000  0.0000  0.0000 </r>
       </set>
       <set comment="band 8">
        <r>  0.1128  0.0362  0.0580  0.0138  0.0000  0.0000  0.0000  0.0000  0.0000 </r>
        <r>  0.1128  0.0362  0.0580  0.0138  0.0000  0.0000  0.0000  0.0000  0.0000 </r>
       </set>
       <set comment="band 9">
        <r>  0.0410  0.0061  0.0079  0.0027  0.0000  0.0000  0.0000  0.0000  0.0000 </r>
        <r>  0.0410  0.0061  0.0079  0.0027  0.0000  0.0000  0.0000  0.0000  0.0000 </r>
       </set>
       <set comment="band 10">
        <r>  0.0062  0.0001  0.0009  0.0041  0.0000  0.0000  0.0000  0.0000  0.0000 </r>
        <r>  0.0062  0.0001  0.0009  0.0041  0.0000  0.0000  0.0000  0.0000  0.0000 </r>
       </set>
       <set comment="band 11">
        <r>  0.0650  0.0090  0.0382  0.0046  0.0000  0.0000  0.0000  0.0000  0.0000 </r>
        <r>  0.0650  0.0090  0.0382  0.0046  0.0000  0.0000  0.0000  0.0000  0.0000 </r>
       </set>
       <set comment="band 12">
        <r>  0.0134  0.0114  0.0036  0.0009  0.0000  0.0000  0.0000  0.0000  0.0000 </r>
        <r>  0.0134  0.0114  0.0036  0.0009  0.0000  0.0000  0.0000  0.0000  0.0000 </r>
       </set>
       <set comment="band 13">
        <r>  0.0014  0.0013  0.0014  0.0318  0.0000  0.0000  0.0000  0.0000  0.0000 </r>
        <r>  0.0014  0.0013  0.0014  0.0318  0.0000  0.0000  0.0000  0.0000  0.0000 </r>
       </set>
       <set comment="band 14">
        <r>  0.0024  0.0184  0.0114  0.0000  0.0000  0.0000  0.0000  0.0000  0.0000 </r>
        <r>  0.0024  0.0184  0.0114  0.0000  0.0000  0.0000  0.0000  0.0000  0.0000 </r>
       </set>
       <set comment="band 15">
        <r>  0.0164  0.0040  0.0208  0.0016  0.0000  0.0000  0.0000  0.0000  0.0000 </r>
        <r>  0.0164  0.0040  0.0208  0.0016  0.0000  0.0000  0.0000  0.0000  0.0000 </r>
       </set>
       <set comment="band 16">
        <r>  0.0048  0.0418  0.0177  0.0047  0.0000  0.0000  0.0000  0.0000  0.0000 </r>
        <r>  0.0048  0.0418  0.0177  0.0047  0.0000  0.0000  0.0000  0.0000  0.0000 </r>
       </set>
      </set>
      <set comment="kpoint 66">
       <set comment="band 1">
        <r>  0.2092  0.0017  0.0049  0.0003  0.0000  0.0000  0.0000  0.0000  0.0000 </r>
        <r>  0.2092  0.0017  0.0049  0.0003  0.0000  0.0000  0.0000  0.0000  0.0000 </r>
       </set>
       <set comment="band 2">
        <r>  0.1065  0.0359  0.0542  0.0323  0.0000  0.0000  0.0000  0.0000  0.0000 </r>
        <r>  0.1065  0.0359  0.0542  0.0323  0.0000  0.0000  0.0000  0.0000  0.0000 </r>
       </set>
       <set comment="band 3">
        <r>  0.0118  0.0390  0.0252  0.1171  0.0000  0.0000  0.0000  0.0000  0.0000 </r>
        <r>  0.0118  0.0390  0.0252  0.1171  0.0000  0.0000  0.0000  0.0000  0.0000 </r>
       </set>
       <set comment="band 4">
        <r>  0.0078  0.1147  0.0795  0.0124  0.0000  0.0000  0.0000  0.0000  0.0000 </r>
        <r>  0.0078  0.1147  0.0795  0.0124  0.0000  0.0000  0.0000  0.0000  0.0000 </r>
       </set>
       <set comment="band 5">
        <r>  0.0324  0.0104  0.0814  0.0257  0.0000  0.0000  0.0000  0.0000  0.0000 </r>
        <r>  0.0324  0.0104  0.0814  0.0257  0.0000  0.0000  0.0000  0.0000  0.0000 </r>
       </set>
       <set comment="band 6">
        <r>  0.0877  0.0227  0.0174  0.0739  0.0000  0.0000  0.0000  0.0000  0.0000 </r>
        <r>  0.0877  0.0227  0.0174  0.0739  0.0000  0.0000  0.0000  0.0000  0.0000 </r>
       </set>
       <set comment="band 7">
        <r>  0.0058  0.0769  0.0022  0.0712  0.0000  0.0000  0.0000  0.0000  0.0000 </r>
        <r>  0.0058  0.0769  0.0022  0.0712  0.0000  0.0000  0.0000  0.0000  0.0000 </r>
       </set>
       <set comment="band 8">
        <r>  0.0470  0.0301  0.0354  0.0072  0.0000  0.0000  0.0000  0.0000  0.0000 </r>
        <r>  0.0470  0.0301  0.0354  0.0072  0.0000  0.0000  0.0000  0.0000  0.0000 </r>
       </set>
       <set comment="band 9">
        <r>  0.0548  0.0172  0.0283  0.0040  0.0000  0.0000  0.0000  0.0000  0.0000 </r>
        <r>  0.0548  0.0172  0.0283  0.0040  0.0000  0.0000  0.0000  0.0000  0.0000 </r>
       </set>
       <set comment="band 10">
        <r>  0.0319  0.0083  0.0123  0.0140  0.0000  0.0000  0.0000  0.0000  0.0000 </r>
        <r>  0.0319  0.0083  0.0123  0.0140  0.0000  0.0000  0.0000  0.0000  0.0000 </r>
       </set>
       <set comment="band 11">
        <r>  0.0413  0.0135  0.0386  0.0131  0.0000  0.0000  0.0000  0.0000  0.0000 </r>
        <r>  0.0413  0.0135  0.0386  0.0131  0.0000  0.0000  0.0000  0.0000  0.0000 </r>
       </set>
       <set comment="band 12">
        <r>  0.0240  0.0084  0.0117  0.0028  0.0000  0.0000  0.0000  0.0000  0.0000 </r>
        <r>  0.0240  0.0084  0.0117  0.0028  0.0000  0.0000  0.0000  0.0000  0.0000 </r>
       </set>
       <set comment="band 13">
        <r>  0.0029  0.0043  0.0027  0.0240  0.0000  0.0000  0.0000  0.0000  0.0000 </r>
        <r>  0.0029  0.0043  0.0027  0.0240  0.0000  0.0000  0.0000  0.0000  0.0000 </r>
       </set>
       <set comment="band 14">
        <r>  0.0015  0.0196  0.0099  0.0006  0.0000  0.0000  0.0000  0.0000  0.0000 </r>
        <r>  0.0015  0.0196  0.0099  0.0006  0.0000  0.0000  0.0000  0.0000  0.0000 </r>
       </set>
       <set comment="band 15">
        <r>  0.0087  0.0401  0.0197  0.0036  0.0000  0.0000  0.0000  0.0000  0.0000 </r>
        <r>  0.0087  0.0401  0.0197  0.0036  0.0000  0.0000  0.0000  0.0000  0.0000 </r>
       </set>
       <set comment="band 16">
        <r>  0.0066  0.0098  0.0241  0.0308  0.0000  0.0000  0.0000  0.0000  0.0000 </r>
        <r>  0.0066  0.0098  0.0241  0.0308  0.0000  0.0000  0.0000  0.0000  0.0000 </r>
       </set>
      </set>
      <set comment="kpoint 67">
       <set comment="band 1">
        <r>  0.2085  0.0028  0.0067  0.0009  0.0000  0.0000  0.0000  0.0000  0.0000 </r>
        <r>  0.2085  0.0028  0.0067  0.0009  0.0000  0.0000  0.0000  0.0000  0.0000 </r>
       </set>
       <set comment="band 2">
        <r>  0.1128  0.0328  0.0403  0.0359  0.0000  0.0000  0.0000  0.0000  0.0000 </r>
        <r>  0.1128  0.0328  0.0403  0.0359  0.0000  0.0000  0.0000  0.0000  0.0000 </r>
       </set>
       <set comment="band 3">
        <r>  0.0204  0.0351  0.0354  0.1053  0.0000  0.0000  0.0000  0.0000  0.0000 </r>
        <r>  0.0204  0.0351  0.0354  0.1053  0.0000  0.0000  0.0000  0.0000  0.0000 </r>
       </set>
       <set comment="band 4">
        <r>  0.0070  0.1135  0.0803  0.0119  0.0000  0.0000  0.0000  0.0000  0.0000 </r>
        <r>  0.0070  0.1135  0.0803  0.0119  0.0000  0.0000  0.0000  0.0000  0.0000 </r>
       </set>
       <set comment="band 5">
        <r>  0.0784  0.0058  0.0523  0.0355  0.0000  0.0000  0.0000  0.0000  0.0000 </r>
        <r>  0.0784  0.0058  0.0523  0.0355  0.0000  0.0000  0.0000  0.0000  0.0000 </r>
       </set>
       <set comment="band 6">
        <r>  0.0459  0.0274  0.0357  0.0539  0.0000  0.0000  0.0000  0.0000  0.0000 </r>
        <r>  0.0459  0.0274  0.0357  0.0539  0.0000  0.0000  0.0000  0.0000  0.0000 </r>
       </set>
       <set comment="band 7">
        <r>  0.0044  0.0719  0.0049  0.0604  0.0000  0.0000  0.0000  0.0000  0.0000 </r>
        <r>  0.0044  0.0719  0.0049  0.0604  0.0000  0.0000  0.0000  0.0000  0.0000 </r>
       </set>
       <set comment="band 8">
        <r>  0.0295  0.0227  0.0202  0.0180  0.0000  0.0000  0.0000  0.0000  0.0000 </r>
        <r>  0.0295  0.0227  0.0202  0.0180  0.0000  0.0000  0.0000  0.0000  0.0000 </r>
       </set>
       <set comment="band 9">
        <r>  0.0343  0.0164  0.0308  0.0123  0.0000  0.0000  0.0000  0.0000  0.0000 </r>
        <r>  0.0343  0.0164  0.0308  0.0123  0.0000  0.0000  0.0000  0.0000  0.0000 </r>
       </set>
       <set comment="band 10">
        <r>  0.0515  0.0248  0.0341  0.0178  0.0000  0.0000  0.0000  0.0000  0.0000 </r>
        <r>  0.0515  0.0248  0.0341  0.0178  0.0000  0.0000  0.0000  0.0000  0.0000 </r>
       </set>
       <set comment="band 11">
        <r>  0.0253  0.0091  0.0239  0.0125  0.0000  0.0000  0.0000  0.0000  0.0000 </r>
        <r>  0.0253  0.0091  0.0239  0.0125  0.0000  0.0000  0.0000  0.0000  0.0000 </r>
       </set>
       <set comment="band 12">
        <r>  0.0250  0.0228  0.0383  0.0142  0.0000  0.0000  0.0000  0.0000  0.0000 </r>
        <r>  0.0250  0.0228  0.0383  0.0142  0.0000  0.0000  0.0000  0.0000  0.0000 </r>
       </set>
       <set comment="band 13">
        <r>  0.0071  0.0059  0.0022  0.0225  0.0000  0.0000  0.0000  0.0000  0.0000 </r>
        <r>  0.0071  0.0059  0.0022  0.0225  0.0000  0.0000  0.0000  0.0000  0.0000 </r>
       </set>
       <set comment="band 14">
        <r>  0.0081  0.0221  0.0150  0.0014  0.0000  0.0000  0.0000  0.0000  0.0000 </r>
        <r>  0.0081  0.0221  0.0150  0.0014  0.0000  0.0000  0.0000  0.0000  0.0000 </r>
       </set>
       <set comment="band 15">
        <r>  0.0049  0.0338  0.0124  0.0048  0.0000  0.0000  0.0000  0.0000  0.0000 </r>
        <r>  0.0049  0.0338  0.0124  0.0048  0.0000  0.0000  0.0000  0.0000  0.0000 </r>
       </set>
       <set comment="band 16">
        <r>  0.0118  0.0016  0.0268  0.0520  0.0000  0.0000  0.0000  0.0000  0.0000 </r>
        <r>  0.0118  0.0016  0.0268  0.0520  0.0000  0.0000  0.0000  0.0000  0.0000 </r>
       </set>
      </set>
      <set comment="kpoint 68">
       <set comment="band 1">
        <r>  0.2090  0.0038  0.0083  0.0018  0.0000  0.0000  0.0000  0.0000  0.0000 </r>
        <r>  0.2090  0.0038  0.0083  0.0018  0.0000  0.0000  0.0000  0.0000  0.0000 </r>
       </set>
       <set comment="band 2">
        <r>  0.1166  0.0302  0.0326  0.0353  0.0000  0.0000  0.0000  0.0000  0.0000 </r>
        <r>  0.1166  0.0302  0.0326  0.0353  0.0000  0.0000  0.0000  0.0000  0.0000 </r>
       </set>
       <set comment="band 3">
        <r>  0.0271  0.0282  0.0445  0.0994  0.0000  0.0000  0.0000  0.0000  0.0000 </r>
        <r>  0.0271  0.0282  0.0445  0.0994  0.0000  0.0000  0.0000  0.0000  0.0000 </r>
       </set>
       <set comment="band 4">
        <r>  0.0052  0.1172  0.0745  0.0141  0.0000  0.0000  0.0000  0.0000  0.0000 </r>
        <r>  0.0052  0.1172  0.0745  0.0141  0.0000  0.0000  0.0000  0.0000  0.0000 </r>
       </set>
       <set comment="band 5">
        <r>  0.1071  0.0029  0.0380  0.0367  0.0000  0.0000  0.0000  0.0000  0.0000 </r>
        <r>  0.1071  0.0029  0.0380  0.0367  0.0000  0.0000  0.0000  0.0000  0.0000 </r>
       </set>
       <set comment="band 6">
        <r>  0.0203  0.0225  0.0391  0.0418  0.0000  0.0000  0.0000  0.0000  0.0000 </r>
        <r>  0.0203  0.0225  0.0391  0.0418  0.0000  0.0000  0.0000  0.0000  0.0000 </r>
       </set>
       <set comment="band 7">
        <r>  0.0059  0.0687  0.0091  0.0436  0.0000  0.0000  0.0000  0.0000  0.0000 </r>
        <r>  0.0059  0.0687  0.0091  0.0436  0.0000  0.0000  0.0000  0.0000  0.0000 </r>
       </set>
       <set comment="band 8">
        <r>  0.0221  0.0256  0.0178  0.0314  0.0000  0.0000  0.0000  0.0000  0.0000 </r>
        <r>  0.0221  0.0256  0.0178  0.0314  0.0000  0.0000  0.0000  0.0000  0.0000 </r>
       </set>
       <set comment="band 9">
        <r>  0.0172  0.0170  0.0282  0.0270  0.0000  0.0000  0.0000  0.0000  0.0000 </r>
        <r>  0.0172  0.0170  0.0282  0.0270  0.0000  0.0000  0.0000  0.0000  0.0000 </r>
       </set>
       <set comment="band 10">
        <r>  0.0259  0.0056  0.0229  0.0075  0.0000  0.0000  0.0000  0.0000  0.0000 </r>
        <r>  0.0259  0.0056  0.0229  0.0075  0.0000  0.0000  0.0000  0.0000  0.0000 </r>
       </set>
       <set comment="band 11">
        <r>  0.0489  0.0352  0.0497  0.0153  0.0000  0.0000  0.0000  0.0000  0.0000 </r>
        <r>  0.0489  0.0352  0.0497  0.0153  0.0000  0.0000  0.0000  0.0000  0.0000 </r>
       </set>
       <set comment="band 12">
        <r>  0.0104  0.0446  0.0391  0.0211  0.0000  0.0000  0.0000  0.0000  0.0000 </r>
        <r>  0.0104  0.0446  0.0391  0.0211  0.0000  0.0000  0.0000  0.0000  0.0000 </r>
       </set>
       <set comment="band 13">
        <r>  0.0141  0.0141  0.0284  0.0415  0.0000  0.0000  0.0000  0.0000  0.0000 </r>
        <r>  0.0141  0.0141  0.0284  0.0415  0.0000  0.0000  0.0000  0.0000  0.0000 </r>
       </set>
       <set comment="band 14">
        <r>  0.0224  0.0126  0.0148  0.0030  0.0000  0.0000  0.0000  0.0000  0.0000 </r>
        <r>  0.0224  0.0126  0.0148  0.0030  0.0000  0.0000  0.0000  0.0000  0.0000 </r>
       </set>
       <set comment="band 15">
        <r>  0.0018  0.0269  0.0078  0.0069  0.0000  0.0000  0.0000  0.0000  0.0000 </r>
        <r>  0.0018  0.0269  0.0078  0.0069  0.0000  0.0000  0.0000  0.0000  0.0000 </r>
       </set>
       <set comment="band 16">
        <r>  0.0217  0.0083  0.0157  0.0610  0.0000  0.0000  0.0000  0.0000  0.0000 </r>
        <r>  0.0217  0.0083  0.0157  0.0610  0.0000  0.0000  0.0000  0.0000  0.0000 </r>
       </set>
      </set>
      <set comment="kpoint 69">
       <set comment="band 1">
        <r>  0.2128  0.0045  0.0089  0.0029  0.0000  0.0000  0.0000  0.0000  0.0000 </r>
        <r>  0.2128  0.0045  0.0089  0.0029  0.0000  0.0000  0.0000  0.0000  0.0000 </r>
       </set>
       <set comment="band 2">
        <r>  0.1158  0.0285  0.0288  0.0336  0.0000  0.0000  0.0000  0.0000  0.0000 </r>
        <r>  0.1158  0.0285  0.0288  0.0336  0.0000  0.0000  0.0000  0.0000  0.0000 </r>
       </set>
       <set comment="band 3">
        <r>  0.0325  0.0201  0.0558  0.0934  0.0000  0.0000  0.0000  0.0000  0.0000 </r>
        <r>  0.0325  0.0201  0.0558  0.0934  0.0000  0.0000  0.0000  0.0000  0.0000 </r>
       </set>
       <set comment="band 4">
        <r>  0.0026  0.1235  0.0631  0.0200  0.0000  0.0000  0.0000  0.0000  0.0000 </r>
        <r>  0.0026  0.1235  0.0631  0.0200  0.0000  0.0000  0.0000  0.0000  0.0000 </r>
       </set>
       <set comment="band 5">
        <r>  0.1210  0.0014  0.0331  0.0345  0.0000  0.0000  0.0000  0.0000  0.0000 </r>
        <r>  0.1210  0.0014  0.0331  0.0345  0.0000  0.0000  0.0000  0.0000  0.0000 </r>
       </set>
       <set comment="band 6">
        <r>  0.0096  0.0184  0.0367  0.0364  0.0000  0.0000  0.0000  0.0000  0.0000 </r>
        <r>  0.0096  0.0184  0.0367  0.0364  0.0000  0.0000  0.0000  0.0000  0.0000 </r>
       </set>
       <set comment="band 7">
        <r>  0.0078  0.0639  0.0133  0.0327  0.0000  0.0000  0.0000  0.0000  0.0000 </r>
        <r>  0.0078  0.0639  0.0133  0.0327  0.0000  0.0000  0.0000  0.0000  0.0000 </r>
       </set>
       <set comment="band 8">
        <r>  0.0149  0.0311  0.0205  0.0410  0.0000  0.0000  0.0000  0.0000  0.0000 </r>
        <r>  0.0149  0.0311  0.0205  0.0410  0.0000  0.0000  0.0000  0.0000  0.0000 </r>
       </set>
       <set comment="band 9">
        <r>  0.0010  0.0231  0.0164  0.0268  0.0000  0.0000  0.0000  0.0000  0.0000 </r>
        <r>  0.0010  0.0231  0.0164  0.0268  0.0000  0.0000  0.0000  0.0000  0.0000 </r>
       </set>
       <set comment="band 10">
        <r>  0.0284  0.0008  0.0396  0.0094  0.0000  0.0000  0.0000  0.0000  0.0000 </r>
        <r>  0.0284  0.0008  0.0396  0.0094  0.0000  0.0000  0.0000  0.0000  0.0000 </r>
       </set>
       <set comment="band 11">
        <r>  0.0269  0.0448  0.0605  0.0095  0.0000  0.0000  0.0000  0.0000  0.0000 </r>
        <r>  0.0269  0.0448  0.0605  0.0095  0.0000  0.0000  0.0000  0.0000  0.0000 </r>
       </set>
       <set comment="band 12">
        <r>  0.0314  0.0293  0.0141  0.0228  0.0000  0.0000  0.0000  0.0000  0.0000 </r>
        <r>  0.0314  0.0293  0.0141  0.0228  0.0000  0.0000  0.0000  0.0000  0.0000 </r>
       </set>
       <set comment="band 13">
        <r>  0.0134  0.0246  0.0508  0.0476  0.0000  0.0000  0.0000  0.0000  0.0000 </r>
        <r>  0.0134  0.0246  0.0508  0.0476  0.0000  0.0000  0.0000  0.0000  0.0000 </r>
       </set>
       <set comment="band 14">
        <r>  0.0028  0.0484  0.0238  0.0505  0.0000  0.0000  0.0000  0.0000  0.0000 </r>
        <r>  0.0028  0.0484  0.0238  0.0505  0.0000  0.0000  0.0000  0.0000  0.0000 </r>
       </set>
       <set comment="band 15">
        <r>  0.0488  0.0050  0.0069  0.0110  0.0000  0.0000  0.0000  0.0000  0.0000 </r>
        <r>  0.0488  0.0050  0.0069  0.0110  0.0000  0.0000  0.0000  0.0000  0.0000 </r>
       </set>
       <set comment="band 16">
        <r>  0.0038  0.0061  0.0066  0.0172  0.0000  0.0000  0.0000  0.0000  0.0000 </r>
        <r>  0.0038  0.0061  0.0066  0.0172  0.0000  0.0000  0.0000  0.0000  0.0000 </r>
       </set>
      </set>
      <set comment="kpoint 70">
       <set comment="band 1">
        <r>  0.2202  0.0042  0.0073  0.0044  0.0000  0.0000  0.0000  0.0000  0.0000 </r>
        <r>  0.2202  0.0042  0.0073  0.0044  0.0000  0.0000  0.0000  0.0000  0.0000 </r>
       </set>
       <set comment="band 2">
        <r>  0.1098  0.0282  0.0291  0.0317  0.0000  0.0000  0.0000  0.0000  0.0000 </r>
        <r>  0.1098  0.0282  0.0291  0.0317  0.0000  0.0000  0.0000  0.0000  0.0000 </r>
       </set>
       <set comment="band 3">
        <r>  0.0359  0.0141  0.0698  0.0837  0.0000  0.0000  0.0000  0.0000  0.0000 </r>
        <r>  0.0359  0.0141  0.0698  0.0837  0.0000  0.0000  0.0000  0.0000  0.0000 </r>
       </set>
       <set comment="band 4">
        <r>  0.0005  0.1289  0.0473  0.0313  0.0000  0.0000  0.0000  0.0000  0.0000 </r>
        <r>  0.0005  0.1289  0.0473  0.0313  0.0000  0.0000  0.0000  0.0000  0.0000 </r>
       </set>
       <set comment="band 5">
        <r>  0.1274  0.0008  0.0318  0.0325  0.0000  0.0000  0.0000  0.0000  0.0000 </r>
        <r>  0.1274  0.0008  0.0318  0.0325  0.0000  0.0000  0.0000  0.0000  0.0000 </r>
       </set>
       <set comment="band 6">
        <r>  0.0049  0.0168  0.0350  0.0347  0.0000  0.0000  0.0000  0.0000  0.0000 </r>
        <r>  0.0049  0.0168  0.0350  0.0347  0.0000  0.0000  0.0000  0.0000  0.0000 </r>
       </set>
       <set comment="band 7">
        <r>  0.0091  0.0611  0.0184  0.0248  0.0000  0.0000  0.0000  0.0000  0.0000 </r>
        <r>  0.0091  0.0611  0.0184  0.0248  0.0000  0.0000  0.0000  0.0000  0.0000 </r>
       </set>
       <set comment="band 8">
        <r>  0.0051  0.0279  0.0317  0.0523  0.0000  0.0000  0.0000  0.0000  0.0000 </r>
        <r>  0.0051  0.0279  0.0317  0.0523  0.0000  0.0000  0.0000  0.0000  0.0000 </r>
       </set>
       <set comment="band 9">
        <r>  0.0091  0.0394  0.0155  0.0073  0.0000  0.0000  0.0000  0.0000  0.0000 </r>
        <r>  0.0091  0.0394  0.0155  0.0073  0.0000  0.0000  0.0000  0.0000  0.0000 </r>
       </set>
       <set comment="band 10">
        <r>  0.0070  0.0021  0.0298  0.0006  0.0000  0.0000  0.0000  0.0000  0.0000 </r>
        <r>  0.0070  0.0021  0.0298  0.0006  0.0000  0.0000  0.0000  0.0000  0.0000 </r>
       </set>
       <set comment="band 11">
        <r>  0.0300  0.0203  0.0143  0.0548  0.0000  0.0000  0.0000  0.0000  0.0000 </r>
        <r>  0.0300  0.0203  0.0143  0.0548  0.0000  0.0000  0.0000  0.0000  0.0000 </r>
       </set>
       <set comment="band 12">
        <r>  0.0187  0.0038  0.0597  0.0155  0.0000  0.0000  0.0000  0.0000  0.0000 </r>
        <r>  0.0187  0.0038  0.0597  0.0155  0.0000  0.0000  0.0000  0.0000  0.0000 </r>
       </set>
       <set comment="band 13">
        <r>  0.0317  0.0612  0.0394  0.0174  0.0000  0.0000  0.0000  0.0000  0.0000 </r>
        <r>  0.0317  0.0612  0.0394  0.0174  0.0000  0.0000  0.0000  0.0000  0.0000 </r>
       </set>
       <set comment="band 14">
        <r>  0.0209  0.0564  0.0352  0.0771  0.0000  0.0000  0.0000  0.0000  0.0000 </r>
        <r>  0.0209  0.0564  0.0352  0.0771  0.0000  0.0000  0.0000  0.0000  0.0000 </r>
       </set>
       <set comment="band 15">
        <r>  0.0372  0.0024  0.0143  0.0065  0.0000  0.0000  0.0000  0.0000  0.0000 </r>
        <r>  0.0372  0.0024  0.0143  0.0065  0.0000  0.0000  0.0000  0.0000  0.0000 </r>
       </set>
       <set comment="band 16">
        <r>  0.0085  0.0045  0.0022  0.0205  0.0000  0.0000  0.0000  0.0000  0.0000 </r>
        <r>  0.0085  0.0045  0.0022  0.0205  0.0000  0.0000  0.0000  0.0000  0.0000 </r>
       </set>
      </set>
      <set comment="kpoint 71">
       <set comment="band 1">
        <r>  0.2085  0.0007  0.0072  0.0001  0.0000  0.0000  0.0000  0.0000  0.0000 </r>
        <r>  0.2085  0.0007  0.0072  0.0001  0.0000  0.0000  0.0000  0.0000  0.0000 </r>
       </set>
       <set comment="band 2">
        <r>  0.1275  0.0197  0.0772  0.0177  0.0000  0.0000  0.0000  0.0000  0.0000 </r>
        <r>  0.1275  0.0197  0.0772  0.0177  0.0000  0.0000  0.0000  0.0000  0.0000 </r>
       </set>
       <set comment="band 3">
        <r>  0.0047  0.0515  0.0103  0.1236  0.0000  0.0000  0.0000  0.0000  0.0000 </r>
        <r>  0.0047  0.0515  0.0103  0.1236  0.0000  0.0000  0.0000  0.0000  0.0000 </r>
       </set>
       <set comment="band 4">
        <r>  0.0102  0.1196  0.0410  0.0364  0.0000  0.0000  0.0000  0.0000  0.0000 </r>
        <r>  0.0102  0.1196  0.0410  0.0364  0.0000  0.0000  0.0000  0.0000  0.0000 </r>
       </set>
       <set comment="band 5">
        <r>  0.0290  0.0082  0.0824  0.0143  0.0000  0.0000  0.0000  0.0000  0.0000 </r>
        <r>  0.0290  0.0082  0.0824  0.0143  0.0000  0.0000  0.0000  0.0000  0.0000 </r>
       </set>
       <set comment="band 6">
        <r>  0.1011  0.0055  0.0451  0.0393  0.0000  0.0000  0.0000  0.0000  0.0000 </r>
        <r>  0.1011  0.0055  0.0451  0.0393  0.0000  0.0000  0.0000  0.0000  0.0000 </r>
       </set>
       <set comment="band 7">
        <r>  0.0002  0.0543  0.0049  0.0414  0.0000  0.0000  0.0000  0.0000  0.0000 </r>
        <r>  0.0002  0.0543  0.0049  0.0414  0.0000  0.0000  0.0000  0.0000  0.0000 </r>
       </set>
       <set comment="band 8">
        <r>  0.0032  0.0818  0.0027  0.0759  0.0000  0.0000  0.0000  0.0000  0.0000 </r>
        <r>  0.0032  0.0818  0.0027  0.0759  0.0000  0.0000  0.0000  0.0000  0.0000 </r>
       </set>
       <set comment="band 9">
        <r>  0.1022  0.0174  0.0544  0.0039  0.0000  0.0000  0.0000  0.0000  0.0000 </r>
        <r>  0.1022  0.0174  0.0544  0.0039  0.0000  0.0000  0.0000  0.0000  0.0000 </r>
       </set>
       <set comment="band 10">
        <r>  0.0130  0.0029  0.0059  0.0084  0.0000  0.0000  0.0000  0.0000  0.0000 </r>
        <r>  0.0130  0.0029  0.0059  0.0084  0.0000  0.0000  0.0000  0.0000  0.0000 </r>
       </set>
       <set comment="band 11">
        <r>  0.0432  0.0063  0.0674  0.0083  0.0000  0.0000  0.0000  0.0000  0.0000 </r>
        <r>  0.0432  0.0063  0.0674  0.0083  0.0000  0.0000  0.0000  0.0000  0.0000 </r>
       </set>
       <set comment="band 12">
        <r>  0.0123  0.0104  0.0010  0.0012  0.0000  0.0000  0.0000  0.0000  0.0000 </r>
        <r>  0.0123  0.0104  0.0010  0.0012  0.0000  0.0000  0.0000  0.0000  0.0000 </r>
       </set>
       <set comment="band 13">
        <r>  0.0035  0.0016  0.0047  0.0256  0.0000  0.0000  0.0000  0.0000  0.0000 </r>
        <r>  0.0035  0.0016  0.0047  0.0256  0.0000  0.0000  0.0000  0.0000  0.0000 </r>
       </set>
       <set comment="band 14">
        <r>  0.0041  0.0188  0.0054  0.0003  0.0000  0.0000  0.0000  0.0000  0.0000 </r>
        <r>  0.0041  0.0188  0.0054  0.0003  0.0000  0.0000  0.0000  0.0000  0.0000 </r>
       </set>
       <set comment="band 15">
        <r>  0.0069  0.0523  0.0120  0.0031  0.0000  0.0000  0.0000  0.0000  0.0000 </r>
        <r>  0.0069  0.0523  0.0120  0.0031  0.0000  0.0000  0.0000  0.0000  0.0000 </r>
       </set>
       <set comment="band 16">
        <r>  0.0001  0.0071  0.0051  0.0794  0.0000  0.0000  0.0000  0.0000  0.0000 </r>
        <r>  0.0001  0.0071  0.0051  0.0794  0.0000  0.0000  0.0000  0.0000  0.0000 </r>
       </set>
      </set>
      <set comment="kpoint 72">
       <set comment="band 1">
        <r>  0.2076  0.0015  0.0095  0.0004  0.0000  0.0000  0.0000  0.0000  0.0000 </r>
        <r>  0.2076  0.0015  0.0095  0.0004  0.0000  0.0000  0.0000  0.0000  0.0000 </r>
       </set>
       <set comment="band 2">
        <r>  0.1329  0.0221  0.0558  0.0260  0.0000  0.0000  0.0000  0.0000  0.0000 </r>
        <r>  0.1329  0.0221  0.0558  0.0260  0.0000  0.0000  0.0000  0.0000  0.0000 </r>
       </set>
       <set comment="band 3">
        <r>  0.0142  0.0456  0.0243  0.1044  0.0000  0.0000  0.0000  0.0000  0.0000 </r>
        <r>  0.0142  0.0456  0.0243  0.1044  0.0000  0.0000  0.0000  0.0000  0.0000 </r>
       </set>
       <set comment="band 4">
        <r>  0.0094  0.1130  0.0489  0.0340  0.0000  0.0000  0.0000  0.0000  0.0000 </r>
        <r>  0.0094  0.1130  0.0489  0.0340  0.0000  0.0000  0.0000  0.0000  0.0000 </r>
       </set>
       <set comment="band 5">
        <r>  0.0318  0.0135  0.0685  0.0203  0.0000  0.0000  0.0000  0.0000  0.0000 </r>
        <r>  0.0318  0.0135  0.0685  0.0203  0.0000  0.0000  0.0000  0.0000  0.0000 </r>
       </set>
       <set comment="band 6">
        <r>  0.0949  0.0063  0.0416  0.0417  0.0000  0.0000  0.0000  0.0000  0.0000 </r>
        <r>  0.0949  0.0063  0.0416  0.0417  0.0000  0.0000  0.0000  0.0000  0.0000 </r>
       </set>
       <set comment="band 7">
        <r>  0.0027  0.0534  0.0009  0.0297  0.0000  0.0000  0.0000  0.0000  0.0000 </r>
        <r>  0.0027  0.0534  0.0009  0.0297  0.0000  0.0000  0.0000  0.0000  0.0000 </r>
       </set>
       <set comment="band 8">
        <r>  0.0047  0.0688  0.0047  0.0767  0.0000  0.0000  0.0000  0.0000  0.0000 </r>
        <r>  0.0047  0.0688  0.0047  0.0767  0.0000  0.0000  0.0000  0.0000  0.0000 </r>
       </set>
       <set comment="band 9">
        <r>  0.0569  0.0154  0.0459  0.0052  0.0000  0.0000  0.0000  0.0000  0.0000 </r>
        <r>  0.0569  0.0154  0.0459  0.0052  0.0000  0.0000  0.0000  0.0000  0.0000 </r>
       </set>
       <set comment="band 10">
        <r>  0.0443  0.0191  0.0316  0.0179  0.0000  0.0000  0.0000  0.0000  0.0000 </r>
        <r>  0.0443  0.0191  0.0316  0.0179  0.0000  0.0000  0.0000  0.0000  0.0000 </r>
       </set>
       <set comment="band 11">
        <r>  0.0217  0.0098  0.0545  0.0153  0.0000  0.0000  0.0000  0.0000  0.0000 </r>
        <r>  0.0217  0.0098  0.0545  0.0153  0.0000  0.0000  0.0000  0.0000  0.0000 </r>
       </set>
       <set comment="band 12">
        <r>  0.0181  0.0098  0.0229  0.0050  0.0000  0.0000  0.0000  0.0000  0.0000 </r>
        <r>  0.0181  0.0098  0.0229  0.0050  0.0000  0.0000  0.0000  0.0000  0.0000 </r>
       </set>
       <set comment="band 13">
        <r>  0.0078  0.0037  0.0082  0.0187  0.0000  0.0000  0.0000  0.0000  0.0000 </r>
        <r>  0.0078  0.0037  0.0082  0.0187  0.0000  0.0000  0.0000  0.0000  0.0000 </r>
       </set>
       <set comment="band 14">
        <r>  0.0046  0.0230  0.0041  0.0063  0.0000  0.0000  0.0000  0.0000  0.0000 </r>
        <r>  0.0046  0.0230  0.0041  0.0063  0.0000  0.0000  0.0000  0.0000  0.0000 </r>
       </set>
       <set comment="band 15">
        <r>  0.0087  0.0459  0.0124  0.0023  0.0000  0.0000  0.0000  0.0000  0.0000 </r>
        <r>  0.0087  0.0459  0.0124  0.0023  0.0000  0.0000  0.0000  0.0000  0.0000 </r>
       </set>
       <set comment="band 16">
        <r>  0.0073  0.0014  0.0139  0.0646  0.0000  0.0000  0.0000  0.0000  0.0000 </r>
        <r>  0.0073  0.0014  0.0139  0.0646  0.0000  0.0000  0.0000  0.0000  0.0000 </r>
       </set>
      </set>
      <set comment="kpoint 73">
       <set comment="band 1">
        <r>  0.2074  0.0024  0.0117  0.0011  0.0000  0.0000  0.0000  0.0000  0.0000 </r>
        <r>  0.2074  0.0024  0.0117  0.0011  0.0000  0.0000  0.0000  0.0000  0.0000 </r>
       </set>
       <set comment="band 2">
        <r>  0.1334  0.0239  0.0400  0.0306  0.0000  0.0000  0.0000  0.0000  0.0000 </r>
        <r>  0.1334  0.0239  0.0400  0.0306  0.0000  0.0000  0.0000  0.0000  0.0000 </r>
       </set>
       <set comment="band 3">
        <r>  0.0266  0.0350  0.0421  0.0875  0.0000  0.0000  0.0000  0.0000  0.0000 </r>
        <r>  0.0266  0.0350  0.0421  0.0875  0.0000  0.0000  0.0000  0.0000  0.0000 </r>
       </set>
       <set comment="band 4">
        <r>  0.0063  0.1128  0.0451  0.0379  0.0000  0.0000  0.0000  0.0000  0.0000 </r>
        <r>  0.0063  0.1128  0.0451  0.0379  0.0000  0.0000  0.0000  0.0000  0.0000 </r>
       </set>
       <set comment="band 5">
        <r>  0.0428  0.0113  0.0589  0.0178  0.0000  0.0000  0.0000  0.0000  0.0000 </r>
        <r>  0.0428  0.0113  0.0589  0.0178  0.0000  0.0000  0.0000  0.0000  0.0000 </r>
       </set>
       <set comment="band 6">
        <r>  0.0692  0.0286  0.0251  0.0617  0.0000  0.0000  0.0000  0.0000  0.0000 </r>
        <r>  0.0692  0.0286  0.0251  0.0617  0.0000  0.0000  0.0000  0.0000  0.0000 </r>
       </set>
       <set comment="band 7">
        <r>  0.0198  0.0420  0.0172  0.0064  0.0000  0.0000  0.0000  0.0000  0.0000 </r>
        <r>  0.0198  0.0420  0.0172  0.0064  0.0000  0.0000  0.0000  0.0000  0.0000 </r>
       </set>
       <set comment="band 8">
        <r>  0.0070  0.0532  0.0062  0.0696  0.0000  0.0000  0.0000  0.0000  0.0000 </r>
        <r>  0.0070  0.0532  0.0062  0.0696  0.0000  0.0000  0.0000  0.0000  0.0000 </r>
       </set>
       <set comment="band 9">
        <r>  0.0301  0.0143  0.0370  0.0188  0.0000  0.0000  0.0000  0.0000  0.0000 </r>
        <r>  0.0301  0.0143  0.0370  0.0188  0.0000  0.0000  0.0000  0.0000  0.0000 </r>
       </set>
       <set comment="band 10">
        <r>  0.0189  0.0081  0.0479  0.0119  0.0000  0.0000  0.0000  0.0000  0.0000 </r>
        <r>  0.0189  0.0081  0.0479  0.0119  0.0000  0.0000  0.0000  0.0000  0.0000 </r>
       </set>
       <set comment="band 11">
        <r>  0.0435  0.0326  0.0492  0.0202  0.0000  0.0000  0.0000  0.0000  0.0000 </r>
        <r>  0.0435  0.0326  0.0492  0.0202  0.0000  0.0000  0.0000  0.0000  0.0000 </r>
       </set>
       <set comment="band 12">
        <r>  0.0096  0.0346  0.0285  0.0149  0.0000  0.0000  0.0000  0.0000  0.0000 </r>
        <r>  0.0096  0.0346  0.0285  0.0149  0.0000  0.0000  0.0000  0.0000  0.0000 </r>
       </set>
       <set comment="band 13">
        <r>  0.0153  0.0076  0.0297  0.0260  0.0000  0.0000  0.0000  0.0000  0.0000 </r>
        <r>  0.0153  0.0076  0.0297  0.0260  0.0000  0.0000  0.0000  0.0000  0.0000 </r>
       </set>
       <set comment="band 14">
        <r>  0.0246  0.0193  0.0080  0.0122  0.0000  0.0000  0.0000  0.0000  0.0000 </r>
        <r>  0.0246  0.0193  0.0080  0.0122  0.0000  0.0000  0.0000  0.0000  0.0000 </r>
       </set>
       <set comment="band 15">
        <r>  0.0007  0.0194  0.0055  0.0159  0.0000  0.0000  0.0000  0.0000  0.0000 </r>
        <r>  0.0007  0.0194  0.0055  0.0159  0.0000  0.0000  0.0000  0.0000  0.0000 </r>
       </set>
       <set comment="band 16">
        <r>  0.0105  0.0036  0.0169  0.0235  0.0000  0.0000  0.0000  0.0000  0.0000 </r>
        <r>  0.0105  0.0036  0.0169  0.0235  0.0000  0.0000  0.0000  0.0000  0.0000 </r>
       </set>
      </set>
      <set comment="kpoint 74">
       <set comment="band 1">
        <r>  0.2095  0.0031  0.0130  0.0022  0.0000  0.0000  0.0000  0.0000  0.0000 </r>
        <r>  0.2095  0.0031  0.0130  0.0022  0.0000  0.0000  0.0000  0.0000  0.0000 </r>
       </set>
       <set comment="band 2">
        <r>  0.1316  0.0244  0.0314  0.0314  0.0000  0.0000  0.0000  0.0000  0.0000 </r>
        <r>  0.1316  0.0244  0.0314  0.0314  0.0000  0.0000  0.0000  0.0000  0.0000 </r>
       </set>
       <set comment="band 3">
        <r>  0.0360  0.0266  0.0586  0.0722  0.0000  0.0000  0.0000  0.0000  0.0000 </r>
        <r>  0.0360  0.0266  0.0586  0.0722  0.0000  0.0000  0.0000  0.0000  0.0000 </r>
       </set>
       <set comment="band 4">
        <r>  0.0026  0.1150  0.0344  0.0478  0.0000  0.0000  0.0000  0.0000  0.0000 </r>
        <r>  0.0026  0.1150  0.0344  0.0478  0.0000  0.0000  0.0000  0.0000  0.0000 </r>
       </set>
       <set comment="band 5">
        <r>  0.0540  0.0088  0.0529  0.0137  0.0000  0.0000  0.0000  0.0000  0.0000 </r>
        <r>  0.0540  0.0088  0.0529  0.0137  0.0000  0.0000  0.0000  0.0000  0.0000 </r>
       </set>
       <set comment="band 6">
        <r>  0.0475  0.0343  0.0175  0.0473  0.0000  0.0000  0.0000  0.0000  0.0000 </r>
        <r>  0.0475  0.0343  0.0175  0.0473  0.0000  0.0000  0.0000  0.0000  0.0000 </r>
       </set>
       <set comment="band 7">
        <r>  0.0231  0.0765  0.0267  0.0255  0.0000  0.0000  0.0000  0.0000  0.0000 </r>
        <r>  0.0231  0.0765  0.0267  0.0255  0.0000  0.0000  0.0000  0.0000  0.0000 </r>
       </set>
       <set comment="band 8">
        <r>  0.0169  0.0108  0.0089  0.0568  0.0000  0.0000  0.0000  0.0000  0.0000 </r>
        <r>  0.0169  0.0108  0.0089  0.0568  0.0000  0.0000  0.0000  0.0000  0.0000 </r>
       </set>
       <set comment="band 9">
        <r>  0.0080  0.0215  0.0279  0.0360  0.0000  0.0000  0.0000  0.0000  0.0000 </r>
        <r>  0.0080  0.0215  0.0279  0.0360  0.0000  0.0000  0.0000  0.0000  0.0000 </r>
       </set>
       <set comment="band 10">
        <r>  0.0158  0.0061  0.0593  0.0053  0.0000  0.0000  0.0000  0.0000  0.0000 </r>
        <r>  0.0158  0.0061  0.0593  0.0053  0.0000  0.0000  0.0000  0.0000  0.0000 </r>
       </set>
       <set comment="band 11">
        <r>  0.0320  0.0283  0.0090  0.0135  0.0000  0.0000  0.0000  0.0000  0.0000 </r>
        <r>  0.0320  0.0283  0.0090  0.0135  0.0000  0.0000  0.0000  0.0000  0.0000 </r>
       </set>
       <set comment="band 12">
        <r>  0.0267  0.0428  0.0590  0.0150  0.0000  0.0000  0.0000  0.0000  0.0000 </r>
        <r>  0.0267  0.0428  0.0590  0.0150  0.0000  0.0000  0.0000  0.0000  0.0000 </r>
       </set>
       <set comment="band 13">
        <r>  0.0132  0.0218  0.0454  0.0561  0.0000  0.0000  0.0000  0.0000  0.0000 </r>
        <r>  0.0132  0.0218  0.0454  0.0561  0.0000  0.0000  0.0000  0.0000  0.0000 </r>
       </set>
       <set comment="band 14">
        <r>  0.0280  0.0056  0.0147  0.0077  0.0000  0.0000  0.0000  0.0000  0.0000 </r>
        <r>  0.0280  0.0056  0.0147  0.0077  0.0000  0.0000  0.0000  0.0000  0.0000 </r>
       </set>
       <set comment="band 15">
        <r>  0.0009  0.0323  0.0071  0.0082  0.0000  0.0000  0.0000  0.0000  0.0000 </r>
        <r>  0.0009  0.0323  0.0071  0.0082  0.0000  0.0000  0.0000  0.0000  0.0000 </r>
       </set>
       <set comment="band 16">
        <r>  0.0134  0.0124  0.0244  0.0562  0.0000  0.0000  0.0000  0.0000  0.0000 </r>
        <r>  0.0134  0.0124  0.0244  0.0562  0.0000  0.0000  0.0000  0.0000  0.0000 </r>
       </set>
      </set>
      <set comment="kpoint 75">
       <set comment="band 1">
        <r>  0.2158  0.0034  0.0119  0.0038  0.0000  0.0000  0.0000  0.0000  0.0000 </r>
        <r>  0.2158  0.0034  0.0119  0.0038  0.0000  0.0000  0.0000  0.0000  0.0000 </r>
       </set>
       <set comment="band 2">
        <r>  0.1257  0.0247  0.0288  0.0305  0.0000  0.0000  0.0000  0.0000  0.0000 </r>
        <r>  0.1257  0.0247  0.0288  0.0305  0.0000  0.0000  0.0000  0.0000  0.0000 </r>
       </set>
       <set comment="band 3">
        <r>  0.0405  0.0236  0.0713  0.0584  0.0000  0.0000  0.0000  0.0000  0.0000 </r>
        <r>  0.0405  0.0236  0.0713  0.0584  0.0000  0.0000  0.0000  0.0000  0.0000 </r>
       </set>
       <set comment="band 4">
        <r>  0.0005  0.1152  0.0236  0.0601  0.0000  0.0000  0.0000  0.0000  0.0000 </r>
        <r>  0.0005  0.1152  0.0236  0.0601  0.0000  0.0000  0.0000  0.0000  0.0000 </r>
       </set>
       <set comment="band 5">
        <r>  0.0628  0.0085  0.0505  0.0108  0.0000  0.0000  0.0000  0.0000  0.0000 </r>
        <r>  0.0628  0.0085  0.0505  0.0108  0.0000  0.0000  0.0000  0.0000  0.0000 </r>
       </set>
       <set comment="band 6">
        <r>  0.0405  0.0320  0.0183  0.0416  0.0000  0.0000  0.0000  0.0000  0.0000 </r>
        <r>  0.0405  0.0320  0.0183  0.0416  0.0000  0.0000  0.0000  0.0000  0.0000 </r>
       </set>
       <set comment="band 7">
        <r>  0.0179  0.0535  0.0206  0.0407  0.0000  0.0000  0.0000  0.0000  0.0000 </r>
        <r>  0.0179  0.0535  0.0206  0.0407  0.0000  0.0000  0.0000  0.0000  0.0000 </r>
       </set>
       <set comment="band 8">
        <r>  0.0195  0.0353  0.0200  0.0423  0.0000  0.0000  0.0000  0.0000  0.0000 </r>
        <r>  0.0195  0.0353  0.0200  0.0423  0.0000  0.0000  0.0000  0.0000  0.0000 </r>
       </set>
       <set comment="band 9">
        <r>  0.0046  0.0326  0.0546  0.0221  0.0000  0.0000  0.0000  0.0000  0.0000 </r>
        <r>  0.0046  0.0326  0.0546  0.0221  0.0000  0.0000  0.0000  0.0000  0.0000 </r>
       </set>
       <set comment="band 10">
        <r>  0.0039  0.0044  0.0141  0.0061  0.0000  0.0000  0.0000  0.0000  0.0000 </r>
        <r>  0.0039  0.0044  0.0141  0.0061  0.0000  0.0000  0.0000  0.0000  0.0000 </r>
       </set>
       <set comment="band 11">
        <r>  0.0233  0.0220  0.0316  0.0424  0.0000  0.0000  0.0000  0.0000  0.0000 </r>
        <r>  0.0233  0.0220  0.0316  0.0424  0.0000  0.0000  0.0000  0.0000  0.0000 </r>
       </set>
       <set comment="band 12">
        <r>  0.0298  0.0089  0.0331  0.0249  0.0000  0.0000  0.0000  0.0000  0.0000 </r>
        <r>  0.0298  0.0089  0.0331  0.0249  0.0000  0.0000  0.0000  0.0000  0.0000 </r>
       </set>
       <set comment="band 13">
        <r>  0.0330  0.0503  0.0635  0.0266  0.0000  0.0000  0.0000  0.0000  0.0000 </r>
        <r>  0.0330  0.0503  0.0635  0.0266  0.0000  0.0000  0.0000  0.0000  0.0000 </r>
       </set>
       <set comment="band 14">
        <r>  0.0019  0.0509  0.0218  0.0599  0.0000  0.0000  0.0000  0.0000  0.0000 </r>
        <r>  0.0019  0.0509  0.0218  0.0599  0.0000  0.0000  0.0000  0.0000  0.0000 </r>
       </set>
       <set comment="band 15">
        <r>  0.0317  0.0019  0.0247  0.0078  0.0000  0.0000  0.0000  0.0000  0.0000 </r>
        <r>  0.0317  0.0019  0.0247  0.0078  0.0000  0.0000  0.0000  0.0000  0.0000 </r>
       </set>
       <set comment="band 16">
        <r>  0.0058  0.0062  0.0095  0.0149  0.0000  0.0000  0.0000  0.0000  0.0000 </r>
        <r>  0.0058  0.0062  0.0095  0.0149  0.0000  0.0000  0.0000  0.0000  0.0000 </r>
       </set>
      </set>
      <set comment="kpoint 76">
       <set comment="band 1">
        <r>  0.2199  0.0039  0.0074  0.0072  0.0000  0.0000  0.0000  0.0000  0.0000 </r>
        <r>  0.2199  0.0039  0.0074  0.0072  0.0000  0.0000  0.0000  0.0000  0.0000 </r>
       </set>
       <set comment="band 2">
        <r>  0.1217  0.0244  0.0318  0.0278  0.0000  0.0000  0.0000  0.0000  0.0000 </r>
        <r>  0.1217  0.0244  0.0318  0.0278  0.0000  0.0000  0.0000  0.0000  0.0000 </r>
       </set>
       <set comment="band 3">
        <r>  0.0403  0.0253  0.0788  0.0479  0.0000  0.0000  0.0000  0.0000  0.0000 </r>
        <r>  0.0403  0.0253  0.0788  0.0479  0.0000  0.0000  0.0000  0.0000  0.0000 </r>
       </set>
       <set comment="band 4">
        <r>  0.0006  0.1129  0.0161  0.0710  0.0000  0.0000  0.0000  0.0000  0.0000 </r>
        <r>  0.0006  0.1129  0.0161  0.0710  0.0000  0.0000  0.0000  0.0000  0.0000 </r>
       </set>
       <set comment="band 5">
        <r>  0.0712  0.0090  0.0513  0.0089  0.0000  0.0000  0.0000  0.0000  0.0000 </r>
        <r>  0.0712  0.0090  0.0513  0.0089  0.0000  0.0000  0.0000  0.0000  0.0000 </r>
       </set>
       <set comment="band 6">
        <r>  0.0326  0.0294  0.0199  0.0400  0.0000  0.0000  0.0000  0.0000  0.0000 </r>
        <r>  0.0326  0.0294  0.0199  0.0400  0.0000  0.0000  0.0000  0.0000  0.0000 </r>
       </set>
       <set comment="band 7">
        <r>  0.0195  0.0509  0.0250  0.0365  0.0000  0.0000  0.0000  0.0000  0.0000 </r>
        <r>  0.0195  0.0509  0.0250  0.0365  0.0000  0.0000  0.0000  0.0000  0.0000 </r>
       </set>
       <set comment="band 8">
        <r>  0.0131  0.0448  0.0171  0.0416  0.0000  0.0000  0.0000  0.0000  0.0000 </r>
        <r>  0.0131  0.0448  0.0171  0.0416  0.0000  0.0000  0.0000  0.0000  0.0000 </r>
       </set>
       <set comment="band 9">
        <r>  0.0118  0.0319  0.0545  0.0234  0.0000  0.0000  0.0000  0.0000  0.0000 </r>
        <r>  0.0118  0.0319  0.0545  0.0234  0.0000  0.0000  0.0000  0.0000  0.0000 </r>
       </set>
       <set comment="band 10">
        <r>  0.0024  0.0086  0.0198  0.0218  0.0000  0.0000  0.0000  0.0000  0.0000 </r>
        <r>  0.0024  0.0086  0.0198  0.0218  0.0000  0.0000  0.0000  0.0000  0.0000 </r>
       </set>
       <set comment="band 11">
        <r>  0.0357  0.0057  0.0240  0.0247  0.0000  0.0000  0.0000  0.0000  0.0000 </r>
        <r>  0.0357  0.0057  0.0240  0.0247  0.0000  0.0000  0.0000  0.0000  0.0000 </r>
       </set>
       <set comment="band 12">
        <r>  0.0234  0.0167  0.0320  0.0345  0.0000  0.0000  0.0000  0.0000  0.0000 </r>
        <r>  0.0234  0.0167  0.0320  0.0345  0.0000  0.0000  0.0000  0.0000  0.0000 </r>
       </set>
       <set comment="band 13">
        <r>  0.0151  0.0472  0.0503  0.0071  0.0000  0.0000  0.0000  0.0000  0.0000 </r>
        <r>  0.0151  0.0472  0.0503  0.0071  0.0000  0.0000  0.0000  0.0000  0.0000 </r>
       </set>
       <set comment="band 14">
        <r>  0.0162  0.0544  0.0420  0.0741  0.0000  0.0000  0.0000  0.0000  0.0000 </r>
        <r>  0.0162  0.0544  0.0420  0.0741  0.0000  0.0000  0.0000  0.0000  0.0000 </r>
       </set>
       <set comment="band 15">
        <r>  0.0253  0.0012  0.0111  0.0144  0.0000  0.0000  0.0000  0.0000  0.0000 </r>
        <r>  0.0253  0.0012  0.0111  0.0144  0.0000  0.0000  0.0000  0.0000  0.0000 </r>
       </set>
       <set comment="band 16">
        <r>  0.0177  0.0009  0.0324  0.0119  0.0000  0.0000  0.0000  0.0000  0.0000 </r>
        <r>  0.0177  0.0009  0.0324  0.0120  0.0000  0.0000  0.0000  0.0000  0.0000 </r>
       </set>
      </set>
      <set comment="kpoint 77">
       <set comment="band 1">
        <r>  0.2136  0.0050  0.0037  0.0101  0.0000  0.0000  0.0000  0.0000  0.0000 </r>
        <r>  0.2136  0.0050  0.0037  0.0101  0.0000  0.0000  0.0000  0.0000  0.0000 </r>
       </set>
       <set comment="band 2">
        <r>  0.1278  0.0235  0.0349  0.0263  0.0000  0.0000  0.0000  0.0000  0.0000 </r>
        <r>  0.1278  0.0235  0.0349  0.0263  0.0000  0.0000  0.0000  0.0000  0.0000 </r>
       </set>
       <set comment="band 3">
        <r>  0.0364  0.0295  0.0830  0.0406  0.0000  0.0000  0.0000  0.0000  0.0000 </r>
        <r>  0.0364  0.0295  0.0830  0.0406  0.0000  0.0000  0.0000  0.0000  0.0000 </r>
       </set>
       <set comment="band 4">
        <r>  0.0018  0.1103  0.0121  0.0790  0.0000  0.0000  0.0000  0.0000  0.0000 </r>
        <r>  0.0018  0.1103  0.0121  0.0790  0.0000  0.0000  0.0000  0.0000  0.0000 </r>
       </set>
       <set comment="band 5">
        <r>  0.0802  0.0094  0.0551  0.0082  0.0000  0.0000  0.0000  0.0000  0.0000 </r>
        <r>  0.0802  0.0094  0.0551  0.0082  0.0000  0.0000  0.0000  0.0000  0.0000 </r>
       </set>
       <set comment="band 6">
        <r>  0.0222  0.0279  0.0219  0.0412  0.0000  0.0000  0.0000  0.0000  0.0000 </r>
        <r>  0.0222  0.0279  0.0219  0.0412  0.0000  0.0000  0.0000  0.0000  0.0000 </r>
       </set>
       <set comment="band 7">
        <r>  0.0202  0.0541  0.0306  0.0322  0.0000  0.0000  0.0000  0.0000  0.0000 </r>
        <r>  0.0202  0.0541  0.0306  0.0322  0.0000  0.0000  0.0000  0.0000  0.0000 </r>
       </set>
       <set comment="band 8">
        <r>  0.0191  0.0320  0.0419  0.0155  0.0000  0.0000  0.0000  0.0000  0.0000 </r>
        <r>  0.0191  0.0320  0.0419  0.0155  0.0000  0.0000  0.0000  0.0000  0.0000 </r>
       </set>
       <set comment="band 9">
        <r>  0.0043  0.0433  0.0520  0.0254  0.0000  0.0000  0.0000  0.0000  0.0000 </r>
        <r>  0.0043  0.0433  0.0520  0.0254  0.0000  0.0000  0.0000  0.0000  0.0000 </r>
       </set>
       <set comment="band 10">
        <r>  0.0143  0.0084  0.0032  0.0616  0.0000  0.0000  0.0000  0.0000  0.0000 </r>
        <r>  0.0143  0.0084  0.0032  0.0616  0.0000  0.0000  0.0000  0.0000  0.0000 </r>
       </set>
       <set comment="band 11">
        <r>  0.0401  0.0071  0.0045  0.0037  0.0000  0.0000  0.0000  0.0000  0.0000 </r>
        <r>  0.0401  0.0071  0.0045  0.0037  0.0000  0.0000  0.0000  0.0000  0.0000 </r>
       </set>
       <set comment="band 12">
        <r>  0.0237  0.0386  0.0100  0.0583  0.0000  0.0000  0.0000  0.0000  0.0000 </r>
        <r>  0.0237  0.0386  0.0100  0.0583  0.0000  0.0000  0.0000  0.0000  0.0000 </r>
       </set>
       <set comment="band 13">
        <r>  0.0115  0.0275  0.0567  0.0395  0.0000  0.0000  0.0000  0.0000  0.0000 </r>
        <r>  0.0115  0.0275  0.0567  0.0395  0.0000  0.0000  0.0000  0.0000  0.0000 </r>
       </set>
       <set comment="band 14">
        <r>  0.0014  0.0417  0.0530  0.0205  0.0000  0.0000  0.0000  0.0000  0.0000 </r>
        <r>  0.0014  0.0417  0.0530  0.0205  0.0000  0.0000  0.0000  0.0000  0.0000 </r>
       </set>
       <set comment="band 15">
        <r>  0.0357  0.0069  0.0203  0.0081  0.0000  0.0000  0.0000  0.0000  0.0000 </r>
        <r>  0.0357  0.0069  0.0203  0.0081  0.0000  0.0000  0.0000  0.0000  0.0000 </r>
       </set>
       <set comment="band 16">
        <r>  0.0055  0.0070  0.0137  0.0236  0.0000  0.0000  0.0000  0.0000  0.0000 </r>
        <r>  0.0055  0.0070  0.0137  0.0236  0.0000  0.0000  0.0000  0.0000  0.0000 </r>
       </set>
      </set>
      <set comment="kpoint 78">
       <set comment="band 1">
        <r>  0.2089  0.0049  0.0019  0.0102  0.0000  0.0000  0.0000  0.0000  0.0000 </r>
        <r>  0.2089  0.0049  0.0019  0.0102  0.0000  0.0000  0.0000  0.0000  0.0000 </r>
       </set>
       <set comment="band 2">
        <r>  0.1324  0.0239  0.0361  0.0295  0.0000  0.0000  0.0000  0.0000  0.0000 </r>
        <r>  0.1324  0.0239  0.0361  0.0295  0.0000  0.0000  0.0000  0.0000  0.0000 </r>
       </set>
       <set comment="band 3">
        <r>  0.0293  0.0344  0.0866  0.0351  0.0000  0.0000  0.0000  0.0000  0.0000 </r>
        <r>  0.0293  0.0344  0.0866  0.0351  0.0000  0.0000  0.0000  0.0000  0.0000 </r>
       </set>
       <set comment="band 4">
        <r>  0.0031  0.1088  0.0104  0.0841  0.0000  0.0000  0.0000  0.0000  0.0000 </r>
        <r>  0.0031  0.1088  0.0104  0.0841  0.0000  0.0000  0.0000  0.0000  0.0000 </r>
       </set>
       <set comment="band 5">
        <r>  0.0877  0.0095  0.0606  0.0107  0.0000  0.0000  0.0000  0.0000  0.0000 </r>
        <r>  0.0877  0.0095  0.0606  0.0107  0.0000  0.0000  0.0000  0.0000  0.0000 </r>
       </set>
       <set comment="band 6">
        <r>  0.0123  0.0280  0.0270  0.0444  0.0000  0.0000  0.0000  0.0000  0.0000 </r>
        <r>  0.0123  0.0280  0.0270  0.0444  0.0000  0.0000  0.0000  0.0000  0.0000 </r>
       </set>
       <set comment="band 7">
        <r>  0.0203  0.0629  0.0360  0.0288  0.0000  0.0000  0.0000  0.0000  0.0000 </r>
        <r>  0.0203  0.0629  0.0360  0.0288  0.0000  0.0000  0.0000  0.0000  0.0000 </r>
       </set>
       <set comment="band 8">
        <r>  0.0249  0.0228  0.0385  0.0124  0.0000  0.0000  0.0000  0.0000  0.0000 </r>
        <r>  0.0249  0.0228  0.0385  0.0124  0.0000  0.0000  0.0000  0.0000  0.0000 </r>
       </set>
       <set comment="band 9">
        <r>  0.0222  0.0137  0.0244  0.0345  0.0000  0.0000  0.0000  0.0000  0.0000 </r>
        <r>  0.0222  0.0137  0.0244  0.0345  0.0000  0.0000  0.0000  0.0000  0.0000 </r>
       </set>
       <set comment="band 10">
        <r>  0.0073  0.0301  0.0236  0.0510  0.0000  0.0000  0.0000  0.0000  0.0000 </r>
        <r>  0.0073  0.0301  0.0236  0.0510  0.0000  0.0000  0.0000  0.0000  0.0000 </r>
       </set>
       <set comment="band 11">
        <r>  0.0455  0.0181  0.0079  0.0132  0.0000  0.0000  0.0000  0.0000  0.0000 </r>
        <r>  0.0455  0.0181  0.0079  0.0132  0.0000  0.0000  0.0000  0.0000  0.0000 </r>
       </set>
       <set comment="band 12">
        <r>  0.0204  0.0433  0.0173  0.0457  0.0000  0.0000  0.0000  0.0000  0.0000 </r>
        <r>  0.0204  0.0433  0.0173  0.0457  0.0000  0.0000  0.0000  0.0000  0.0000 </r>
       </set>
       <set comment="band 13">
        <r>  0.0163  0.0090  0.0332  0.0296  0.0000  0.0000  0.0000  0.0000  0.0000 </r>
        <r>  0.0163  0.0090  0.0332  0.0296  0.0000  0.0000  0.0000  0.0000  0.0000 </r>
       </set>
       <set comment="band 14">
        <r>  0.0170  0.0143  0.0215  0.0163  0.0000  0.0000  0.0000  0.0000  0.0000 </r>
        <r>  0.0170  0.0143  0.0215  0.0163  0.0000  0.0000  0.0000  0.0000  0.0000 </r>
       </set>
       <set comment="band 15">
        <r>  0.0000  0.0353  0.0056  0.0131  0.0000  0.0000  0.0000  0.0000  0.0000 </r>
        <r>  0.0000  0.0353  0.0056  0.0131  0.0000  0.0000  0.0000  0.0000  0.0000 </r>
       </set>
       <set comment="band 16">
        <r>  0.0120  0.0071  0.0720  0.0226  0.0000  0.0000  0.0000  0.0000  0.0000 </r>
        <r>  0.0120  0.0071  0.0720  0.0226  0.0000  0.0000  0.0000  0.0000  0.0000 </r>
       </set>
      </set>
      <set comment="kpoint 79">
       <set comment="band 1">
        <r>  0.2078  0.0040  0.0008  0.0088  0.0000  0.0000  0.0000  0.0000  0.0000 </r>
        <r>  0.2078  0.0040  0.0008  0.0088  0.0000  0.0000  0.0000  0.0000  0.0000 </r>
       </set>
       <set comment="band 2">
        <r>  0.1339  0.0256  0.0346  0.0372  0.0000  0.0000  0.0000  0.0000  0.0000 </r>
        <r>  0.1339  0.0256  0.0346  0.0372  0.0000  0.0000  0.0000  0.0000  0.0000 </r>
       </set>
       <set comment="band 3">
        <r>  0.0190  0.0389  0.0932  0.0295  0.0000  0.0000  0.0000  0.0000  0.0000 </r>
        <r>  0.0190  0.0389  0.0932  0.0295  0.0000  0.0000  0.0000  0.0000  0.0000 </r>
       </set>
       <set comment="band 4">
        <r>  0.0043  0.1096  0.0102  0.0861  0.0000  0.0000  0.0000  0.0000  0.0000 </r>
        <r>  0.0043  0.1096  0.0102  0.0861  0.0000  0.0000  0.0000  0.0000  0.0000 </r>
       </set>
       <set comment="band 5">
        <r>  0.0739  0.0124  0.0562  0.0293  0.0000  0.0000  0.0000  0.0000  0.0000 </r>
        <r>  0.0739  0.0124  0.0562  0.0293  0.0000  0.0000  0.0000  0.0000  0.0000 </r>
       </set>
       <set comment="band 6">
        <r>  0.0277  0.0255  0.0475  0.0376  0.0000  0.0000  0.0000  0.0000  0.0000 </r>
        <r>  0.0277  0.0255  0.0475  0.0376  0.0000  0.0000  0.0000  0.0000  0.0000 </r>
       </set>
       <set comment="band 7">
        <r>  0.0192  0.0666  0.0422  0.0220  0.0000  0.0000  0.0000  0.0000  0.0000 </r>
        <r>  0.0192  0.0666  0.0422  0.0220  0.0000  0.0000  0.0000  0.0000  0.0000 </r>
       </set>
       <set comment="band 8">
        <r>  0.0276  0.0221  0.0328  0.0123  0.0000  0.0000  0.0000  0.0000  0.0000 </r>
        <r>  0.0276  0.0221  0.0328  0.0123  0.0000  0.0000  0.0000  0.0000  0.0000 </r>
       </set>
       <set comment="band 9">
        <r>  0.0302  0.0115  0.0081  0.0325  0.0000  0.0000  0.0000  0.0000  0.0000 </r>
        <r>  0.0302  0.0115  0.0081  0.0325  0.0000  0.0000  0.0000  0.0000  0.0000 </r>
       </set>
       <set comment="band 10">
        <r>  0.0323  0.0248  0.0221  0.0486  0.0000  0.0000  0.0000  0.0000  0.0000 </r>
        <r>  0.0323  0.0248  0.0221  0.0486  0.0000  0.0000  0.0000  0.0000  0.0000 </r>
       </set>
       <set comment="band 11">
        <r>  0.0310  0.0354  0.0274  0.0420  0.0000  0.0000  0.0000  0.0000  0.0000 </r>
        <r>  0.0310  0.0354  0.0274  0.0420  0.0000  0.0000  0.0000  0.0000  0.0000 </r>
       </set>
       <set comment="band 12">
        <r>  0.0131  0.0163  0.0089  0.0175  0.0000  0.0000  0.0000  0.0000  0.0000 </r>
        <r>  0.0131  0.0163  0.0089  0.0175  0.0000  0.0000  0.0000  0.0000  0.0000 </r>
       </set>
       <set comment="band 13">
        <r>  0.0345  0.0017  0.0055  0.0029  0.0000  0.0000  0.0000  0.0000  0.0000 </r>
        <r>  0.0345  0.0017  0.0055  0.0029  0.0000  0.0000  0.0000  0.0000  0.0000 </r>
       </set>
       <set comment="band 14">
        <r>  0.0019  0.0310  0.0054  0.0305  0.0000  0.0000  0.0000  0.0000  0.0000 </r>
        <r>  0.0019  0.0310  0.0054  0.0305  0.0000  0.0000  0.0000  0.0000  0.0000 </r>
       </set>
       <set comment="band 15">
        <r>  0.0017  0.0245  0.0199  0.0036  0.0000  0.0000  0.0000  0.0000  0.0000 </r>
        <r>  0.0017  0.0245  0.0199  0.0036  0.0000  0.0000  0.0000  0.0000  0.0000 </r>
       </set>
       <set comment="band 16">
        <r>  0.0053  0.0013  0.0781  0.0227  0.0000  0.0000  0.0000  0.0000  0.0000 </r>
        <r>  0.0053  0.0013  0.0781  0.0228  0.0000  0.0000  0.0000  0.0000  0.0000 </r>
       </set>
      </set>
      <set comment="kpoint 80">
       <set comment="band 1">
        <r>  0.2083  0.0028  0.0003  0.0068  0.0000  0.0000  0.0000  0.0000  0.0000 </r>
        <r>  0.2083  0.0028  0.0003  0.0068  0.0000  0.0000  0.0000  0.0000  0.0000 </r>
       </set>
       <set comment="band 2">
        <r>  0.1283  0.0293  0.0304  0.0483  0.0000  0.0000  0.0000  0.0000  0.0000 </r>
        <r>  0.1283  0.0293  0.0304  0.0483  0.0000  0.0000  0.0000  0.0000  0.0000 </r>
       </set>
       <set comment="band 3">
        <r>  0.0104  0.0410  0.1051  0.0239  0.0000  0.0000  0.0000  0.0000  0.0000 </r>
        <r>  0.0104  0.0410  0.1051  0.0239  0.0000  0.0000  0.0000  0.0000  0.0000 </r>
       </set>
       <set comment="band 4">
        <r>  0.0054  0.1127  0.0112  0.0842  0.0000  0.0000  0.0000  0.0000  0.0000 </r>
        <r>  0.0054  0.1127  0.0112  0.0842  0.0000  0.0000  0.0000  0.0000  0.0000 </r>
       </set>
       <set comment="band 5">
        <r>  0.0196  0.0211  0.0300  0.0722  0.0000  0.0000  0.0000  0.0000  0.0000 </r>
        <r>  0.0196  0.0211  0.0300  0.0722  0.0000  0.0000  0.0000  0.0000  0.0000 </r>
       </set>
       <set comment="band 6">
        <r>  0.0928  0.0111  0.0842  0.0084  0.0000  0.0000  0.0000  0.0000  0.0000 </r>
        <r>  0.0928  0.0111  0.0842  0.0084  0.0000  0.0000  0.0000  0.0000  0.0000 </r>
       </set>
       <set comment="band 7">
        <r>  0.0112  0.0664  0.0713  0.0076  0.0000  0.0000  0.0000  0.0000  0.0000 </r>
        <r>  0.0112  0.0664  0.0713  0.0076  0.0000  0.0000  0.0000  0.0000  0.0000 </r>
       </set>
       <set comment="band 8">
        <r>  0.0322  0.0320  0.0000  0.0261  0.0000  0.0000  0.0000  0.0000  0.0000 </r>
        <r>  0.0322  0.0320  0.0000  0.0261  0.0000  0.0000  0.0000  0.0000  0.0000 </r>
       </set>
       <set comment="band 9">
        <r>  0.0372  0.0131  0.0001  0.0294  0.0000  0.0000  0.0000  0.0000  0.0000 </r>
        <r>  0.0372  0.0131  0.0001  0.0294  0.0000  0.0000  0.0000  0.0000  0.0000 </r>
       </set>
       <set comment="band 10">
        <r>  0.0541  0.0248  0.0220  0.0318  0.0000  0.0000  0.0000  0.0000  0.0000 </r>
        <r>  0.0541  0.0248  0.0220  0.0318  0.0000  0.0000  0.0000  0.0000  0.0000 </r>
       </set>
       <set comment="band 11">
        <r>  0.0265  0.0227  0.0244  0.0534  0.0000  0.0000  0.0000  0.0000  0.0000 </r>
        <r>  0.0265  0.0227  0.0244  0.0534  0.0000  0.0000  0.0000  0.0000  0.0000 </r>
       </set>
       <set comment="band 12">
        <r>  0.0167  0.0030  0.0012  0.0006  0.0000  0.0000  0.0000  0.0000  0.0000 </r>
        <r>  0.0167  0.0030  0.0012  0.0006  0.0000  0.0000  0.0000  0.0000  0.0000 </r>
       </set>
       <set comment="band 13">
        <r>  0.0114  0.0034  0.0159  0.0095  0.0000  0.0000  0.0000  0.0000  0.0000 </r>
        <r>  0.0114  0.0034  0.0159  0.0095  0.0000  0.0000  0.0000  0.0000  0.0000 </r>
       </set>
       <set comment="band 14">
        <r>  0.0136  0.0391  0.0005  0.0220  0.0000  0.0000  0.0000  0.0000  0.0000 </r>
        <r>  0.0136  0.0391  0.0005  0.0220  0.0000  0.0000  0.0000  0.0000  0.0000 </r>
       </set>
       <set comment="band 15">
        <r>  0.0007  0.0230  0.0023  0.0071  0.0000  0.0000  0.0000  0.0000  0.0000 </r>
        <r>  0.0007  0.0230  0.0023  0.0071  0.0000  0.0000  0.0000  0.0000  0.0000 </r>
       </set>
       <set comment="band 16">
        <r>  0.0001  0.0087  0.0832  0.0175  0.0000  0.0000  0.0000  0.0000  0.0000 </r>
        <r>  0.0001  0.0087  0.0832  0.0175  0.0000  0.0000  0.0000  0.0000  0.0000 </r>
       </set>
      </set>
      <set comment="kpoint 81">
       <set comment="band 1">
        <r>  0.2063  0.0006  0.0127  0.0001  0.0000  0.0000  0.0000  0.0000  0.0000 </r>
        <r>  0.2063  0.0006  0.0127  0.0001  0.0000  0.0000  0.0000  0.0000  0.0000 </r>
       </set>
       <set comment="band 2">
        <r>  0.1552  0.0077  0.0746  0.0114  0.0000  0.0000  0.0000  0.0000  0.0000 </r>
        <r>  0.1552  0.0077  0.0746  0.0114  0.0000  0.0000  0.0000  0.0000  0.0000 </r>
       </set>
       <set comment="band 3">
        <r>  0.0051  0.0618  0.0084  0.1123  0.0000  0.0000  0.0000  0.0000  0.0000 </r>
        <r>  0.0051  0.0618  0.0084  0.1123  0.0000  0.0000  0.0000  0.0000  0.0000 </r>
       </set>
       <set comment="band 4">
        <r>  0.0050  0.1157  0.0226  0.0550  0.0000  0.0000  0.0000  0.0000  0.0000 </r>
        <r>  0.0050  0.1157  0.0226  0.0550  0.0000  0.0000  0.0000  0.0000  0.0000 </r>
       </set>
       <set comment="band 5">
        <r>  0.0377  0.0094  0.0654  0.0126  0.0000  0.0000  0.0000  0.0000  0.0000 </r>
        <r>  0.0377  0.0094  0.0654  0.0126  0.0000  0.0000  0.0000  0.0000  0.0000 </r>
       </set>
       <set comment="band 6">
        <r>  0.0506  0.0036  0.0354  0.0041  0.0000  0.0000  0.0000  0.0000  0.0000 </r>
        <r>  0.0506  0.0036  0.0354  0.0041  0.0000  0.0000  0.0000  0.0000  0.0000 </r>
       </set>
       <set comment="band 7">
        <r>  0.0242  0.0688  0.0082  0.0618  0.0000  0.0000  0.0000  0.0000  0.0000 </r>
        <r>  0.0242  0.0688  0.0082  0.0618  0.0000  0.0000  0.0000  0.0000  0.0000 </r>
       </set>
       <set comment="band 8">
        <r>  0.0018  0.0707  0.0030  0.0891  0.0000  0.0000  0.0000  0.0000  0.0000 </r>
        <r>  0.0018  0.0707  0.0030  0.0891  0.0000  0.0000  0.0000  0.0000  0.0000 </r>
       </set>
       <set comment="band 9">
        <r>  0.0871  0.0116  0.0706  0.0006  0.0000  0.0000  0.0000  0.0000  0.0000 </r>
        <r>  0.0871  0.0116  0.0706  0.0006  0.0000  0.0000  0.0000  0.0000  0.0000 </r>
       </set>
       <set comment="band 10">
        <r>  0.0304  0.0119  0.0241  0.0125  0.0000  0.0000  0.0000  0.0000  0.0000 </r>
        <r>  0.0304  0.0119  0.0241  0.0125  0.0000  0.0000  0.0000  0.0000  0.0000 </r>
       </set>
       <set comment="band 11">
        <r>  0.0191  0.0064  0.0950  0.0129  0.0000  0.0000  0.0000  0.0000  0.0000 </r>
        <r>  0.0191  0.0064  0.0950  0.0129  0.0000  0.0000  0.0000  0.0000  0.0000 </r>
       </set>
       <set comment="band 12">
        <r>  0.0089  0.0104  0.0002  0.0004  0.0000  0.0000  0.0000  0.0000  0.0000 </r>
        <r>  0.0089  0.0104  0.0002  0.0004  0.0000  0.0000  0.0000  0.0000  0.0000 </r>
       </set>
       <set comment="band 13">
        <r>  0.0076  0.0000  0.0147  0.0187  0.0000  0.0000  0.0000  0.0000  0.0000 </r>
        <r>  0.0076  0.0000  0.0147  0.0187  0.0000  0.0000  0.0000  0.0000  0.0000 </r>
       </set>
       <set comment="band 14">
        <r>  0.0030  0.0193  0.0022  0.0095  0.0000  0.0000  0.0000  0.0000  0.0000 </r>
        <r>  0.0030  0.0193  0.0022  0.0095  0.0000  0.0000  0.0000  0.0000  0.0000 </r>
       </set>
       <set comment="band 15">
        <r>  0.0076  0.0584  0.0076  0.0003  0.0000  0.0000  0.0000  0.0000  0.0000 </r>
        <r>  0.0076  0.0584  0.0076  0.0003  0.0000  0.0000  0.0000  0.0000  0.0000 </r>
       </set>
       <set comment="band 16">
        <r>  0.0007  0.0015  0.0016  0.0854  0.0000  0.0000  0.0000  0.0000  0.0000 </r>
        <r>  0.0007  0.0015  0.0016  0.0854  0.0000  0.0000  0.0000  0.0000  0.0000 </r>
       </set>
      </set>
      <set comment="kpoint 82">
       <set comment="band 1">
        <r>  0.2056  0.0012  0.0155  0.0006  0.0000  0.0000  0.0000  0.0000  0.0000 </r>
        <r>  0.2056  0.0012  0.0155  0.0006  0.0000  0.0000  0.0000  0.0000  0.0000 </r>
       </set>
       <set comment="band 2">
        <r>  0.1592  0.0108  0.0565  0.0178  0.0000  0.0000  0.0000  0.0000  0.0000 </r>
        <r>  0.1592  0.0108  0.0565  0.0178  0.0000  0.0000  0.0000  0.0000  0.0000 </r>
       </set>
       <set comment="band 3">
        <r>  0.0132  0.0542  0.0238  0.0919  0.0000  0.0000  0.0000  0.0000  0.0000 </r>
        <r>  0.0132  0.0542  0.0238  0.0919  0.0000  0.0000  0.0000  0.0000  0.0000 </r>
       </set>
       <set comment="band 4">
        <r>  0.0035  0.1087  0.0260  0.0567  0.0000  0.0000  0.0000  0.0000  0.0000 </r>
        <r>  0.0035  0.1087  0.0260  0.0567  0.0000  0.0000  0.0000  0.0000  0.0000 </r>
       </set>
       <set comment="band 5">
        <r>  0.0378  0.0141  0.0544  0.0162  0.0000  0.0000  0.0000  0.0000  0.0000 </r>
        <r>  0.0378  0.0141  0.0544  0.0162  0.0000  0.0000  0.0000  0.0000  0.0000 </r>
       </set>
       <set comment="band 6">
        <r>  0.0434  0.0137  0.0278  0.0105  0.0000  0.0000  0.0000  0.0000  0.0000 </r>
        <r>  0.0434  0.0137  0.0278  0.0105  0.0000  0.0000  0.0000  0.0000  0.0000 </r>
       </set>
       <set comment="band 7">
        <r>  0.0358  0.0585  0.0146  0.0519  0.0000  0.0000  0.0000  0.0000  0.0000 </r>
        <r>  0.0358  0.0585  0.0146  0.0519  0.0000  0.0000  0.0000  0.0000  0.0000 </r>
       </set>
       <set comment="band 8">
        <r>  0.0062  0.0605  0.0074  0.0825  0.0000  0.0000  0.0000  0.0000  0.0000 </r>
        <r>  0.0062  0.0605  0.0074  0.0825  0.0000  0.0000  0.0000  0.0000  0.0000 </r>
       </set>
       <set comment="band 9">
        <r>  0.0458  0.0098  0.0507  0.0081  0.0000  0.0000  0.0000  0.0000  0.0000 </r>
        <r>  0.0458  0.0098  0.0507  0.0081  0.0000  0.0000  0.0000  0.0000  0.0000 </r>
       </set>
       <set comment="band 10">
        <r>  0.0477  0.0285  0.0527  0.0189  0.0000  0.0000  0.0000  0.0000  0.0000 </r>
        <r>  0.0477  0.0285  0.0527  0.0189  0.0000  0.0000  0.0000  0.0000  0.0000 </r>
       </set>
       <set comment="band 11">
        <r>  0.0046  0.0154  0.0775  0.0194  0.0000  0.0000  0.0000  0.0000  0.0000 </r>
        <r>  0.0046  0.0154  0.0775  0.0194  0.0000  0.0000  0.0000  0.0000  0.0000 </r>
       </set>
       <set comment="band 12">
        <r>  0.0084  0.0195  0.0060  0.0051  0.0000  0.0000  0.0000  0.0000  0.0000 </r>
        <r>  0.0084  0.0195  0.0060  0.0051  0.0000  0.0000  0.0000  0.0000  0.0000 </r>
       </set>
       <set comment="band 13">
        <r>  0.0154  0.0039  0.0382  0.0123  0.0000  0.0000  0.0000  0.0000  0.0000 </r>
        <r>  0.0154  0.0039  0.0382  0.0123  0.0000  0.0000  0.0000  0.0000  0.0000 </r>
       </set>
       <set comment="band 14">
        <r>  0.0133  0.0264  0.0022  0.0300  0.0000  0.0000  0.0000  0.0000  0.0000 </r>
        <r>  0.0133  0.0264  0.0022  0.0300  0.0000  0.0000  0.0000  0.0000  0.0000 </r>
       </set>
       <set comment="band 15">
        <r>  0.0002  0.0224  0.0128  0.0159  0.0000  0.0000  0.0000  0.0000  0.0000 </r>
        <r>  0.0002  0.0224  0.0128  0.0159  0.0000  0.0000  0.0000  0.0000  0.0000 </r>
       </set>
       <set comment="band 16">
        <r>  0.0112  0.0031  0.0125  0.0228  0.0000  0.0000  0.0000  0.0000  0.0000 </r>
        <r>  0.0112  0.0031  0.0125  0.0228  0.0000  0.0000  0.0000  0.0000  0.0000 </r>
       </set>
      </set>
      <set comment="kpoint 83">
       <set comment="band 1">
        <r>  0.2063  0.0019  0.0177  0.0015  0.0000  0.0000  0.0000  0.0000  0.0000 </r>
        <r>  0.2063  0.0019  0.0177  0.0015  0.0000  0.0000  0.0000  0.0000  0.0000 </r>
       </set>
       <set comment="band 2">
        <r>  0.1577  0.0146  0.0411  0.0228  0.0000  0.0000  0.0000  0.0000  0.0000 </r>
        <r>  0.1577  0.0146  0.0411  0.0228  0.0000  0.0000  0.0000  0.0000  0.0000 </r>
       </set>
       <set comment="band 3">
        <r>  0.0229  0.0443  0.0447  0.0691  0.0000  0.0000  0.0000  0.0000  0.0000 </r>
        <r>  0.0229  0.0443  0.0447  0.0691  0.0000  0.0000  0.0000  0.0000  0.0000 </r>
       </set>
       <set comment="band 4">
        <r>  0.0012  0.1057  0.0198  0.0662  0.0000  0.0000  0.0000  0.0000  0.0000 </r>
        <r>  0.0012  0.1057  0.0198  0.0662  0.0000  0.0000  0.0000  0.0000  0.0000 </r>
       </set>
       <set comment="band 5">
        <r>  0.0426  0.0123  0.0474  0.0114  0.0000  0.0000  0.0000  0.0000  0.0000 </r>
        <r>  0.0426  0.0123  0.0474  0.0114  0.0000  0.0000  0.0000  0.0000  0.0000 </r>
       </set>
       <set comment="band 6">
        <r>  0.0302  0.0311  0.0207  0.0204  0.0000  0.0000  0.0000  0.0000  0.0000 </r>
        <r>  0.0302  0.0311  0.0207  0.0204  0.0000  0.0000  0.0000  0.0000  0.0000 </r>
       </set>
       <set comment="band 7">
        <r>  0.0444  0.0470  0.0217  0.0471  0.0000  0.0000  0.0000  0.0000  0.0000 </r>
        <r>  0.0444  0.0470  0.0217  0.0471  0.0000  0.0000  0.0000  0.0000  0.0000 </r>
       </set>
       <set comment="band 8">
        <r>  0.0133  0.0506  0.0144  0.0684  0.0000  0.0000  0.0000  0.0000  0.0000 </r>
        <r>  0.0133  0.0506  0.0144  0.0684  0.0000  0.0000  0.0000  0.0000  0.0000 </r>
       </set>
       <set comment="band 9">
        <r>  0.0250  0.0144  0.0418  0.0235  0.0000  0.0000  0.0000  0.0000  0.0000 </r>
        <r>  0.0250  0.0144  0.0418  0.0235  0.0000  0.0000  0.0000  0.0000  0.0000 </r>
       </set>
       <set comment="band 10">
        <r>  0.0027  0.0255  0.0690  0.0184  0.0000  0.0000  0.0000  0.0000  0.0000 </r>
        <r>  0.0027  0.0255  0.0690  0.0184  0.0000  0.0000  0.0000  0.0000  0.0000 </r>
       </set>
       <set comment="band 11">
        <r>  0.0435  0.0350  0.0688  0.0189  0.0000  0.0000  0.0000  0.0000  0.0000 </r>
        <r>  0.0435  0.0350  0.0688  0.0189  0.0000  0.0000  0.0000  0.0000  0.0000 </r>
       </set>
       <set comment="band 12">
        <r>  0.0097  0.0263  0.0045  0.0112  0.0000  0.0000  0.0000  0.0000  0.0000 </r>
        <r>  0.0097  0.0263  0.0045  0.0112  0.0000  0.0000  0.0000  0.0000  0.0000 </r>
       </set>
       <set comment="band 13">
        <r>  0.0117  0.0141  0.0289  0.0509  0.0000  0.0000  0.0000  0.0000  0.0000 </r>
        <r>  0.0117  0.0141  0.0289  0.0509  0.0000  0.0000  0.0000  0.0000  0.0000 </r>
       </set>
       <set comment="band 14">
        <r>  0.0242  0.0016  0.0292  0.0026  0.0000  0.0000  0.0000  0.0000  0.0000 </r>
        <r>  0.0242  0.0016  0.0292  0.0026  0.0000  0.0000  0.0000  0.0000  0.0000 </r>
       </set>
       <set comment="band 15">
        <r>  0.0002  0.0126  0.0172  0.0106  0.0000  0.0000  0.0000  0.0000  0.0000 </r>
        <r>  0.0002  0.0126  0.0172  0.0106  0.0000  0.0000  0.0000  0.0000  0.0000 </r>
       </set>
       <set comment="band 16">
        <r>  0.0193  0.0074  0.0236  0.0101  0.0000  0.0000  0.0000  0.0000  0.0000 </r>
        <r>  0.0193  0.0074  0.0236  0.0101  0.0000  0.0000  0.0000  0.0000  0.0000 </r>
       </set>
      </set>
      <set comment="kpoint 84">
       <set comment="band 1">
        <r>  0.2106  0.0023  0.0177  0.0031  0.0000  0.0000  0.0000  0.0000  0.0000 </r>
        <r>  0.2106  0.0023  0.0177  0.0031  0.0000  0.0000  0.0000  0.0000  0.0000 </r>
       </set>
       <set comment="band 2">
        <r>  0.1522  0.0171  0.0326  0.0248  0.0000  0.0000  0.0000  0.0000  0.0000 </r>
        <r>  0.1522  0.0171  0.0326  0.0248  0.0000  0.0000  0.0000  0.0000  0.0000 </r>
       </set>
       <set comment="band 3">
        <r>  0.0285  0.0387  0.0593  0.0528  0.0000  0.0000  0.0000  0.0000  0.0000 </r>
        <r>  0.0285  0.0387  0.0593  0.0528  0.0000  0.0000  0.0000  0.0000  0.0000 </r>
       </set>
       <set comment="band 4">
        <r>  0.0005  0.1033  0.0138  0.0753  0.0000  0.0000  0.0000  0.0000  0.0000 </r>
        <r>  0.0005  0.1033  0.0138  0.0753  0.0000  0.0000  0.0000  0.0000  0.0000 </r>
       </set>
       <set comment="band 5">
        <r>  0.0469  0.0123  0.0440  0.0074  0.0000  0.0000  0.0000  0.0000  0.0000 </r>
        <r>  0.0469  0.0123  0.0440  0.0074  0.0000  0.0000  0.0000  0.0000  0.0000 </r>
       </set>
       <set comment="band 6">
        <r>  0.0162  0.0661  0.0066  0.0168  0.0000  0.0000  0.0000  0.0000  0.0000 </r>
        <r>  0.0162  0.0661  0.0066  0.0168  0.0000  0.0000  0.0000  0.0000  0.0000 </r>
       </set>
       <set comment="band 7">
        <r>  0.0501  0.0142  0.0353  0.0562  0.0000  0.0000  0.0000  0.0000  0.0000 </r>
        <r>  0.0501  0.0142  0.0353  0.0562  0.0000  0.0000  0.0000  0.0000  0.0000 </r>
       </set>
       <set comment="band 8">
        <r>  0.0196  0.0465  0.0224  0.0563  0.0000  0.0000  0.0000  0.0000  0.0000 </r>
        <r>  0.0196  0.0465  0.0224  0.0563  0.0000  0.0000  0.0000  0.0000  0.0000 </r>
       </set>
       <set comment="band 9">
        <r>  0.0081  0.0365  0.0574  0.0207  0.0000  0.0000  0.0000  0.0000  0.0000 </r>
        <r>  0.0081  0.0365  0.0574  0.0207  0.0000  0.0000  0.0000  0.0000  0.0000 </r>
       </set>
       <set comment="band 10">
        <r>  0.0034  0.0112  0.0257  0.0173  0.0000  0.0000  0.0000  0.0000  0.0000 </r>
        <r>  0.0034  0.0112  0.0257  0.0173  0.0000  0.0000  0.0000  0.0000  0.0000 </r>
       </set>
       <set comment="band 11">
        <r>  0.0166  0.0181  0.0471  0.0408  0.0000  0.0000  0.0000  0.0000  0.0000 </r>
        <r>  0.0166  0.0181  0.0471  0.0408  0.0000  0.0000  0.0000  0.0000  0.0000 </r>
       </set>
       <set comment="band 12">
        <r>  0.0323  0.0120  0.0056  0.0285  0.0000  0.0000  0.0000  0.0000  0.0000 </r>
        <r>  0.0323  0.0120  0.0056  0.0285  0.0000  0.0000  0.0000  0.0000  0.0000 </r>
       </set>
       <set comment="band 13">
        <r>  0.0284  0.0417  0.0765  0.0212  0.0000  0.0000  0.0000  0.0000  0.0000 </r>
        <r>  0.0284  0.0417  0.0765  0.0212  0.0000  0.0000  0.0000  0.0000  0.0000 </r>
       </set>
       <set comment="band 14">
        <r>  0.0118  0.0020  0.0421  0.0105  0.0000  0.0000  0.0000  0.0000  0.0000 </r>
        <r>  0.0118  0.0020  0.0421  0.0105  0.0000  0.0000  0.0000  0.0000  0.0000 </r>
       </set>
       <set comment="band 15">
        <r>  0.0012  0.0380  0.0115  0.0428  0.0000  0.0000  0.0000  0.0000  0.0000 </r>
        <r>  0.0012  0.0380  0.0115  0.0428  0.0000  0.0000  0.0000  0.0000  0.0000 </r>
       </set>
       <set comment="band 16">
        <r>  0.0040  0.0022  0.0402  0.0318  0.0000  0.0000  0.0000  0.0000  0.0000 </r>
        <r>  0.0040  0.0022  0.0402  0.0318  0.0000  0.0000  0.0000  0.0000  0.0000 </r>
       </set>
      </set>
      <set comment="kpoint 85">
       <set comment="band 1">
        <r>  0.2170  0.0031  0.0130  0.0065  0.0000  0.0000  0.0000  0.0000  0.0000 </r>
        <r>  0.2170  0.0031  0.0130  0.0065  0.0000  0.0000  0.0000  0.0000  0.0000 </r>
       </set>
       <set comment="band 2">
        <r>  0.1452  0.0179  0.0325  0.0238  0.0000  0.0000  0.0000  0.0000  0.0000 </r>
        <r>  0.1452  0.0179  0.0325  0.0238  0.0000  0.0000  0.0000  0.0000  0.0000 </r>
       </set>
       <set comment="band 3">
        <r>  0.0292  0.0372  0.0674  0.0430  0.0000  0.0000  0.0000  0.0000  0.0000 </r>
        <r>  0.0292  0.0372  0.0674  0.0430  0.0000  0.0000  0.0000  0.0000  0.0000 </r>
       </set>
       <set comment="band 4">
        <r>  0.0010  0.1014  0.0103  0.0819  0.0000  0.0000  0.0000  0.0000  0.0000 </r>
        <r>  0.0010  0.1014  0.0103  0.0819  0.0000  0.0000  0.0000  0.0000  0.0000 </r>
       </set>
       <set comment="band 5">
        <r>  0.0502  0.0137  0.0437  0.0051  0.0000  0.0000  0.0000  0.0000  0.0000 </r>
        <r>  0.0502  0.0137  0.0437  0.0051  0.0000  0.0000  0.0000  0.0000  0.0000 </r>
       </set>
       <set comment="band 6">
        <r>  0.0327  0.0466  0.0209  0.0306  0.0000  0.0000  0.0000  0.0000  0.0000 </r>
        <r>  0.0327  0.0466  0.0209  0.0306  0.0000  0.0000  0.0000  0.0000  0.0000 </r>
       </set>
       <set comment="band 7">
        <r>  0.0062  0.0052  0.0027  0.0794  0.0000  0.0000  0.0000  0.0000  0.0000 </r>
        <r>  0.0062  0.0052  0.0027  0.0794  0.0000  0.0000  0.0000  0.0000  0.0000 </r>
       </set>
       <set comment="band 8">
        <r>  0.0410  0.0769  0.0465  0.0147  0.0000  0.0000  0.0000  0.0000  0.0000 </r>
        <r>  0.0410  0.0769  0.0465  0.0147  0.0000  0.0000  0.0000  0.0000  0.0000 </r>
       </set>
       <set comment="band 9">
        <r>  0.0156  0.0333  0.0522  0.0195  0.0000  0.0000  0.0000  0.0000  0.0000 </r>
        <r>  0.0156  0.0333  0.0522  0.0195  0.0000  0.0000  0.0000  0.0000  0.0000 </r>
       </set>
       <set comment="band 10">
        <r>  0.0068  0.0156  0.0355  0.0356  0.0000  0.0000  0.0000  0.0000  0.0000 </r>
        <r>  0.0068  0.0156  0.0355  0.0356  0.0000  0.0000  0.0000  0.0000  0.0000 </r>
       </set>
       <set comment="band 11">
        <r>  0.0197  0.0011  0.0161  0.0325  0.0000  0.0000  0.0000  0.0000  0.0000 </r>
        <r>  0.0197  0.0011  0.0161  0.0325  0.0000  0.0000  0.0000  0.0000  0.0000 </r>
       </set>
       <set comment="band 12">
        <r>  0.0269  0.0214  0.0358  0.0181  0.0000  0.0000  0.0000  0.0000  0.0000 </r>
        <r>  0.0269  0.0214  0.0358  0.0181  0.0000  0.0000  0.0000  0.0000  0.0000 </r>
       </set>
       <set comment="band 13">
        <r>  0.0138  0.0440  0.0829  0.0243  0.0000  0.0000  0.0000  0.0000  0.0000 </r>
        <r>  0.0138  0.0440  0.0829  0.0243  0.0000  0.0000  0.0000  0.0000  0.0000 </r>
       </set>
       <set comment="band 14">
        <r>  0.0049  0.0476  0.0122  0.0559  0.0000  0.0000  0.0000  0.0000  0.0000 </r>
        <r>  0.0049  0.0476  0.0122  0.0559  0.0000  0.0000  0.0000  0.0000  0.0000 </r>
       </set>
       <set comment="band 15">
        <r>  0.0026  0.0004  0.0386  0.0344  0.0000  0.0000  0.0000  0.0000  0.0000 </r>
        <r>  0.0026  0.0004  0.0386  0.0344  0.0000  0.0000  0.0000  0.0000  0.0000 </r>
       </set>
       <set comment="band 16">
        <r>  0.0313  0.0035  0.0098  0.0013  0.0000  0.0000  0.0000  0.0000  0.0000 </r>
        <r>  0.0313  0.0035  0.0098  0.0013  0.0000  0.0000  0.0000  0.0000  0.0000 </r>
       </set>
      </set>
      <set comment="kpoint 86">
       <set comment="band 1">
        <r>  0.2141  0.0051  0.0066  0.0108  0.0000  0.0000  0.0000  0.0000  0.0000 </r>
        <r>  0.2141  0.0051  0.0066  0.0108  0.0000  0.0000  0.0000  0.0000  0.0000 </r>
       </set>
       <set comment="band 2">
        <r>  0.1488  0.0165  0.0362  0.0219  0.0000  0.0000  0.0000  0.0000  0.0000 </r>
        <r>  0.1488  0.0165  0.0362  0.0219  0.0000  0.0000  0.0000  0.0000  0.0000 </r>
       </set>
       <set comment="band 3">
        <r>  0.0255  0.0383  0.0725  0.0369  0.0000  0.0000  0.0000  0.0000  0.0000 </r>
        <r>  0.0255  0.0383  0.0725  0.0369  0.0000  0.0000  0.0000  0.0000  0.0000 </r>
       </set>
       <set comment="band 4">
        <r>  0.0018  0.1004  0.0086  0.0863  0.0000  0.0000  0.0000  0.0000  0.0000 </r>
        <r>  0.0018  0.1004  0.0086  0.0863  0.0000  0.0000  0.0000  0.0000  0.0000 </r>
       </set>
       <set comment="band 5">
        <r>  0.0533  0.0154  0.0462  0.0036  0.0000  0.0000  0.0000  0.0000  0.0000 </r>
        <r>  0.0533  0.0154  0.0462  0.0036  0.0000  0.0000  0.0000  0.0000  0.0000 </r>
       </set>
       <set comment="band 6">
        <r>  0.0303  0.0407  0.0254  0.0339  0.0000  0.0000  0.0000  0.0000  0.0000 </r>
        <r>  0.0303  0.0407  0.0254  0.0339  0.0000  0.0000  0.0000  0.0000  0.0000 </r>
       </set>
       <set comment="band 7">
        <r>  0.0240  0.0477  0.0305  0.0501  0.0000  0.0000  0.0000  0.0000  0.0000 </r>
        <r>  0.0240  0.0477  0.0305  0.0501  0.0000  0.0000  0.0000  0.0000  0.0000 </r>
       </set>
       <set comment="band 8">
        <r>  0.0187  0.0344  0.0350  0.0062  0.0000  0.0000  0.0000  0.0000  0.0000 </r>
        <r>  0.0187  0.0344  0.0350  0.0062  0.0000  0.0000  0.0000  0.0000  0.0000 </r>
       </set>
       <set comment="band 9">
        <r>  0.0194  0.0363  0.0369  0.0525  0.0000  0.0000  0.0000  0.0000  0.0000 </r>
        <r>  0.0194  0.0363  0.0369  0.0525  0.0000  0.0000  0.0000  0.0000  0.0000 </r>
       </set>
       <set comment="band 10">
        <r>  0.0173  0.0162  0.0344  0.0399  0.0000  0.0000  0.0000  0.0000  0.0000 </r>
        <r>  0.0173  0.0162  0.0344  0.0399  0.0000  0.0000  0.0000  0.0000  0.0000 </r>
       </set>
       <set comment="band 11">
        <r>  0.0288  0.0009  0.0012  0.0111  0.0000  0.0000  0.0000  0.0000  0.0000 </r>
        <r>  0.0288  0.0009  0.0012  0.0111  0.0000  0.0000  0.0000  0.0000  0.0000 </r>
       </set>
       <set comment="band 12">
        <r>  0.0082  0.0256  0.0659  0.0311  0.0000  0.0000  0.0000  0.0000  0.0000 </r>
        <r>  0.0082  0.0256  0.0659  0.0311  0.0000  0.0000  0.0000  0.0000  0.0000 </r>
       </set>
       <set comment="band 13">
        <r>  0.0139  0.0462  0.0252  0.0675  0.0000  0.0000  0.0000  0.0000  0.0000 </r>
        <r>  0.0139  0.0462  0.0252  0.0675  0.0000  0.0000  0.0000  0.0000  0.0000 </r>
       </set>
       <set comment="band 14">
        <r>  0.0029  0.0236  0.0332  0.0107  0.0000  0.0000  0.0000  0.0000  0.0000 </r>
        <r>  0.0029  0.0236  0.0332  0.0107  0.0000  0.0000  0.0000  0.0000  0.0000 </r>
       </set>
       <set comment="band 15">
        <r>  0.0279  0.0145  0.0388  0.0095  0.0000  0.0000  0.0000  0.0000  0.0000 </r>
        <r>  0.0279  0.0145  0.0388  0.0095  0.0000  0.0000  0.0000  0.0000  0.0000 </r>
       </set>
       <set comment="band 16">
        <r>  0.0122  0.0032  0.0059  0.0478  0.0000  0.0000  0.0000  0.0000  0.0000 </r>
        <r>  0.0122  0.0032  0.0059  0.0478  0.0000  0.0000  0.0000  0.0000  0.0000 </r>
       </set>
      </set>
      <set comment="kpoint 87">
       <set comment="band 1">
        <r>  0.2093  0.0057  0.0032  0.0117  0.0000  0.0000  0.0000  0.0000  0.0000 </r>
        <r>  0.2093  0.0057  0.0032  0.0117  0.0000  0.0000  0.0000  0.0000  0.0000 </r>
       </set>
       <set comment="band 2">
        <r>  0.1551  0.0162  0.0370  0.0245  0.0000  0.0000  0.0000  0.0000  0.0000 </r>
        <r>  0.1551  0.0162  0.0370  0.0245  0.0000  0.0000  0.0000  0.0000  0.0000 </r>
       </set>
       <set comment="band 3">
        <r>  0.0181  0.0406  0.0775  0.0327  0.0000  0.0000  0.0000  0.0000  0.0000 </r>
        <r>  0.0181  0.0406  0.0775  0.0327  0.0000  0.0000  0.0000  0.0000  0.0000 </r>
       </set>
       <set comment="band 4">
        <r>  0.0026  0.1011  0.0082  0.0889  0.0000  0.0000  0.0000  0.0000  0.0000 </r>
        <r>  0.0026  0.1011  0.0082  0.0889  0.0000  0.0000  0.0000  0.0000  0.0000 </r>
       </set>
       <set comment="band 5">
        <r>  0.0570  0.0165  0.0520  0.0029  0.0000  0.0000  0.0000  0.0000  0.0000 </r>
        <r>  0.0570  0.0165  0.0520  0.0029  0.0000  0.0000  0.0000  0.0000  0.0000 </r>
       </set>
       <set comment="band 6">
        <r>  0.0231  0.0382  0.0301  0.0415  0.0000  0.0000  0.0000  0.0000  0.0000 </r>
        <r>  0.0231  0.0382  0.0301  0.0415  0.0000  0.0000  0.0000  0.0000  0.0000 </r>
       </set>
       <set comment="band 7">
        <r>  0.0405  0.0555  0.0156  0.0353  0.0000  0.0000  0.0000  0.0000  0.0000 </r>
        <r>  0.0405  0.0555  0.0156  0.0353  0.0000  0.0000  0.0000  0.0000  0.0000 </r>
       </set>
       <set comment="band 8">
        <r>  0.0124  0.0215  0.0666  0.0123  0.0000  0.0000  0.0000  0.0000  0.0000 </r>
        <r>  0.0124  0.0215  0.0666  0.0123  0.0000  0.0000  0.0000  0.0000  0.0000 </r>
       </set>
       <set comment="band 9">
        <r>  0.0263  0.0096  0.0164  0.0428  0.0000  0.0000  0.0000  0.0000  0.0000 </r>
        <r>  0.0263  0.0096  0.0164  0.0428  0.0000  0.0000  0.0000  0.0000  0.0000 </r>
       </set>
       <set comment="band 10">
        <r>  0.0089  0.0482  0.0342  0.0524  0.0000  0.0000  0.0000  0.0000  0.0000 </r>
        <r>  0.0089  0.0482  0.0342  0.0524  0.0000  0.0000  0.0000  0.0000  0.0000 </r>
       </set>
       <set comment="band 11">
        <r>  0.0317  0.0019  0.0025  0.0062  0.0000  0.0000  0.0000  0.0000  0.0000 </r>
        <r>  0.0317  0.0019  0.0025  0.0062  0.0000  0.0000  0.0000  0.0000  0.0000 </r>
       </set>
       <set comment="band 12">
        <r>  0.0249  0.0543  0.0339  0.0559  0.0000  0.0000  0.0000  0.0000  0.0000 </r>
        <r>  0.0249  0.0543  0.0339  0.0559  0.0000  0.0000  0.0000  0.0000  0.0000 </r>
       </set>
       <set comment="band 13">
        <r>  0.0167  0.0017  0.0152  0.0171  0.0000  0.0000  0.0000  0.0000  0.0000 </r>
        <r>  0.0167  0.0017  0.0152  0.0171  0.0000  0.0000  0.0000  0.0000  0.0000 </r>
       </set>
       <set comment="band 14">
        <r>  0.0092  0.0131  0.0455  0.0119  0.0000  0.0000  0.0000  0.0000  0.0000 </r>
        <r>  0.0092  0.0131  0.0455  0.0119  0.0000  0.0000  0.0000  0.0000  0.0000 </r>
       </set>
       <set comment="band 15">
        <r>  0.0015  0.0334  0.0135  0.0233  0.0000  0.0000  0.0000  0.0000  0.0000 </r>
        <r>  0.0015  0.0334  0.0135  0.0233  0.0000  0.0000  0.0000  0.0000  0.0000 </r>
       </set>
       <set comment="band 16">
        <r>  0.0039  0.0055  0.0555  0.0509  0.0000  0.0000  0.0000  0.0000  0.0000 </r>
        <r>  0.0039  0.0054  0.0555  0.0509  0.0000  0.0000  0.0000  0.0000  0.0000 </r>
       </set>
      </set>
      <set comment="kpoint 88">
       <set comment="band 1">
        <r>  0.2077  0.0051  0.0015  0.0106  0.0000  0.0000  0.0000  0.0000  0.0000 </r>
        <r>  0.2077  0.0051  0.0015  0.0106  0.0000  0.0000  0.0000  0.0000  0.0000 </r>
       </set>
       <set comment="band 2">
        <r>  0.1529  0.0188  0.0353  0.0310  0.0000  0.0000  0.0000  0.0000  0.0000 </r>
        <r>  0.1529  0.0188  0.0353  0.0310  0.0000  0.0000  0.0000  0.0000  0.0000 </r>
       </set>
       <set comment="band 3">
        <r>  0.0130  0.0418  0.0849  0.0292  0.0000  0.0000  0.0000  0.0000  0.0000 </r>
        <r>  0.0130  0.0418  0.0849  0.0292  0.0000  0.0000  0.0000  0.0000  0.0000 </r>
       </set>
       <set comment="band 4">
        <r>  0.0033  0.1041  0.0087  0.0892  0.0000  0.0000  0.0000  0.0000  0.0000 </r>
        <r>  0.0033  0.1041  0.0087  0.0892  0.0000  0.0000  0.0000  0.0000  0.0000 </r>
       </set>
       <set comment="band 5">
        <r>  0.0641  0.0160  0.0619  0.0032  0.0000  0.0000  0.0000  0.0000  0.0000 </r>
        <r>  0.0641  0.0160  0.0619  0.0032  0.0000  0.0000  0.0000  0.0000  0.0000 </r>
       </set>
       <set comment="band 6">
        <r>  0.0185  0.0352  0.0341  0.0525  0.0000  0.0000  0.0000  0.0000  0.0000 </r>
        <r>  0.0185  0.0352  0.0341  0.0525  0.0000  0.0000  0.0000  0.0000  0.0000 </r>
       </set>
       <set comment="band 7">
        <r>  0.0433  0.0346  0.0118  0.0206  0.0000  0.0000  0.0000  0.0000  0.0000 </r>
        <r>  0.0433  0.0346  0.0118  0.0206  0.0000  0.0000  0.0000  0.0000  0.0000 </r>
       </set>
       <set comment="band 8">
        <r>  0.0133  0.0454  0.0731  0.0172  0.0000  0.0000  0.0000  0.0000  0.0000 </r>
        <r>  0.0133  0.0454  0.0731  0.0172  0.0000  0.0000  0.0000  0.0000  0.0000 </r>
       </set>
       <set comment="band 9">
        <r>  0.0309  0.0077  0.0055  0.0380  0.0000  0.0000  0.0000  0.0000  0.0000 </r>
        <r>  0.0309  0.0077  0.0055  0.0380  0.0000  0.0000  0.0000  0.0000  0.0000 </r>
       </set>
       <set comment="band 10">
        <r>  0.0006  0.0469  0.0364  0.0607  0.0000  0.0000  0.0000  0.0000  0.0000 </r>
        <r>  0.0006  0.0469  0.0364  0.0607  0.0000  0.0000  0.0000  0.0000  0.0000 </r>
       </set>
       <set comment="band 11">
        <r>  0.0590  0.0360  0.0268  0.0455  0.0000  0.0000  0.0000  0.0000  0.0000 </r>
        <r>  0.0590  0.0360  0.0268  0.0455  0.0000  0.0000  0.0000  0.0000  0.0000 </r>
       </set>
       <set comment="band 12">
        <r>  0.0010  0.0103  0.0011  0.0073  0.0000  0.0000  0.0000  0.0000  0.0000 </r>
        <r>  0.0010  0.0103  0.0011  0.0073  0.0000  0.0000  0.0000  0.0000  0.0000 </r>
       </set>
       <set comment="band 13">
        <r>  0.0385  0.0006  0.0034  0.0048  0.0000  0.0000  0.0000  0.0000  0.0000 </r>
        <r>  0.0385  0.0006  0.0034  0.0048  0.0000  0.0000  0.0000  0.0000  0.0000 </r>
       </set>
       <set comment="band 14">
        <r>  0.0000  0.0244  0.0039  0.0417  0.0000  0.0000  0.0000  0.0000  0.0000 </r>
        <r>  0.0000  0.0244  0.0039  0.0417  0.0000  0.0000  0.0000  0.0000  0.0000 </r>
       </set>
       <set comment="band 15">
        <r>  0.0005  0.0219  0.0511  0.0000  0.0000  0.0000  0.0000  0.0000  0.0000 </r>
        <r>  0.0005  0.0219  0.0511  0.0000  0.0000  0.0000  0.0000  0.0000  0.0000 </r>
       </set>
       <set comment="band 16">
        <r>  0.0021  0.0010  0.0757  0.0246  0.0000  0.0000  0.0000  0.0000  0.0000 </r>
        <r>  0.0020  0.0012  0.0760  0.0236  0.0000  0.0000  0.0000  0.0000  0.0000 </r>
       </set>
      </set>
      <set comment="kpoint 89">
       <set comment="band 1">
        <r>  0.2036  0.0005  0.0197  0.0003  0.0000  0.0000  0.0000  0.0000  0.0000 </r>
        <r>  0.2036  0.0005  0.0197  0.0003  0.0000  0.0000  0.0000  0.0000  0.0000 </r>
       </set>
       <set comment="band 2">
        <r>  0.1742  0.0022  0.0676  0.0063  0.0000  0.0000  0.0000  0.0000  0.0000 </r>
        <r>  0.1742  0.0022  0.0676  0.0063  0.0000  0.0000  0.0000  0.0000  0.0000 </r>
       </set>
       <set comment="band 3">
        <r>  0.0049  0.0702  0.0071  0.1042  0.0000  0.0000  0.0000  0.0000  0.0000 </r>
        <r>  0.0049  0.0702  0.0071  0.1042  0.0000  0.0000  0.0000  0.0000  0.0000 </r>
       </set>
       <set comment="band 4">
        <r>  0.0010  0.1092  0.0128  0.0687  0.0000  0.0000  0.0000  0.0000  0.0000 </r>
        <r>  0.0010  0.1092  0.0128  0.0687  0.0000  0.0000  0.0000  0.0000  0.0000 </r>
       </set>
       <set comment="band 5">
        <r>  0.0433  0.0102  0.0521  0.0109  0.0000  0.0000  0.0000  0.0000  0.0000 </r>
        <r>  0.0433  0.0102  0.0521  0.0109  0.0000  0.0000  0.0000  0.0000  0.0000 </r>
       </set>
       <set comment="band 6">
        <r>  0.0435  0.0063  0.0291  0.0037  0.0000  0.0000  0.0000  0.0000  0.0000 </r>
        <r>  0.0435  0.0063  0.0291  0.0037  0.0000  0.0000  0.0000  0.0000  0.0000 </r>
       </set>
       <set comment="band 7">
        <r>  0.0221  0.0748  0.0131  0.0522  0.0000  0.0000  0.0000  0.0000  0.0000 </r>
        <r>  0.0221  0.0748  0.0131  0.0522  0.0000  0.0000  0.0000  0.0000  0.0000 </r>
       </set>
       <set comment="band 8">
        <r>  0.0010  0.0628  0.0026  0.0982  0.0000  0.0000  0.0000  0.0000  0.0000 </r>
        <r>  0.0010  0.0628  0.0026  0.0982  0.0000  0.0000  0.0000  0.0000  0.0000 </r>
       </set>
       <set comment="band 9">
        <r>  0.0574  0.0035  0.0651  0.0001  0.0000  0.0000  0.0000  0.0000  0.0000 </r>
        <r>  0.0574  0.0035  0.0651  0.0001  0.0000  0.0000  0.0000  0.0000  0.0000 </r>
       </set>
       <set comment="band 10">
        <r>  0.0487  0.0225  0.0581  0.0143  0.0000  0.0000  0.0000  0.0000  0.0000 </r>
        <r>  0.0487  0.0225  0.0581  0.0143  0.0000  0.0000  0.0000  0.0000  0.0000 </r>
       </set>
       <set comment="band 11">
        <r>  0.0003  0.0208  0.0875  0.0196  0.0000  0.0000  0.0000  0.0000  0.0000 </r>
        <r>  0.0003  0.0208  0.0875  0.0196  0.0000  0.0000  0.0000  0.0000  0.0000 </r>
       </set>
       <set comment="band 12">
        <r>  0.0045  0.0177  0.0000  0.0075  0.0000  0.0000  0.0000  0.0000  0.0000 </r>
        <r>  0.0045  0.0177  0.0000  0.0075  0.0000  0.0000  0.0000  0.0000  0.0000 </r>
       </set>
       <set comment="band 13">
        <r>  0.0104  0.0101  0.0651  0.0037  0.0000  0.0000  0.0000  0.0000  0.0000 </r>
        <r>  0.0104  0.0101  0.0651  0.0037  0.0000  0.0000  0.0000  0.0000  0.0000 </r>
       </set>
       <set comment="band 14">
        <r>  0.0016  0.0074  0.0010  0.0484  0.0000  0.0000  0.0000  0.0000  0.0000 </r>
        <r>  0.0016  0.0074  0.0010  0.0484  0.0000  0.0000  0.0000  0.0000  0.0000 </r>
       </set>
       <set comment="band 15">
        <r>  0.0026  0.0280  0.0114  0.0046  0.0000  0.0000  0.0000  0.0000  0.0000 </r>
        <r>  0.0026  0.0280  0.0114  0.0046  0.0000  0.0000  0.0000  0.0000  0.0000 </r>
       </set>
       <set comment="band 16">
        <r>  0.0150  0.0192  0.0061  0.0021  0.0000  0.0000  0.0000  0.0000  0.0000 </r>
        <r>  0.0150  0.0191  0.0062  0.0020  0.0000  0.0000  0.0000  0.0000  0.0000 </r>
       </set>
      </set>
      <set comment="kpoint 90">
       <set comment="band 1">
        <r>  0.2033  0.0009  0.0227  0.0009  0.0000  0.0000  0.0000  0.0000  0.0000 </r>
        <r>  0.2033  0.0009  0.0227  0.0009  0.0000  0.0000  0.0000  0.0000  0.0000 </r>
       </set>
       <set comment="band 2">
        <r>  0.1790  0.0039  0.0541  0.0105  0.0000  0.0000  0.0000  0.0000  0.0000 </r>
        <r>  0.1790  0.0039  0.0541  0.0105  0.0000  0.0000  0.0000  0.0000  0.0000 </r>
       </set>
       <set comment="band 3">
        <r>  0.0084  0.0651  0.0218  0.0813  0.0000  0.0000  0.0000  0.0000  0.0000 </r>
        <r>  0.0084  0.0651  0.0218  0.0813  0.0000  0.0000  0.0000  0.0000  0.0000 </r>
       </set>
       <set comment="band 4">
        <r>  0.0005  0.1002  0.0127  0.0755  0.0000  0.0000  0.0000  0.0000  0.0000 </r>
        <r>  0.0005  0.1002  0.0127  0.0755  0.0000  0.0000  0.0000  0.0000  0.0000 </r>
       </set>
       <set comment="band 5">
        <r>  0.0426  0.0135  0.0433  0.0117  0.0000  0.0000  0.0000  0.0000  0.0000 </r>
        <r>  0.0426  0.0135  0.0433  0.0117  0.0000  0.0000  0.0000  0.0000  0.0000 </r>
       </set>
       <set comment="band 6">
        <r>  0.0388  0.0189  0.0244  0.0130  0.0000  0.0000  0.0000  0.0000  0.0000 </r>
        <r>  0.0388  0.0189  0.0244  0.0130  0.0000  0.0000  0.0000  0.0000  0.0000 </r>
       </set>
       <set comment="band 7">
        <r>  0.0295  0.0634  0.0194  0.0439  0.0000  0.0000  0.0000  0.0000  0.0000 </r>
        <r>  0.0295  0.0634  0.0194  0.0439  0.0000  0.0000  0.0000  0.0000  0.0000 </r>
       </set>
       <set comment="band 8">
        <r>  0.0074  0.0543  0.0096  0.0879  0.0000  0.0000  0.0000  0.0000  0.0000 </r>
        <r>  0.0074  0.0543  0.0096  0.0879  0.0000  0.0000  0.0000  0.0000  0.0000 </r>
       </set>
       <set comment="band 9">
        <r>  0.0365  0.0091  0.0561  0.0112  0.0000  0.0000  0.0000  0.0000  0.0000 </r>
        <r>  0.0365  0.0091  0.0561  0.0112  0.0000  0.0000  0.0000  0.0000  0.0000 </r>
       </set>
       <set comment="band 10">
        <r>  0.0035  0.0343  0.0605  0.0182  0.0000  0.0000  0.0000  0.0000  0.0000 </r>
        <r>  0.0035  0.0343  0.0605  0.0182  0.0000  0.0000  0.0000  0.0000  0.0000 </r>
       </set>
       <set comment="band 11">
        <r>  0.0394  0.0400  0.0688  0.0261  0.0000  0.0000  0.0000  0.0000  0.0000 </r>
        <r>  0.0394  0.0400  0.0688  0.0261  0.0000  0.0000  0.0000  0.0000  0.0000 </r>
       </set>
       <set comment="band 12">
        <r>  0.0071  0.0133  0.0243  0.0214  0.0000  0.0000  0.0000  0.0000  0.0000 </r>
        <r>  0.0071  0.0133  0.0243  0.0214  0.0000  0.0000  0.0000  0.0000  0.0000 </r>
       </set>
       <set comment="band 13">
        <r>  0.0091  0.0091  0.0008  0.0411  0.0000  0.0000  0.0000  0.0000  0.0000 </r>
        <r>  0.0091  0.0091  0.0008  0.0411  0.0000  0.0000  0.0000  0.0000  0.0000 </r>
       </set>
       <set comment="band 14">
        <r>  0.0053  0.0029  0.0789  0.0008  0.0000  0.0000  0.0000  0.0000  0.0000 </r>
        <r>  0.0053  0.0029  0.0789  0.0008  0.0000  0.0000  0.0000  0.0000  0.0000 </r>
       </set>
       <set comment="band 15">
        <r>  0.0002  0.0039  0.0229  0.0115  0.0000  0.0000  0.0000  0.0000  0.0000 </r>
        <r>  0.0002  0.0039  0.0229  0.0115  0.0000  0.0000  0.0000  0.0000  0.0000 </r>
       </set>
       <set comment="band 16">
        <r>  0.0260  0.0144  0.0078  0.0077  0.0000  0.0000  0.0000  0.0000  0.0000 </r>
        <r>  0.0260  0.0144  0.0078  0.0077  0.0000  0.0000  0.0000  0.0000  0.0000 </r>
       </set>
      </set>
      <set comment="kpoint 91">
       <set comment="band 1">
        <r>  0.2054  0.0013  0.0242  0.0023  0.0000  0.0000  0.0000  0.0000  0.0000 </r>
        <r>  0.2054  0.0013  0.0242  0.0023  0.0000  0.0000  0.0000  0.0000  0.0000 </r>
       </set>
       <set comment="band 2">
        <r>  0.1795  0.0067  0.0419  0.0141  0.0000  0.0000  0.0000  0.0000  0.0000 </r>
        <r>  0.1795  0.0067  0.0419  0.0141  0.0000  0.0000  0.0000  0.0000  0.0000 </r>
       </set>
       <set comment="band 3">
        <r>  0.0103  0.0573  0.0385  0.0618  0.0000  0.0000  0.0000  0.0000  0.0000 </r>
        <r>  0.0103  0.0573  0.0385  0.0618  0.0000  0.0000  0.0000  0.0000  0.0000 </r>
       </set>
       <set comment="band 4">
        <r>  0.0008  0.0962  0.0094  0.0827  0.0000  0.0000  0.0000  0.0000  0.0000 </r>
        <r>  0.0008  0.0962  0.0094  0.0827  0.0000  0.0000  0.0000  0.0000  0.0000 </r>
       </set>
       <set comment="band 5">
        <r>  0.0452  0.0128  0.0389  0.0069  0.0000  0.0000  0.0000  0.0000  0.0000 </r>
        <r>  0.0452  0.0128  0.0389  0.0069  0.0000  0.0000  0.0000  0.0000  0.0000 </r>
       </set>
       <set comment="band 6">
        <r>  0.0297  0.0338  0.0192  0.0242  0.0000  0.0000  0.0000  0.0000  0.0000 </r>
        <r>  0.0297  0.0338  0.0192  0.0242  0.0000  0.0000  0.0000  0.0000  0.0000 </r>
       </set>
       <set comment="band 7">
        <r>  0.0335  0.0530  0.0251  0.0402  0.0000  0.0000  0.0000  0.0000  0.0000 </r>
        <r>  0.0335  0.0530  0.0251  0.0402  0.0000  0.0000  0.0000  0.0000  0.0000 </r>
       </set>
       <set comment="band 8">
        <r>  0.0162  0.0477  0.0204  0.0724  0.0000  0.0000  0.0000  0.0000  0.0000 </r>
        <r>  0.0162  0.0477  0.0204  0.0724  0.0000  0.0000  0.0000  0.0000  0.0000 </r>
       </set>
       <set comment="band 9">
        <r>  0.0102  0.0388  0.0511  0.0171  0.0000  0.0000  0.0000  0.0000  0.0000 </r>
        <r>  0.0102  0.0388  0.0511  0.0171  0.0000  0.0000  0.0000  0.0000  0.0000 </r>
       </set>
       <set comment="band 10">
        <r>  0.0100  0.0183  0.0383  0.0267  0.0000  0.0000  0.0000  0.0000  0.0000 </r>
        <r>  0.0100  0.0183  0.0383  0.0267  0.0000  0.0000  0.0000  0.0000  0.0000 </r>
       </set>
       <set comment="band 11">
        <r>  0.0161  0.0144  0.0471  0.0426  0.0000  0.0000  0.0000  0.0000  0.0000 </r>
        <r>  0.0161  0.0144  0.0471  0.0426  0.0000  0.0000  0.0000  0.0000  0.0000 </r>
       </set>
       <set comment="band 12">
        <r>  0.0315  0.0374  0.0823  0.0253  0.0000  0.0000  0.0000  0.0000  0.0000 </r>
        <r>  0.0315  0.0374  0.0823  0.0253  0.0000  0.0000  0.0000  0.0000  0.0000 </r>
       </set>
       <set comment="band 13">
        <r>  0.0146  0.0075  0.0038  0.0164  0.0000  0.0000  0.0000  0.0000  0.0000 </r>
        <r>  0.0146  0.0075  0.0038  0.0164  0.0000  0.0000  0.0000  0.0000  0.0000 </r>
       </set>
       <set comment="band 14">
        <r>  0.0059  0.0016  0.0713  0.0085  0.0000  0.0000  0.0000  0.0000  0.0000 </r>
        <r>  0.0059  0.0016  0.0713  0.0085  0.0000  0.0000  0.0000  0.0000  0.0000 </r>
       </set>
       <set comment="band 15">
        <r>  0.0054  0.0064  0.0193  0.0134  0.0000  0.0000  0.0000  0.0000  0.0000 </r>
        <r>  0.0054  0.0064  0.0193  0.0134  0.0000  0.0000  0.0000  0.0000  0.0000 </r>
       </set>
       <set comment="band 16">
        <r>  0.0239  0.0007  0.0229  0.0203  0.0000  0.0000  0.0000  0.0000  0.0000 </r>
        <r>  0.0239  0.0007  0.0229  0.0203  0.0000  0.0000  0.0000  0.0000  0.0000 </r>
       </set>
      </set>
      <set comment="kpoint 92">
       <set comment="band 1">
        <r>  0.2118  0.0021  0.0207  0.0054  0.0000  0.0000  0.0000  0.0000  0.0000 </r>
        <r>  0.2118  0.0021  0.0207  0.0054  0.0000  0.0000  0.0000  0.0000  0.0000 </r>
       </set>
       <set comment="band 2">
        <r>  0.1745  0.0088  0.0365  0.0156  0.0000  0.0000  0.0000  0.0000  0.0000 </r>
        <r>  0.1745  0.0088  0.0365  0.0156  0.0000  0.0000  0.0000  0.0000  0.0000 </r>
       </set>
       <set comment="band 3">
        <r>  0.0101  0.0515  0.0508  0.0496  0.0000  0.0000  0.0000  0.0000  0.0000 </r>
        <r>  0.0101  0.0515  0.0508  0.0496  0.0000  0.0000  0.0000  0.0000  0.0000 </r>
       </set>
       <set comment="band 4">
        <r>  0.0014  0.0947  0.0077  0.0867  0.0000  0.0000  0.0000  0.0000  0.0000 </r>
        <r>  0.0014  0.0947  0.0077  0.0867  0.0000  0.0000  0.0000  0.0000  0.0000 </r>
       </set>
       <set comment="band 5">
        <r>  0.0471  0.0142  0.0381  0.0045  0.0000  0.0000  0.0000  0.0000  0.0000 </r>
        <r>  0.0471  0.0142  0.0381  0.0045  0.0000  0.0000  0.0000  0.0000  0.0000 </r>
       </set>
       <set comment="band 6">
        <r>  0.0179  0.0491  0.0109  0.0253  0.0000  0.0000  0.0000  0.0000  0.0000 </r>
        <r>  0.0179  0.0491  0.0109  0.0253  0.0000  0.0000  0.0000  0.0000  0.0000 </r>
       </set>
       <set comment="band 7">
        <r>  0.0368  0.0386  0.0324  0.0455  0.0000  0.0000  0.0000  0.0000  0.0000 </r>
        <r>  0.0368  0.0386  0.0324  0.0455  0.0000  0.0000  0.0000  0.0000  0.0000 </r>
       </set>
       <set comment="band 8">
        <r>  0.0230  0.0537  0.0275  0.0647  0.0000  0.0000  0.0000  0.0000  0.0000 </r>
        <r>  0.0230  0.0537  0.0275  0.0647  0.0000  0.0000  0.0000  0.0000  0.0000 </r>
       </set>
       <set comment="band 9">
        <r>  0.0163  0.0283  0.0523  0.0095  0.0000  0.0000  0.0000  0.0000  0.0000 </r>
        <r>  0.0163  0.0283  0.0523  0.0095  0.0000  0.0000  0.0000  0.0000  0.0000 </r>
       </set>
       <set comment="band 10">
        <r>  0.0107  0.0181  0.0321  0.0481  0.0000  0.0000  0.0000  0.0000  0.0000 </r>
        <r>  0.0107  0.0181  0.0321  0.0481  0.0000  0.0000  0.0000  0.0000  0.0000 </r>
       </set>
       <set comment="band 11">
        <r>  0.0136  0.0135  0.0584  0.0304  0.0000  0.0000  0.0000  0.0000  0.0000 </r>
        <r>  0.0136  0.0135  0.0584  0.0304  0.0000  0.0000  0.0000  0.0000  0.0000 </r>
       </set>
       <set comment="band 12">
        <r>  0.0190  0.0110  0.0133  0.0189  0.0000  0.0000  0.0000  0.0000  0.0000 </r>
        <r>  0.0190  0.0110  0.0133  0.0189  0.0000  0.0000  0.0000  0.0000  0.0000 </r>
       </set>
       <set comment="band 13">
        <r>  0.0118  0.0395  0.0842  0.0197  0.0000  0.0000  0.0000  0.0000  0.0000 </r>
        <r>  0.0118  0.0395  0.0842  0.0197  0.0000  0.0000  0.0000  0.0000  0.0000 </r>
       </set>
       <set comment="band 14">
        <r>  0.0087  0.0017  0.0396  0.0323  0.0000  0.0000  0.0000  0.0000  0.0000 </r>
        <r>  0.0087  0.0017  0.0396  0.0323  0.0000  0.0000  0.0000  0.0000  0.0000 </r>
       </set>
       <set comment="band 15">
        <r>  0.0168  0.0011  0.0027  0.0097  0.0000  0.0000  0.0000  0.0000  0.0000 </r>
        <r>  0.0168  0.0011  0.0027  0.0097  0.0000  0.0000  0.0000  0.0000  0.0000 </r>
       </set>
       <set comment="band 16">
        <r>  0.0001  0.0233  0.0684  0.0014  0.0000  0.0000  0.0000  0.0000  0.0000 </r>
        <r>  0.0001  0.0233  0.0684  0.0014  0.0000  0.0000  0.0000  0.0000  0.0000 </r>
       </set>
      </set>
      <set comment="kpoint 93">
       <set comment="band 1">
        <r>  0.2138  0.0044  0.0120  0.0104  0.0000  0.0000  0.0000  0.0000  0.0000 </r>
        <r>  0.2138  0.0044  0.0120  0.0104  0.0000  0.0000  0.0000  0.0000  0.0000 </r>
       </set>
       <set comment="band 2">
        <r>  0.1729  0.0086  0.0385  0.0151  0.0000  0.0000  0.0000  0.0000  0.0000 </r>
        <r>  0.1729  0.0086  0.0385  0.0151  0.0000  0.0000  0.0000  0.0000  0.0000 </r>
       </set>
       <set comment="band 3">
        <r>  0.0079  0.0483  0.0601  0.0417  0.0000  0.0000  0.0000  0.0000  0.0000 </r>
        <r>  0.0079  0.0483  0.0601  0.0417  0.0000  0.0000  0.0000  0.0000  0.0000 </r>
       </set>
       <set comment="band 4">
        <r>  0.0019  0.0947  0.0070  0.0891  0.0000  0.0000  0.0000  0.0000  0.0000 </r>
        <r>  0.0019  0.0947  0.0070  0.0891  0.0000  0.0000  0.0000  0.0000  0.0000 </r>
       </set>
       <set comment="band 5">
        <r>  0.0487  0.0159  0.0399  0.0031  0.0000  0.0000  0.0000  0.0000  0.0000 </r>
        <r>  0.0487  0.0159  0.0399  0.0031  0.0000  0.0000  0.0000  0.0000  0.0000 </r>
       </set>
       <set comment="band 6">
        <r>  0.0116  0.0709  0.0146  0.0118  0.0000  0.0000  0.0000  0.0000  0.0000 </r>
        <r>  0.0116  0.0709  0.0146  0.0118  0.0000  0.0000  0.0000  0.0000  0.0000 </r>
       </set>
       <set comment="band 7">
        <r>  0.0286  0.0160  0.0234  0.0668  0.0000  0.0000  0.0000  0.0000  0.0000 </r>
        <r>  0.0286  0.0160  0.0234  0.0668  0.0000  0.0000  0.0000  0.0000  0.0000 </r>
       </set>
       <set comment="band 8">
        <r>  0.0323  0.0556  0.0225  0.0475  0.0000  0.0000  0.0000  0.0000  0.0000 </r>
        <r>  0.0323  0.0556  0.0225  0.0475  0.0000  0.0000  0.0000  0.0000  0.0000 </r>
       </set>
       <set comment="band 9">
        <r>  0.0207  0.0253  0.0768  0.0122  0.0000  0.0000  0.0000  0.0000  0.0000 </r>
        <r>  0.0207  0.0253  0.0768  0.0122  0.0000  0.0000  0.0000  0.0000  0.0000 </r>
       </set>
       <set comment="band 10">
        <r>  0.0204  0.0143  0.0239  0.0505  0.0000  0.0000  0.0000  0.0000  0.0000 </r>
        <r>  0.0204  0.0143  0.0239  0.0505  0.0000  0.0000  0.0000  0.0000  0.0000 </r>
       </set>
       <set comment="band 11">
        <r>  0.0173  0.0007  0.0055  0.0181  0.0000  0.0000  0.0000  0.0000  0.0000 </r>
        <r>  0.0173  0.0007  0.0055  0.0181  0.0000  0.0000  0.0000  0.0000  0.0000 </r>
       </set>
       <set comment="band 12">
        <r>  0.0054  0.0291  0.0864  0.0203  0.0000  0.0000  0.0000  0.0000  0.0000 </r>
        <r>  0.0054  0.0291  0.0864  0.0203  0.0000  0.0000  0.0000  0.0000  0.0000 </r>
       </set>
       <set comment="band 13">
        <r>  0.0077  0.0053  0.0202  0.0192  0.0000  0.0000  0.0000  0.0000  0.0000 </r>
        <r>  0.0077  0.0053  0.0202  0.0192  0.0000  0.0000  0.0000  0.0000  0.0000 </r>
       </set>
       <set comment="band 14">
        <r>  0.0023  0.0367  0.0716  0.0515  0.0000  0.0000  0.0000  0.0000  0.0000 </r>
        <r>  0.0023  0.0367  0.0716  0.0515  0.0000  0.0000  0.0000  0.0000  0.0000 </r>
       </set>
       <set comment="band 15">
        <r>  0.0179  0.0098  0.0101  0.0299  0.0000  0.0000  0.0000  0.0000  0.0000 </r>
        <r>  0.0179  0.0098  0.0101  0.0299  0.0000  0.0000  0.0000  0.0000  0.0000 </r>
       </set>
       <set comment="band 16">
        <r>  0.0236  0.0292  0.0001  0.0277  0.0000  0.0000  0.0000  0.0000  0.0000 </r>
        <r>  0.0236  0.0292  0.0001  0.0277  0.0000  0.0000  0.0000  0.0000  0.0000 </r>
       </set>
      </set>
      <set comment="kpoint 94">
       <set comment="band 1">
        <r>  0.2108  0.0058  0.0062  0.0123  0.0000  0.0000  0.0000  0.0000  0.0000 </r>
        <r>  0.2108  0.0058  0.0062  0.0123  0.0000  0.0000  0.0000  0.0000  0.0000 </r>
       </set>
       <set comment="band 2">
        <r>  0.1715  0.0102  0.0385  0.0184  0.0000  0.0000  0.0000  0.0000  0.0000 </r>
        <r>  0.1715  0.0102  0.0385  0.0184  0.0000  0.0000  0.0000  0.0000  0.0000 </r>
       </set>
       <set comment="band 3">
        <r>  0.0080  0.0457  0.0688  0.0359  0.0000  0.0000  0.0000  0.0000  0.0000 </r>
        <r>  0.0080  0.0457  0.0688  0.0359  0.0000  0.0000  0.0000  0.0000  0.0000 </r>
       </set>
       <set comment="band 4">
        <r>  0.0023  0.0966  0.0072  0.0900  0.0000  0.0000  0.0000  0.0000  0.0000 </r>
        <r>  0.0023  0.0966  0.0072  0.0900  0.0000  0.0000  0.0000  0.0000  0.0000 </r>
       </set>
       <set comment="band 5">
        <r>  0.0509  0.0171  0.0441  0.0025  0.0000  0.0000  0.0000  0.0000  0.0000 </r>
        <r>  0.0509  0.0171  0.0441  0.0025  0.0000  0.0000  0.0000  0.0000  0.0000 </r>
       </set>
       <set comment="band 6">
        <r>  0.0141  0.0530  0.0300  0.0349  0.0000  0.0000  0.0000  0.0000  0.0000 </r>
        <r>  0.0141  0.0530  0.0300  0.0349  0.0000  0.0000  0.0000  0.0000  0.0000 </r>
       </set>
       <set comment="band 7">
        <r>  0.0429  0.0438  0.0224  0.0198  0.0000  0.0000  0.0000  0.0000  0.0000 </r>
        <r>  0.0429  0.0438  0.0224  0.0198  0.0000  0.0000  0.0000  0.0000  0.0000 </r>
       </set>
       <set comment="band 8">
        <r>  0.0058  0.0176  0.0459  0.0459  0.0000  0.0000  0.0000  0.0000  0.0000 </r>
        <r>  0.0058  0.0176  0.0459  0.0459  0.0000  0.0000  0.0000  0.0000  0.0000 </r>
       </set>
       <set comment="band 9">
        <r>  0.0261  0.0548  0.0559  0.0341  0.0000  0.0000  0.0000  0.0000  0.0000 </r>
        <r>  0.0261  0.0548  0.0559  0.0341  0.0000  0.0000  0.0000  0.0000  0.0000 </r>
       </set>
       <set comment="band 10">
        <r>  0.0279  0.0081  0.0098  0.0505  0.0000  0.0000  0.0000  0.0000  0.0000 </r>
        <r>  0.0279  0.0081  0.0098  0.0505  0.0000  0.0000  0.0000  0.0000  0.0000 </r>
       </set>
       <set comment="band 11">
        <r>  0.0201  0.0046  0.0073  0.0082  0.0000  0.0000  0.0000  0.0000  0.0000 </r>
        <r>  0.0201  0.0046  0.0073  0.0082  0.0000  0.0000  0.0000  0.0000  0.0000 </r>
       </set>
       <set comment="band 12">
        <r>  0.0184  0.0015  0.0180  0.0236  0.0000  0.0000  0.0000  0.0000  0.0000 </r>
        <r>  0.0184  0.0015  0.0180  0.0236  0.0000  0.0000  0.0000  0.0000  0.0000 </r>
       </set>
       <set comment="band 13">
        <r>  0.0005  0.0591  0.1021  0.0301  0.0000  0.0000  0.0000  0.0000  0.0000 </r>
        <r>  0.0005  0.0591  0.1021  0.0301  0.0000  0.0000  0.0000  0.0000  0.0000 </r>
       </set>
       <set comment="band 14">
        <r>  0.0176  0.0108  0.0004  0.0323  0.0000  0.0000  0.0000  0.0000  0.0000 </r>
        <r>  0.0176  0.0108  0.0004  0.0323  0.0000  0.0000  0.0000  0.0000  0.0000 </r>
       </set>
       <set comment="band 15">
        <r>  0.0141  0.0139  0.0011  0.0736  0.0000  0.0000  0.0000  0.0000  0.0000 </r>
        <r>  0.0141  0.0139  0.0011  0.0736  0.0000  0.0000  0.0000  0.0000  0.0000 </r>
       </set>
       <set comment="band 16">
        <r>  0.0088  0.0010  0.0610  0.0093  0.0000  0.0000  0.0000  0.0000  0.0000 </r>
        <r>  0.0088  0.0010  0.0610  0.0093  0.0000  0.0000  0.0000  0.0000  0.0000 </r>
       </set>
      </set>
      <set comment="kpoint 95">
       <set comment="band 1">
        <r>  0.2006  0.0003  0.0279  0.0005  0.0000  0.0000  0.0000  0.0000  0.0000 </r>
        <r>  0.2006  0.0003  0.0279  0.0005  0.0000  0.0000  0.0000  0.0000  0.0000 </r>
       </set>
       <set comment="band 2">
        <r>  0.1855  0.0004  0.0579  0.0033  0.0000  0.0000  0.0000  0.0000  0.0000 </r>
        <r>  0.1855  0.0004  0.0579  0.0033  0.0000  0.0000  0.0000  0.0000  0.0000 </r>
       </set>
       <set comment="band 3">
        <r>  0.0040  0.0778  0.0062  0.0977  0.0000  0.0000  0.0000  0.0000  0.0000 </r>
        <r>  0.0040  0.0778  0.0062  0.0977  0.0000  0.0000  0.0000  0.0000  0.0000 </r>
       </set>
       <set comment="band 4">
        <r>  0.0000  0.1011  0.0083  0.0784  0.0000  0.0000  0.0000  0.0000  0.0000 </r>
        <r>  0.0000  0.1011  0.0083  0.0784  0.0000  0.0000  0.0000  0.0000  0.0000 </r>
       </set>
       <set comment="band 5">
        <r>  0.0463  0.0105  0.0420  0.0092  0.0000  0.0000  0.0000  0.0000  0.0000 </r>
        <r>  0.0463  0.0105  0.0420  0.0092  0.0000  0.0000  0.0000  0.0000  0.0000 </r>
       </set>
       <set comment="band 6">
        <r>  0.0442  0.0081  0.0280  0.0047  0.0000  0.0000  0.0000  0.0000  0.0000 </r>
        <r>  0.0442  0.0081  0.0280  0.0047  0.0000  0.0000  0.0000  0.0000  0.0000 </r>
       </set>
       <set comment="band 7">
        <r>  0.0175  0.0781  0.0157  0.0457  0.0000  0.0000  0.0000  0.0000  0.0000 </r>
        <r>  0.0175  0.0781  0.0157  0.0457  0.0000  0.0000  0.0000  0.0000  0.0000 </r>
       </set>
       <set comment="band 8">
        <r>  0.0007  0.0609  0.0016  0.1057  0.0000  0.0000  0.0000  0.0000  0.0000 </r>
        <r>  0.0007  0.0609  0.0016  0.1057  0.0000  0.0000  0.0000  0.0000  0.0000 </r>
       </set>
       <set comment="band 9">
        <r>  0.0388  0.0011  0.0638  0.0001  0.0000  0.0000  0.0000  0.0000  0.0000 </r>
        <r>  0.0388  0.0011  0.0638  0.0001  0.0000  0.0000  0.0000  0.0000  0.0000 </r>
       </set>
       <set comment="band 10">
        <r>  0.0046  0.0386  0.0444  0.0148  0.0000  0.0000  0.0000  0.0000  0.0000 </r>
        <r>  0.0046  0.0386  0.0444  0.0148  0.0000  0.0000  0.0000  0.0000  0.0000 </r>
       </set>
       <set comment="band 11">
        <r>  0.0402  0.0372  0.0775  0.0294  0.0000  0.0000  0.0000  0.0000  0.0000 </r>
        <r>  0.0402  0.0372  0.0775  0.0294  0.0000  0.0000  0.0000  0.0000  0.0000 </r>
       </set>
       <set comment="band 12">
        <r>  0.0103  0.0100  0.0087  0.0381  0.0000  0.0000  0.0000  0.0000  0.0000 </r>
        <r>  0.0103  0.0100  0.0087  0.0381  0.0000  0.0000  0.0000  0.0000  0.0000 </r>
       </set>
       <set comment="band 13">
        <r>  0.0009  0.0038  0.1407  0.0002  0.0000  0.0000  0.0000  0.0000  0.0000 </r>
        <r>  0.0009  0.0038  0.1407  0.0002  0.0000  0.0000  0.0000  0.0000  0.0000 </r>
       </set>
       <set comment="band 14">
        <r>  0.0001  0.0062  0.0259  0.0080  0.0000  0.0000  0.0000  0.0000  0.0000 </r>
        <r>  0.0001  0.0062  0.0259  0.0080  0.0000  0.0000  0.0000  0.0000  0.0000 </r>
       </set>
       <set comment="band 15">
        <r>  0.0007  0.0000  0.0015  0.0259  0.0000  0.0000  0.0000  0.0000  0.0000 </r>
        <r>  0.0007  0.0000  0.0015  0.0259  0.0000  0.0000  0.0000  0.0000  0.0000 </r>
       </set>
       <set comment="band 16">
        <r>  0.0244  0.0300  0.0059  0.0013  0.0000  0.0000  0.0000  0.0000  0.0000 </r>
        <r>  0.0244  0.0300  0.0059  0.0013  0.0000  0.0000  0.0000  0.0000  0.0000 </r>
       </set>
      </set>
      <set comment="kpoint 96">
       <set comment="band 1">
        <r>  0.2008  0.0005  0.0308  0.0016  0.0000  0.0000  0.0000  0.0000  0.0000 </r>
        <r>  0.2008  0.0005  0.0308  0.0016  0.0000  0.0000  0.0000  0.0000  0.0000 </r>
       </set>
       <set comment="band 2">
        <r>  0.1903  0.0010  0.0481  0.0056  0.0000  0.0000  0.0000  0.0000  0.0000 </r>
        <r>  0.1903  0.0010  0.0481  0.0056  0.0000  0.0000  0.0000  0.0000  0.0000 </r>
       </set>
       <set comment="band 3">
        <r>  0.0039  0.0732  0.0192  0.0757  0.0000  0.0000  0.0000  0.0000  0.0000 </r>
        <r>  0.0039  0.0732  0.0192  0.0757  0.0000  0.0000  0.0000  0.0000  0.0000 </r>
       </set>
       <set comment="band 4">
        <r>  0.0011  0.0924  0.0073  0.0859  0.0000  0.0000  0.0000  0.0000  0.0000 </r>
        <r>  0.0011  0.0924  0.0073  0.0859  0.0000  0.0000  0.0000  0.0000  0.0000 </r>
       </set>
       <set comment="band 5">
        <r>  0.0457  0.0123  0.0357  0.0075  0.0000  0.0000  0.0000  0.0000  0.0000 </r>
        <r>  0.0457  0.0123  0.0357  0.0075  0.0000  0.0000  0.0000  0.0000  0.0000 </r>
       </set>
       <set comment="band 6">
        <r>  0.0386  0.0225  0.0245  0.0167  0.0000  0.0000  0.0000  0.0000  0.0000 </r>
        <r>  0.0386  0.0225  0.0245  0.0167  0.0000  0.0000  0.0000  0.0000  0.0000 </r>
       </set>
       <set comment="band 7">
        <r>  0.0225  0.0664  0.0223  0.0394  0.0000  0.0000  0.0000  0.0000  0.0000 </r>
        <r>  0.0225  0.0664  0.0223  0.0394  0.0000  0.0000  0.0000  0.0000  0.0000 </r>
       </set>
       <set comment="band 8">
        <r>  0.0083  0.0646  0.0092  0.0990  0.0000  0.0000  0.0000  0.0000  0.0000 </r>
        <r>  0.0083  0.0646  0.0092  0.0990  0.0000  0.0000  0.0000  0.0000  0.0000 </r>
       </set>
       <set comment="band 9">
        <r>  0.0103  0.0298  0.0458  0.0065  0.0000  0.0000  0.0000  0.0000  0.0000 </r>
        <r>  0.0103  0.0298  0.0458  0.0065  0.0000  0.0000  0.0000  0.0000  0.0000 </r>
       </set>
       <set comment="band 10">
        <r>  0.0125  0.0222  0.0441  0.0364  0.0000  0.0000  0.0000  0.0000  0.0000 </r>
        <r>  0.0125  0.0222  0.0441  0.0364  0.0000  0.0000  0.0000  0.0000  0.0000 </r>
       </set>
       <set comment="band 11">
        <r>  0.0179  0.0107  0.0379  0.0398  0.0000  0.0000  0.0000  0.0000  0.0000 </r>
        <r>  0.0179  0.0107  0.0379  0.0398  0.0000  0.0000  0.0000  0.0000  0.0000 </r>
       </set>
       <set comment="band 12">
        <r>  0.0312  0.0276  0.0932  0.0119  0.0000  0.0000  0.0000  0.0000  0.0000 </r>
        <r>  0.0312  0.0276  0.0932  0.0119  0.0000  0.0000  0.0000  0.0000  0.0000 </r>
       </set>
       <set comment="band 13">
        <r>  0.0085  0.0011  0.0893  0.0118  0.0000  0.0000  0.0000  0.0000  0.0000 </r>
        <r>  0.0085  0.0011  0.0893  0.0118  0.0000  0.0000  0.0000  0.0000  0.0000 </r>
       </set>
       <set comment="band 14">
        <r>  0.0045  0.0109  0.0071  0.0132  0.0000  0.0000  0.0000  0.0000  0.0000 </r>
        <r>  0.0045  0.0109  0.0071  0.0132  0.0000  0.0000  0.0000  0.0000  0.0000 </r>
       </set>
       <set comment="band 15">
        <r>  0.0035  0.0078  0.0544  0.0108  0.0000  0.0000  0.0000  0.0000  0.0000 </r>
        <r>  0.0035  0.0078  0.0544  0.0108  0.0000  0.0000  0.0000  0.0000  0.0000 </r>
       </set>
       <set comment="band 16">
        <r>  0.0343  0.0065  0.0034  0.0080  0.0000  0.0000  0.0000  0.0000  0.0000 </r>
        <r>  0.0343  0.0065  0.0034  0.0080  0.0000  0.0000  0.0000  0.0000  0.0000 </r>
       </set>
      </set>
      <set comment="kpoint 97">
       <set comment="band 1">
        <r>  0.2056  0.0011  0.0295  0.0042  0.0000  0.0000  0.0000  0.0000  0.0000 </r>
        <r>  0.2056  0.0011  0.0295  0.0042  0.0000  0.0000  0.0000  0.0000  0.0000 </r>
       </set>
       <set comment="band 2">
        <r>  0.1904  0.0025  0.0408  0.0075  0.0000  0.0000  0.0000  0.0000  0.0000 </r>
        <r>  0.1904  0.0025  0.0408  0.0075  0.0000  0.0000  0.0000  0.0000  0.0000 </r>
       </set>
       <set comment="band 3">
        <r>  0.0017  0.0644  0.0327  0.0613  0.0000  0.0000  0.0000  0.0000  0.0000 </r>
        <r>  0.0017  0.0644  0.0327  0.0613  0.0000  0.0000  0.0000  0.0000  0.0000 </r>
       </set>
       <set comment="band 4">
        <r>  0.0017  0.0912  0.0065  0.0886  0.0000  0.0000  0.0000  0.0000  0.0000 </r>
        <r>  0.0017  0.0912  0.0065  0.0886  0.0000  0.0000  0.0000  0.0000  0.0000 </r>
       </set>
       <set comment="band 5">
        <r>  0.0468  0.0132  0.0347  0.0047  0.0000  0.0000  0.0000  0.0000  0.0000 </r>
        <r>  0.0468  0.0132  0.0347  0.0047  0.0000  0.0000  0.0000  0.0000  0.0000 </r>
       </set>
       <set comment="band 6">
        <r>  0.0303  0.0350  0.0190  0.0263  0.0000  0.0000  0.0000  0.0000  0.0000 </r>
        <r>  0.0303  0.0350  0.0190  0.0263  0.0000  0.0000  0.0000  0.0000  0.0000 </r>
       </set>
       <set comment="band 7">
        <r>  0.0236  0.0570  0.0277  0.0386  0.0000  0.0000  0.0000  0.0000  0.0000 </r>
        <r>  0.0236  0.0570  0.0277  0.0386  0.0000  0.0000  0.0000  0.0000  0.0000 </r>
       </set>
       <set comment="band 8">
        <r>  0.0213  0.0755  0.0217  0.0550  0.0000  0.0000  0.0000  0.0000  0.0000 </r>
        <r>  0.0213  0.0755  0.0217  0.0550  0.0000  0.0000  0.0000  0.0000  0.0000 </r>
       </set>
       <set comment="band 9">
        <r>  0.0125  0.0110  0.0528  0.0276  0.0000  0.0000  0.0000  0.0000  0.0000 </r>
        <r>  0.0125  0.0110  0.0528  0.0276  0.0000  0.0000  0.0000  0.0000  0.0000 </r>
       </set>
       <set comment="band 10">
        <r>  0.0096  0.0201  0.0202  0.0605  0.0000  0.0000  0.0000  0.0000  0.0000 </r>
        <r>  0.0096  0.0201  0.0202  0.0605  0.0000  0.0000  0.0000  0.0000  0.0000 </r>
       </set>
       <set comment="band 11">
        <r>  0.0171  0.0130  0.0788  0.0168  0.0000  0.0000  0.0000  0.0000  0.0000 </r>
        <r>  0.0171  0.0130  0.0788  0.0168  0.0000  0.0000  0.0000  0.0000  0.0000 </r>
       </set>
       <set comment="band 12">
        <r>  0.0039  0.0249  0.0719  0.0471  0.0000  0.0000  0.0000  0.0000  0.0000 </r>
        <r>  0.0039  0.0249  0.0719  0.0471  0.0000  0.0000  0.0000  0.0000  0.0000 </r>
       </set>
       <set comment="band 13">
        <r>  0.0167  0.0089  0.0595  0.0150  0.0000  0.0000  0.0000  0.0000  0.0000 </r>
        <r>  0.0167  0.0089  0.0595  0.0150  0.0000  0.0000  0.0000  0.0000  0.0000 </r>
       </set>
       <set comment="band 14">
        <r>  0.0110  0.0129  0.0090  0.0040  0.0000  0.0000  0.0000  0.0000  0.0000 </r>
        <r>  0.0110  0.0129  0.0090  0.0040  0.0000  0.0000  0.0000  0.0000  0.0000 </r>
       </set>
       <set comment="band 15">
        <r>  0.0145  0.0180  0.0755  0.0055  0.0000  0.0000  0.0000  0.0000  0.0000 </r>
        <r>  0.0145  0.0180  0.0755  0.0055  0.0000  0.0000  0.0000  0.0000  0.0000 </r>
       </set>
       <set comment="band 16">
        <r>  0.0109  0.0058  0.0058  0.0089  0.0000  0.0000  0.0000  0.0000  0.0000 </r>
        <r>  0.0109  0.0058  0.0058  0.0089  0.0000  0.0000  0.0000  0.0000  0.0000 </r>
       </set>
      </set>
      <set comment="kpoint 98">
       <set comment="band 1">
        <r>  0.2126  0.0029  0.0199  0.0085  0.0000  0.0000  0.0000  0.0000  0.0000 </r>
        <r>  0.2126  0.0029  0.0199  0.0085  0.0000  0.0000  0.0000  0.0000  0.0000 </r>
       </set>
       <set comment="band 2">
        <r>  0.1847  0.0040  0.0407  0.0091  0.0000  0.0000  0.0000  0.0000  0.0000 </r>
        <r>  0.1847  0.0040  0.0407  0.0091  0.0000  0.0000  0.0000  0.0000  0.0000 </r>
       </set>
       <set comment="band 3">
        <r>  0.0003  0.0568  0.0462  0.0506  0.0000  0.0000  0.0000  0.0000  0.0000 </r>
        <r>  0.0003  0.0568  0.0462  0.0506  0.0000  0.0000  0.0000  0.0000  0.0000 </r>
       </set>
       <set comment="band 4">
        <r>  0.0019  0.0920  0.0064  0.0895  0.0000  0.0000  0.0000  0.0000  0.0000 </r>
        <r>  0.0019  0.0920  0.0064  0.0895  0.0000  0.0000  0.0000  0.0000  0.0000 </r>
       </set>
       <set comment="band 5">
        <r>  0.0475  0.0148  0.0362  0.0036  0.0000  0.0000  0.0000  0.0000  0.0000 </r>
        <r>  0.0475  0.0148  0.0362  0.0036  0.0000  0.0000  0.0000  0.0000  0.0000 </r>
       </set>
       <set comment="band 6">
        <r>  0.0204  0.0464  0.0121  0.0285  0.0000  0.0000  0.0000  0.0000  0.0000 </r>
        <r>  0.0204  0.0464  0.0121  0.0285  0.0000  0.0000  0.0000  0.0000  0.0000 </r>
       </set>
       <set comment="band 7">
        <r>  0.0200  0.0446  0.0356  0.0525  0.0000  0.0000  0.0000  0.0000  0.0000 </r>
        <r>  0.0200  0.0446  0.0356  0.0525  0.0000  0.0000  0.0000  0.0000  0.0000 </r>
       </set>
       <set comment="band 8">
        <r>  0.0340  0.0563  0.0261  0.0247  0.0000  0.0000  0.0000  0.0000  0.0000 </r>
        <r>  0.0340  0.0563  0.0261  0.0247  0.0000  0.0000  0.0000  0.0000  0.0000 </r>
       </set>
       <set comment="band 9">
        <r>  0.0152  0.0299  0.0720  0.0285  0.0000  0.0000  0.0000  0.0000  0.0000 </r>
        <r>  0.0152  0.0299  0.0720  0.0285  0.0000  0.0000  0.0000  0.0000  0.0000 </r>
       </set>
       <set comment="band 10">
        <r>  0.0187  0.0123  0.0080  0.0629  0.0000  0.0000  0.0000  0.0000  0.0000 </r>
        <r>  0.0187  0.0123  0.0080  0.0629  0.0000  0.0000  0.0000  0.0000  0.0000 </r>
       </set>
       <set comment="band 11">
        <r>  0.0067  0.0247  0.1042  0.0093  0.0000  0.0000  0.0000  0.0000  0.0000 </r>
        <r>  0.0067  0.0247  0.1042  0.0093  0.0000  0.0000  0.0000  0.0000  0.0000 </r>
       </set>
       <set comment="band 12">
        <r>  0.0021  0.0057  0.0283  0.0771  0.0000  0.0000  0.0000  0.0000  0.0000 </r>
        <r>  0.0021  0.0057  0.0283  0.0771  0.0000  0.0000  0.0000  0.0000  0.0000 </r>
       </set>
       <set comment="band 13">
        <r>  0.0074  0.0075  0.0115  0.0157  0.0000  0.0000  0.0000  0.0000  0.0000 </r>
        <r>  0.0074  0.0075  0.0115  0.0157  0.0000  0.0000  0.0000  0.0000  0.0000 </r>
       </set>
       <set comment="band 14">
        <r>  0.0156  0.0252  0.0083  0.0000  0.0000  0.0000  0.0000  0.0000  0.0000 </r>
        <r>  0.0157  0.0252  0.0083  0.0000  0.0000  0.0000  0.0000  0.0000  0.0000 </r>
       </set>
       <set comment="band 15">
        <r>  0.0125  0.0098  0.0619  0.0122  0.0000  0.0000  0.0000  0.0000  0.0000 </r>
        <r>  0.0125  0.0098  0.0619  0.0122  0.0000  0.0000  0.0000  0.0000  0.0000 </r>
       </set>
       <set comment="band 16">
        <r>  0.0299  0.0273  0.0675  0.0009  0.0000  0.0000  0.0000  0.0000  0.0000 </r>
        <r>  0.0299  0.0273  0.0675  0.0009  0.0000  0.0000  0.0000  0.0000  0.0000 </r>
       </set>
      </set>
      <set comment="kpoint 99">
       <set comment="band 1">
        <r>  0.1969  0.0001  0.0372  0.0009  0.0000  0.0000  0.0000  0.0000  0.0000 </r>
        <r>  0.1969  0.0001  0.0372  0.0009  0.0000  0.0000  0.0000  0.0000  0.0000 </r>
       </set>
       <set comment="band 2">
        <r>  0.1923  0.0000  0.0474  0.0017  0.0000  0.0000  0.0000  0.0000  0.0000 </r>
        <r>  0.1923  0.0000  0.0474  0.0017  0.0000  0.0000  0.0000  0.0000  0.0000 </r>
       </set>
       <set comment="band 3">
        <r>  0.0026  0.0853  0.0059  0.0918  0.0000  0.0000  0.0000  0.0000  0.0000 </r>
        <r>  0.0026  0.0853  0.0059  0.0918  0.0000  0.0000  0.0000  0.0000  0.0000 </r>
       </set>
       <set comment="band 4">
        <r>  0.0010  0.0930  0.0064  0.0857  0.0000  0.0000  0.0000  0.0000  0.0000 </r>
        <r>  0.0010  0.0930  0.0064  0.0857  0.0000  0.0000  0.0000  0.0000  0.0000 </r>
       </set>
       <set comment="band 5">
        <r>  0.0471  0.0102  0.0347  0.0077  0.0000  0.0000  0.0000  0.0000  0.0000 </r>
        <r>  0.0471  0.0102  0.0347  0.0077  0.0000  0.0000  0.0000  0.0000  0.0000 </r>
       </set>
       <set comment="band 6">
        <r>  0.0461  0.0094  0.0301  0.0061  0.0000  0.0000  0.0000  0.0000  0.0000 </r>
        <r>  0.0461  0.0094  0.0301  0.0061  0.0000  0.0000  0.0000  0.0000  0.0000 </r>
       </set>
       <set comment="band 7">
        <r>  0.0132  0.0823  0.0173  0.0474  0.0000  0.0000  0.0000  0.0000  0.0000 </r>
        <r>  0.0132  0.0823  0.0173  0.0474  0.0000  0.0000  0.0000  0.0000  0.0000 </r>
       </set>
       <set comment="band 8">
        <r>  0.0040  0.0999  0.0022  0.1155  0.0000  0.0000  0.0000  0.0000  0.0000 </r>
        <r>  0.0040  0.0999  0.0022  0.1155  0.0000  0.0000  0.0000  0.0000  0.0000 </r>
       </set>
       <set comment="band 9">
        <r>  0.0060  0.0044  0.0302  0.0036  0.0000  0.0000  0.0000  0.0000  0.0000 </r>
        <r>  0.0060  0.0044  0.0302  0.0036  0.0000  0.0000  0.0000  0.0000  0.0000 </r>
       </set>
       <set comment="band 10">
        <r>  0.0040  0.0247  0.0210  0.0627  0.0000  0.0000  0.0000  0.0000  0.0000 </r>
        <r>  0.0040  0.0247  0.0210  0.0627  0.0000  0.0000  0.0000  0.0000  0.0000 </r>
       </set>
       <set comment="band 11">
        <r>  0.0222  0.0020  0.0510  0.0117  0.0000  0.0000  0.0000  0.0000  0.0000 </r>
        <r>  0.0222  0.0020  0.0510  0.0117  0.0000  0.0000  0.0000  0.0000  0.0000 </r>
       </set>
       <set comment="band 12">
        <r>  0.0163  0.0000  0.0936  0.0030  0.0000  0.0000  0.0000  0.0000  0.0000 </r>
        <r>  0.0163  0.0000  0.0936  0.0030  0.0000  0.0000  0.0000  0.0000  0.0000 </r>
       </set>
       <set comment="band 13">
        <r>  0.0364  0.0165  0.1049  0.0030  0.0000  0.0000  0.0000  0.0000  0.0000 </r>
        <r>  0.0364  0.0165  0.1049  0.0030  0.0000  0.0000  0.0000  0.0000  0.0000 </r>
       </set>
       <set comment="band 14">
        <r>  0.0111  0.0172  0.0936  0.0057  0.0000  0.0000  0.0000  0.0000  0.0000 </r>
        <r>  0.0111  0.0172  0.0936  0.0057  0.0000  0.0000  0.0000  0.0000  0.0000 </r>
       </set>
       <set comment="band 15">
        <r>  0.0002  0.0002  0.0024  0.0172  0.0000  0.0000  0.0000  0.0000  0.0000 </r>
        <r>  0.0002  0.0002  0.0024  0.0172  0.0000  0.0000  0.0000  0.0000  0.0000 </r>
       </set>
       <set comment="band 16">
        <r>  0.0314  0.0113  0.0002  0.0000  0.0000  0.0000  0.0000  0.0000  0.0000 </r>
        <r>  0.0314  0.0113  0.0002  0.0000  0.0000  0.0000  0.0000  0.0000  0.0000 </r>
       </set>
      </set>
      <set comment="kpoint 100">
       <set comment="band 1">
        <r>  0.2007  0.0002  0.0374  0.0028  0.0000  0.0000  0.0000  0.0000  0.0000 </r>
        <r>  0.2007  0.0002  0.0374  0.0028  0.0000  0.0000  0.0000  0.0000  0.0000 </r>
       </set>
       <set comment="band 2">
        <r>  0.1928  0.0006  0.0419  0.0031  0.0000  0.0000  0.0000  0.0000  0.0000 </r>
        <r>  0.1928  0.0006  0.0419  0.0031  0.0000  0.0000  0.0000  0.0000  0.0000 </r>
       </set>
       <set comment="band 3">
        <r>  0.0023  0.0759  0.0181  0.0742  0.0000  0.0000  0.0000  0.0000  0.0000 </r>
        <r>  0.0023  0.0759  0.0181  0.0742  0.0000  0.0000  0.0000  0.0000  0.0000 </r>
       </set>
       <set comment="band 4">
        <r>  0.0018  0.0896  0.0061  0.0889  0.0000  0.0000  0.0000  0.0000  0.0000 </r>
        <r>  0.0018  0.0896  0.0061  0.0889  0.0000  0.0000  0.0000  0.0000  0.0000 </r>
       </set>
       <set comment="band 5">
        <r>  0.0468  0.0115  0.0328  0.0056  0.0000  0.0000  0.0000  0.0000  0.0000 </r>
        <r>  0.0468  0.0115  0.0328  0.0056  0.0000  0.0000  0.0000  0.0000  0.0000 </r>
       </set>
       <set comment="band 6">
        <r>  0.0388  0.0240  0.0250  0.0185  0.0000  0.0000  0.0000  0.0000  0.0000 </r>
        <r>  0.0388  0.0240  0.0250  0.0185  0.0000  0.0000  0.0000  0.0000  0.0000 </r>
       </set>
       <set comment="band 7">
        <r>  0.0132  0.0713  0.0232  0.0480  0.0000  0.0000  0.0000  0.0000  0.0000 </r>
        <r>  0.0132  0.0713  0.0232  0.0480  0.0000  0.0000  0.0000  0.0000  0.0000 </r>
       </set>
       <set comment="band 8">
        <r>  0.0206  0.0741  0.0240  0.0404  0.0000  0.0000  0.0000  0.0000  0.0000 </r>
        <r>  0.0206  0.0741  0.0240  0.0404  0.0000  0.0000  0.0000  0.0000  0.0000 </r>
       </set>
       <set comment="band 9">
        <r>  0.0084  0.0219  0.0466  0.0473  0.0000  0.0000  0.0000  0.0000  0.0000 </r>
        <r>  0.0084  0.0219  0.0466  0.0473  0.0000  0.0000  0.0000  0.0000  0.0000 </r>
       </set>
       <set comment="band 10">
        <r>  0.0025  0.0203  0.0000  0.0730  0.0000  0.0000  0.0000  0.0000  0.0000 </r>
        <r>  0.0025  0.0203  0.0000  0.0730  0.0000  0.0000  0.0000  0.0000  0.0000 </r>
       </set>
       <set comment="band 11">
        <r>  0.0221  0.0055  0.1013  0.0006  0.0000  0.0000  0.0000  0.0000  0.0000 </r>
        <r>  0.0221  0.0055  0.1013  0.0006  0.0000  0.0000  0.0000  0.0000  0.0000 </r>
       </set>
       <set comment="band 12">
        <r>  0.0152  0.0063  0.0439  0.0330  0.0000  0.0000  0.0000  0.0000  0.0000 </r>
        <r>  0.0152  0.0063  0.0439  0.0330  0.0000  0.0000  0.0000  0.0000  0.0000 </r>
       </set>
       <set comment="band 13">
        <r>  0.0124  0.0203  0.0831  0.0120  0.0000  0.0000  0.0000  0.0000  0.0000 </r>
        <r>  0.0124  0.0203  0.0831  0.0120  0.0000  0.0000  0.0000  0.0000  0.0000 </r>
       </set>
       <set comment="band 14">
        <r>  0.0206  0.0257  0.0954  0.0030  0.0000  0.0000  0.0000  0.0000  0.0000 </r>
        <r>  0.0206  0.0257  0.0954  0.0030  0.0000  0.0000  0.0000  0.0000  0.0000 </r>
       </set>
       <set comment="band 15">
        <r>  0.0103  0.0005  0.0019  0.0075  0.0000  0.0000  0.0000  0.0000  0.0000 </r>
        <r>  0.0103  0.0005  0.0019  0.0075  0.0000  0.0000  0.0000  0.0000  0.0000 </r>
       </set>
       <set comment="band 16">
        <r>  0.0013  0.0050  0.0042  0.0177  0.0000  0.0000  0.0000  0.0000  0.0000 </r>
        <r>  0.0013  0.0050  0.0042  0.0177  0.0000  0.0000  0.0000  0.0000  0.0000 </r>
       </set>
      </set>
      <set comment="kpoint 101">
       <set comment="band 1">
        <r>  0.2068  0.0024  0.0120  0.0006  0.0000  0.0000  0.0000  0.0000  0.0000 </r>
        <r>  0.2068  0.0024  0.0120  0.0006  0.0000  0.0000  0.0000  0.0000  0.0000 </r>
       </set>
       <set comment="band 2">
        <r>  0.1505  0.0160  0.0490  0.0265  0.0000  0.0000  0.0000  0.0000  0.0000 </r>
        <r>  0.1505  0.0160  0.0490  0.0265  0.0000  0.0000  0.0000  0.0000  0.0000 </r>
       </set>
       <set comment="band 3">
        <r>  0.0110  0.0497  0.0201  0.0959  0.0000  0.0000  0.0000  0.0000  0.0000 </r>
        <r>  0.0110  0.0497  0.0201  0.0959  0.0000  0.0000  0.0000  0.0000  0.0000 </r>
       </set>
       <set comment="band 4">
        <r>  0.0073  0.1054  0.0593  0.0291  0.0000  0.0000  0.0000  0.0000  0.0000 </r>
        <r>  0.0073  0.1054  0.0593  0.0291  0.0000  0.0000  0.0000  0.0000  0.0000 </r>
       </set>
       <set comment="band 5">
        <r>  0.0279  0.0229  0.0561  0.0279  0.0000  0.0000  0.0000  0.0000  0.0000 </r>
        <r>  0.0279  0.0229  0.0561  0.0279  0.0000  0.0000  0.0000  0.0000  0.0000 </r>
       </set>
       <set comment="band 6">
        <r>  0.0883  0.0002  0.0355  0.0403  0.0000  0.0000  0.0000  0.0000  0.0000 </r>
        <r>  0.0883  0.0002  0.0355  0.0403  0.0000  0.0000  0.0000  0.0000  0.0000 </r>
       </set>
       <set comment="band 7">
        <r>  0.0070  0.0584  0.0000  0.0269  0.0000  0.0000  0.0000  0.0000  0.0000 </r>
        <r>  0.0070  0.0584  0.0000  0.0269  0.0000  0.0000  0.0000  0.0000  0.0000 </r>
       </set>
       <set comment="band 8">
        <r>  0.0067  0.0608  0.0102  0.0807  0.0000  0.0000  0.0000  0.0000  0.0000 </r>
        <r>  0.0067  0.0608  0.0102  0.0807  0.0000  0.0000  0.0000  0.0000  0.0000 </r>
       </set>
       <set comment="band 9">
        <r>  0.0429  0.0094  0.0438  0.0016  0.0000  0.0000  0.0000  0.0000  0.0000 </r>
        <r>  0.0429  0.0094  0.0438  0.0016  0.0000  0.0000  0.0000  0.0000  0.0000 </r>
       </set>
       <set comment="band 10">
        <r>  0.0511  0.0325  0.0474  0.0227  0.0000  0.0000  0.0000  0.0000  0.0000 </r>
        <r>  0.0511  0.0325  0.0474  0.0227  0.0000  0.0000  0.0000  0.0000  0.0000 </r>
       </set>
       <set comment="band 11">
        <r>  0.0050  0.0256  0.0755  0.0303  0.0000  0.0000  0.0000  0.0000  0.0000 </r>
        <r>  0.0050  0.0256  0.0755  0.0303  0.0000  0.0000  0.0000  0.0000  0.0000 </r>
       </set>
       <set comment="band 12">
        <r>  0.0131  0.0033  0.0001  0.0009  0.0000  0.0000  0.0000  0.0000  0.0000 </r>
        <r>  0.0131  0.0033  0.0001  0.0009  0.0000  0.0000  0.0000  0.0000  0.0000 </r>
       </set>
       <set comment="band 13">
        <r>  0.0312  0.0052  0.0086  0.0025  0.0000  0.0000  0.0000  0.0000  0.0000 </r>
        <r>  0.0312  0.0052  0.0086  0.0025  0.0000  0.0000  0.0000  0.0000  0.0000 </r>
       </set>
       <set comment="band 14">
        <r>  0.0018  0.0334  0.0305  0.0044  0.0000  0.0000  0.0000  0.0000  0.0000 </r>
        <r>  0.0018  0.0334  0.0305  0.0044  0.0000  0.0000  0.0000  0.0000  0.0000 </r>
       </set>
       <set comment="band 15">
        <r>  0.0001  0.0252  0.0006  0.0372  0.0000  0.0000  0.0000  0.0000  0.0000 </r>
        <r>  0.0001  0.0252  0.0006  0.0372  0.0000  0.0000  0.0000  0.0000  0.0000 </r>
       </set>
       <set comment="band 16">
        <r>  0.0017  0.0000  0.0093  0.0660  0.0000  0.0000  0.0000  0.0000  0.0000 </r>
        <r>  0.0017  0.0000  0.0093  0.0660  0.0000  0.0000  0.0000  0.0000  0.0000 </r>
       </set>
      </set>
      <set comment="kpoint 102">
       <set comment="band 1">
        <r>  0.2070  0.0032  0.0141  0.0015  0.0000  0.0000  0.0000  0.0000  0.0000 </r>
        <r>  0.2070  0.0032  0.0141  0.0015  0.0000  0.0000  0.0000  0.0000  0.0000 </r>
       </set>
       <set comment="band 2">
        <r>  0.1543  0.0153  0.0374  0.0302  0.0000  0.0000  0.0000  0.0000  0.0000 </r>
        <r>  0.1543  0.0153  0.0374  0.0302  0.0000  0.0000  0.0000  0.0000  0.0000 </r>
       </set>
       <set comment="band 3">
        <r>  0.0179  0.0451  0.0279  0.0847  0.0000  0.0000  0.0000  0.0000  0.0000 </r>
        <r>  0.0179  0.0451  0.0279  0.0847  0.0000  0.0000  0.0000  0.0000  0.0000 </r>
       </set>
       <set comment="band 4">
        <r>  0.0052  0.1010  0.0614  0.0280  0.0000  0.0000  0.0000  0.0000  0.0000 </r>
        <r>  0.0052  0.1010  0.0614  0.0280  0.0000  0.0000  0.0000  0.0000  0.0000 </r>
       </set>
       <set comment="band 5">
        <r>  0.0333  0.0247  0.0467  0.0265  0.0000  0.0000  0.0000  0.0000  0.0000 </r>
        <r>  0.0333  0.0247  0.0467  0.0265  0.0000  0.0000  0.0000  0.0000  0.0000 </r>
       </set>
       <set comment="band 6">
        <r>  0.0462  0.0384  0.0105  0.0495  0.0000  0.0000  0.0000  0.0000  0.0000 </r>
        <r>  0.0462  0.0384  0.0105  0.0495  0.0000  0.0000  0.0000  0.0000  0.0000 </r>
       </set>
       <set comment="band 7">
        <r>  0.0400  0.0284  0.0235  0.0173  0.0000  0.0000  0.0000  0.0000  0.0000 </r>
        <r>  0.0400  0.0284  0.0235  0.0173  0.0000  0.0000  0.0000  0.0000  0.0000 </r>
       </set>
       <set comment="band 8">
        <r>  0.0103  0.0498  0.0159  0.0723  0.0000  0.0000  0.0000  0.0000  0.0000 </r>
        <r>  0.0103  0.0498  0.0159  0.0723  0.0000  0.0000  0.0000  0.0000  0.0000 </r>
       </set>
       <set comment="band 9">
        <r>  0.0329  0.0103  0.0448  0.0121  0.0000  0.0000  0.0000  0.0000  0.0000 </r>
        <r>  0.0329  0.0103  0.0448  0.0121  0.0000  0.0000  0.0000  0.0000  0.0000 </r>
       </set>
       <set comment="band 10">
        <r>  0.0016  0.0371  0.0651  0.0293  0.0000  0.0000  0.0000  0.0000  0.0000 </r>
        <r>  0.0016  0.0371  0.0651  0.0293  0.0000  0.0000  0.0000  0.0000  0.0000 </r>
       </set>
       <set comment="band 11">
        <r>  0.0522  0.0355  0.0539  0.0234  0.0000  0.0000  0.0000  0.0000  0.0000 </r>
        <r>  0.0522  0.0355  0.0539  0.0234  0.0000  0.0000  0.0000  0.0000  0.0000 </r>
       </set>
       <set comment="band 12">
        <r>  0.0093  0.0158  0.0029  0.0016  0.0000  0.0000  0.0000  0.0000  0.0000 </r>
        <r>  0.0093  0.0158  0.0029  0.0016  0.0000  0.0000  0.0000  0.0000  0.0000 </r>
       </set>
       <set comment="band 13">
        <r>  0.0221  0.0008  0.0263  0.0112  0.0000  0.0000  0.0000  0.0000  0.0000 </r>
        <r>  0.0221  0.0008  0.0263  0.0112  0.0000  0.0000  0.0000  0.0000  0.0000 </r>
       </set>
       <set comment="band 14">
        <r>  0.0089  0.0191  0.0104  0.0480  0.0000  0.0000  0.0000  0.0000  0.0000 </r>
        <r>  0.0089  0.0191  0.0104  0.0480  0.0000  0.0000  0.0000  0.0000  0.0000 </r>
       </set>
       <set comment="band 15">
        <r>  0.0002  0.0186  0.0309  0.0094  0.0000  0.0000  0.0000  0.0000  0.0000 </r>
        <r>  0.0002  0.0186  0.0309  0.0094  0.0000  0.0000  0.0000  0.0000  0.0000 </r>
       </set>
       <set comment="band 16">
        <r>  0.0182  0.0141  0.0355  0.0104  0.0000  0.0000  0.0000  0.0000  0.0000 </r>
        <r>  0.0182  0.0141  0.0355  0.0104  0.0000  0.0000  0.0000  0.0000  0.0000 </r>
       </set>
      </set>
      <set comment="kpoint 103">
       <set comment="band 1">
        <r>  0.2098  0.0035  0.0149  0.0032  0.0000  0.0000  0.0000  0.0000  0.0000 </r>
        <r>  0.2098  0.0035  0.0149  0.0032  0.0000  0.0000  0.0000  0.0000  0.0000 </r>
       </set>
       <set comment="band 2">
        <r>  0.1500  0.0166  0.0292  0.0319  0.0000  0.0000  0.0000  0.0000  0.0000 </r>
        <r>  0.1500  0.0166  0.0292  0.0319  0.0000  0.0000  0.0000  0.0000  0.0000 </r>
       </set>
       <set comment="band 3">
        <r>  0.0275  0.0382  0.0391  0.0741  0.0000  0.0000  0.0000  0.0000  0.0000 </r>
        <r>  0.0275  0.0382  0.0391  0.0741  0.0000  0.0000  0.0000  0.0000  0.0000 </r>
       </set>
       <set comment="band 4">
        <r>  0.0029  0.1004  0.0567  0.0311  0.0000  0.0000  0.0000  0.0000  0.0000 </r>
        <r>  0.0029  0.1004  0.0567  0.0311  0.0000  0.0000  0.0000  0.0000  0.0000 </r>
       </set>
       <set comment="band 5">
        <r>  0.0421  0.0240  0.0406  0.0214  0.0000  0.0000  0.0000  0.0000  0.0000 </r>
        <r>  0.0421  0.0240  0.0406  0.0214  0.0000  0.0000  0.0000  0.0000  0.0000 </r>
       </set>
       <set comment="band 6">
        <r>  0.0392  0.0389  0.0102  0.0398  0.0000  0.0000  0.0000  0.0000  0.0000 </r>
        <r>  0.0392  0.0389  0.0102  0.0398  0.0000  0.0000  0.0000  0.0000  0.0000 </r>
       </set>
       <set comment="band 7">
        <r>  0.0346  0.0384  0.0256  0.0285  0.0000  0.0000  0.0000  0.0000  0.0000 </r>
        <r>  0.0346  0.0384  0.0256  0.0285  0.0000  0.0000  0.0000  0.0000  0.0000 </r>
       </set>
       <set comment="band 8">
        <r>  0.0151  0.0391  0.0225  0.0595  0.0000  0.0000  0.0000  0.0000  0.0000 </r>
        <r>  0.0151  0.0391  0.0225  0.0595  0.0000  0.0000  0.0000  0.0000  0.0000 </r>
       </set>
       <set comment="band 9">
        <r>  0.0081  0.0396  0.0569  0.0249  0.0000  0.0000  0.0000  0.0000  0.0000 </r>
        <r>  0.0081  0.0396  0.0569  0.0249  0.0000  0.0000  0.0000  0.0000  0.0000 </r>
       </set>
       <set comment="band 10">
        <r>  0.0203  0.0136  0.0424  0.0267  0.0000  0.0000  0.0000  0.0000  0.0000 </r>
        <r>  0.0203  0.0136  0.0424  0.0267  0.0000  0.0000  0.0000  0.0000  0.0000 </r>
       </set>
       <set comment="band 11">
        <r>  0.0262  0.0053  0.0121  0.0014  0.0000  0.0000  0.0000  0.0000  0.0000 </r>
        <r>  0.0262  0.0053  0.0121  0.0014  0.0000  0.0000  0.0000  0.0000  0.0000 </r>
       </set>
       <set comment="band 12">
        <r>  0.0264  0.0603  0.0563  0.0506  0.0000  0.0000  0.0000  0.0000  0.0000 </r>
        <r>  0.0264  0.0603  0.0563  0.0506  0.0000  0.0000  0.0000  0.0000  0.0000 </r>
       </set>
       <set comment="band 13">
        <r>  0.0091  0.0029  0.0349  0.0331  0.0000  0.0000  0.0000  0.0000  0.0000 </r>
        <r>  0.0091  0.0029  0.0349  0.0331  0.0000  0.0000  0.0000  0.0000  0.0000 </r>
       </set>
       <set comment="band 14">
        <r>  0.0213  0.0015  0.0172  0.0099  0.0000  0.0000  0.0000  0.0000  0.0000 </r>
        <r>  0.0213  0.0015  0.0172  0.0099  0.0000  0.0000  0.0000  0.0000  0.0000 </r>
       </set>
       <set comment="band 15">
        <r>  0.0013  0.0457  0.0104  0.0323  0.0000  0.0000  0.0000  0.0000  0.0000 </r>
        <r>  0.0013  0.0457  0.0104  0.0323  0.0000  0.0000  0.0000  0.0000  0.0000 </r>
       </set>
       <set comment="band 16">
        <r>  0.0052  0.0015  0.0583  0.0293  0.0000  0.0000  0.0000  0.0000  0.0000 </r>
        <r>  0.0052  0.0015  0.0583  0.0293  0.0000  0.0000  0.0000  0.0000  0.0000 </r>
       </set>
      </set>
      <set comment="kpoint 104">
       <set comment="band 1">
        <r>  0.2160  0.0030  0.0124  0.0067  0.0000  0.0000  0.0000  0.0000  0.0000 </r>
        <r>  0.2160  0.0030  0.0124  0.0067  0.0000  0.0000  0.0000  0.0000  0.0000 </r>
       </set>
       <set comment="band 2">
        <r>  0.1427  0.0180  0.0274  0.0306  0.0000  0.0000  0.0000  0.0000  0.0000 </r>
        <r>  0.1427  0.0180  0.0274  0.0306  0.0000  0.0000  0.0000  0.0000  0.0000 </r>
       </set>
       <set comment="band 3">
        <r>  0.0333  0.0337  0.0512  0.0632  0.0000  0.0000  0.0000  0.0000  0.0000 </r>
        <r>  0.0333  0.0337  0.0512  0.0632  0.0000  0.0000  0.0000  0.0000  0.0000 </r>
       </set>
       <set comment="band 4">
        <r>  0.0012  0.1012  0.0480  0.0383  0.0000  0.0000  0.0000  0.0000  0.0000 </r>
        <r>  0.0012  0.1012  0.0480  0.0383  0.0000  0.0000  0.0000  0.0000  0.0000 </r>
       </set>
       <set comment="band 5">
        <r>  0.0517  0.0240  0.0393  0.0193  0.0000  0.0000  0.0000  0.0000  0.0000 </r>
        <r>  0.0517  0.0240  0.0393  0.0193  0.0000  0.0000  0.0000  0.0000  0.0000 </r>
       </set>
       <set comment="band 6">
        <r>  0.0326  0.0375  0.0116  0.0350  0.0000  0.0000  0.0000  0.0000  0.0000 </r>
        <r>  0.0326  0.0375  0.0116  0.0350  0.0000  0.0000  0.0000  0.0000  0.0000 </r>
       </set>
       <set comment="band 7">
        <r>  0.0292  0.0638  0.0464  0.0291  0.0000  0.0000  0.0000  0.0000  0.0000 </r>
        <r>  0.0292  0.0638  0.0464  0.0291  0.0000  0.0000  0.0000  0.0000  0.0000 </r>
       </set>
       <set comment="band 8">
        <r>  0.0143  0.0207  0.0050  0.0520  0.0000  0.0000  0.0000  0.0000  0.0000 </r>
        <r>  0.0143  0.0207  0.0050  0.0520  0.0000  0.0000  0.0000  0.0000  0.0000 </r>
       </set>
       <set comment="band 9">
        <r>  0.0161  0.0350  0.0535  0.0266  0.0000  0.0000  0.0000  0.0000  0.0000 </r>
        <r>  0.0161  0.0350  0.0535  0.0266  0.0000  0.0000  0.0000  0.0000  0.0000 </r>
       </set>
       <set comment="band 10">
        <r>  0.0060  0.0127  0.0320  0.0280  0.0000  0.0000  0.0000  0.0000  0.0000 </r>
        <r>  0.0060  0.0127  0.0320  0.0280  0.0000  0.0000  0.0000  0.0000  0.0000 </r>
       </set>
       <set comment="band 11">
        <r>  0.0176  0.0080  0.0437  0.0262  0.0000  0.0000  0.0000  0.0000  0.0000 </r>
        <r>  0.0176  0.0080  0.0437  0.0262  0.0000  0.0000  0.0000  0.0000  0.0000 </r>
       </set>
       <set comment="band 12">
        <r>  0.0334  0.0147  0.0116  0.0375  0.0000  0.0000  0.0000  0.0000  0.0000 </r>
        <r>  0.0334  0.0147  0.0116  0.0375  0.0000  0.0000  0.0000  0.0000  0.0000 </r>
       </set>
       <set comment="band 13">
        <r>  0.0141  0.0474  0.0703  0.0235  0.0000  0.0000  0.0000  0.0000  0.0000 </r>
        <r>  0.0141  0.0474  0.0703  0.0235  0.0000  0.0000  0.0000  0.0000  0.0000 </r>
       </set>
       <set comment="band 14">
        <r>  0.0018  0.0430  0.0139  0.0590  0.0000  0.0000  0.0000  0.0000  0.0000 </r>
        <r>  0.0018  0.0430  0.0139  0.0590  0.0000  0.0000  0.0000  0.0000  0.0000 </r>
       </set>
       <set comment="band 15">
        <r>  0.0167  0.0025  0.0330  0.0191  0.0000  0.0000  0.0000  0.0000  0.0000 </r>
        <r>  0.0167  0.0025  0.0330  0.0191  0.0000  0.0000  0.0000  0.0000  0.0000 </r>
       </set>
       <set comment="band 16">
        <r>  0.0253  0.0003  0.0148  0.0169  0.0000  0.0000  0.0000  0.0000  0.0000 </r>
        <r>  0.0253  0.0003  0.0148  0.0169  0.0000  0.0000  0.0000  0.0000  0.0000 </r>
       </set>
      </set>
      <set comment="kpoint 105">
       <set comment="band 1">
        <r>  0.2051  0.0018  0.0183  0.0011  0.0000  0.0000  0.0000  0.0000  0.0000 </r>
        <r>  0.2051  0.0018  0.0183  0.0011  0.0000  0.0000  0.0000  0.0000  0.0000 </r>
       </set>
       <set comment="band 2">
        <r>  0.1717  0.0066  0.0487  0.0197  0.0000  0.0000  0.0000  0.0000  0.0000 </r>
        <r>  0.1717  0.0066  0.0487  0.0197  0.0000  0.0000  0.0000  0.0000  0.0000 </r>
       </set>
       <set comment="band 3">
        <r>  0.0100  0.0574  0.0176  0.0891  0.0000  0.0000  0.0000  0.0000  0.0000 </r>
        <r>  0.0100  0.0574  0.0176  0.0891  0.0000  0.0000  0.0000  0.0000  0.0000 </r>
       </set>
       <set comment="band 4">
        <r>  0.0033  0.0981  0.0404  0.0456  0.0000  0.0000  0.0000  0.0000  0.0000 </r>
        <r>  0.0033  0.0981  0.0404  0.0456  0.0000  0.0000  0.0000  0.0000  0.0000 </r>
       </set>
       <set comment="band 5">
        <r>  0.0334  0.0251  0.0439  0.0244  0.0000  0.0000  0.0000  0.0000  0.0000 </r>
        <r>  0.0334  0.0251  0.0439  0.0244  0.0000  0.0000  0.0000  0.0000  0.0000 </r>
       </set>
       <set comment="band 6">
        <r>  0.0396  0.0212  0.0221  0.0095  0.0000  0.0000  0.0000  0.0000  0.0000 </r>
        <r>  0.0396  0.0212  0.0221  0.0095  0.0000  0.0000  0.0000  0.0000  0.0000 </r>
       </set>
       <set comment="band 7">
        <r>  0.0405  0.0505  0.0171  0.0466  0.0000  0.0000  0.0000  0.0000  0.0000 </r>
        <r>  0.0405  0.0505  0.0171  0.0466  0.0000  0.0000  0.0000  0.0000  0.0000 </r>
       </set>
       <set comment="band 8">
        <r>  0.0039  0.0562  0.0099  0.0893  0.0000  0.0000  0.0000  0.0000  0.0000 </r>
        <r>  0.0039  0.0562  0.0099  0.0893  0.0000  0.0000  0.0000  0.0000  0.0000 </r>
       </set>
       <set comment="band 9">
        <r>  0.0424  0.0060  0.0569  0.0022  0.0000  0.0000  0.0000  0.0000  0.0000 </r>
        <r>  0.0424  0.0060  0.0569  0.0022  0.0000  0.0000  0.0000  0.0000  0.0000 </r>
       </set>
       <set comment="band 10">
        <r>  0.0021  0.0372  0.0658  0.0251  0.0000  0.0000  0.0000  0.0000  0.0000 </r>
        <r>  0.0021  0.0372  0.0658  0.0251  0.0000  0.0000  0.0000  0.0000  0.0000 </r>
       </set>
       <set comment="band 11">
        <r>  0.0417  0.0402  0.0606  0.0256  0.0000  0.0000  0.0000  0.0000  0.0000 </r>
        <r>  0.0417  0.0402  0.0606  0.0256  0.0000  0.0000  0.0000  0.0000  0.0000 </r>
       </set>
       <set comment="band 12">
        <r>  0.0102  0.0062  0.0000  0.0006  0.0000  0.0000  0.0000  0.0000  0.0000 </r>
        <r>  0.0102  0.0062  0.0000  0.0006  0.0000  0.0000  0.0000  0.0000  0.0000 </r>
       </set>
       <set comment="band 13">
        <r>  0.0188  0.0056  0.0487  0.0018  0.0000  0.0000  0.0000  0.0000  0.0000 </r>
        <r>  0.0188  0.0056  0.0487  0.0018  0.0000  0.0000  0.0000  0.0000  0.0000 </r>
       </set>
       <set comment="band 14">
        <r>  0.0000  0.0141  0.0003  0.0696  0.0000  0.0000  0.0000  0.0000  0.0000 </r>
        <r>  0.0000  0.0141  0.0003  0.0696  0.0000  0.0000  0.0000  0.0000  0.0000 </r>
       </set>
       <set comment="band 15">
        <r>  0.0042  0.0152  0.0507  0.0047  0.0000  0.0000  0.0000  0.0000  0.0000 </r>
        <r>  0.0042  0.0152  0.0507  0.0047  0.0000  0.0000  0.0000  0.0000  0.0000 </r>
       </set>
       <set comment="band 16">
        <r>  0.0299  0.0004  0.0100  0.0052  0.0000  0.0000  0.0000  0.0000  0.0000 </r>
        <r>  0.0299  0.0004  0.0100  0.0052  0.0000  0.0000  0.0000  0.0000  0.0000 </r>
       </set>
      </set>
      <set comment="kpoint 106">
       <set comment="band 1">
        <r>  0.2062  0.0021  0.0202  0.0027  0.0000  0.0000  0.0000  0.0000  0.0000 </r>
        <r>  0.2062  0.0021  0.0202  0.0027  0.0000  0.0000  0.0000  0.0000  0.0000 </r>
       </set>
       <set comment="band 2">
        <r>  0.1753  0.0069  0.0379  0.0229  0.0000  0.0000  0.0000  0.0000  0.0000 </r>
        <r>  0.1753  0.0069  0.0379  0.0229  0.0000  0.0000  0.0000  0.0000  0.0000 </r>
       </set>
       <set comment="band 3">
        <r>  0.0131  0.0530  0.0282  0.0755  0.0000  0.0000  0.0000  0.0000  0.0000 </r>
        <r>  0.0131  0.0530  0.0282  0.0755  0.0000  0.0000  0.0000  0.0000  0.0000 </r>
       </set>
       <set comment="band 4">
        <r>  0.0018  0.0926  0.0406  0.0467  0.0000  0.0000  0.0000  0.0000  0.0000 </r>
        <r>  0.0018  0.0926  0.0406  0.0467  0.0000  0.0000  0.0000  0.0000  0.0000 </r>
       </set>
       <set comment="band 5">
        <r>  0.0352  0.0277  0.0359  0.0200  0.0000  0.0000  0.0000  0.0000  0.0000 </r>
        <r>  0.0352  0.0277  0.0359  0.0200  0.0000  0.0000  0.0000  0.0000  0.0000 </r>
       </set>
       <set comment="band 6">
        <r>  0.0248  0.0417  0.0161  0.0146  0.0000  0.0000  0.0000  0.0000  0.0000 </r>
        <r>  0.0248  0.0417  0.0161  0.0146  0.0000  0.0000  0.0000  0.0000  0.0000 </r>
       </set>
       <set comment="band 7">
        <r>  0.0495  0.0364  0.0236  0.0464  0.0000  0.0000  0.0000  0.0000  0.0000 </r>
        <r>  0.0495  0.0364  0.0236  0.0464  0.0000  0.0000  0.0000  0.0000  0.0000 </r>
       </set>
       <set comment="band 8">
        <r>  0.0096  0.0483  0.0182  0.0777  0.0000  0.0000  0.0000  0.0000  0.0000 </r>
        <r>  0.0096  0.0483  0.0182  0.0777  0.0000  0.0000  0.0000  0.0000  0.0000 </r>
       </set>
       <set comment="band 9">
        <r>  0.0095  0.0400  0.0546  0.0217  0.0000  0.0000  0.0000  0.0000  0.0000 </r>
        <r>  0.0095  0.0400  0.0546  0.0217  0.0000  0.0000  0.0000  0.0000  0.0000 </r>
       </set>
       <set comment="band 10">
        <r>  0.0308  0.0106  0.0575  0.0124  0.0000  0.0000  0.0000  0.0000  0.0000 </r>
        <r>  0.0308  0.0106  0.0575  0.0124  0.0000  0.0000  0.0000  0.0000  0.0000 </r>
       </set>
       <set comment="band 11">
        <r>  0.0075  0.0125  0.0226  0.0195  0.0000  0.0000  0.0000  0.0000  0.0000 </r>
        <r>  0.0075  0.0125  0.0226  0.0195  0.0000  0.0000  0.0000  0.0000  0.0000 </r>
       </set>
       <set comment="band 12">
        <r>  0.0304  0.0512  0.0575  0.0551  0.0000  0.0000  0.0000  0.0000  0.0000 </r>
        <r>  0.0304  0.0512  0.0575  0.0551  0.0000  0.0000  0.0000  0.0000  0.0000 </r>
       </set>
       <set comment="band 13">
        <r>  0.0085  0.0011  0.0146  0.0253  0.0000  0.0000  0.0000  0.0000  0.0000 </r>
        <r>  0.0085  0.0011  0.0146  0.0253  0.0000  0.0000  0.0000  0.0000  0.0000 </r>
       </set>
       <set comment="band 14">
        <r>  0.0112  0.0011  0.0494  0.0079  0.0000  0.0000  0.0000  0.0000  0.0000 </r>
        <r>  0.0112  0.0011  0.0494  0.0079  0.0000  0.0000  0.0000  0.0000  0.0000 </r>
       </set>
       <set comment="band 15">
        <r>  0.0295  0.0017  0.0414  0.0093  0.0000  0.0000  0.0000  0.0000  0.0000 </r>
        <r>  0.0295  0.0017  0.0414  0.0093  0.0000  0.0000  0.0000  0.0000  0.0000 </r>
       </set>
       <set comment="band 16">
        <r>  0.0054  0.0088  0.0104  0.0117  0.0000  0.0000  0.0000  0.0000  0.0000 </r>
        <r>  0.0054  0.0088  0.0104  0.0117  0.0000  0.0000  0.0000  0.0000  0.0000 </r>
       </set>
      </set>
      <set comment="kpoint 107">
       <set comment="band 1">
        <r>  0.2108  0.0020  0.0191  0.0058  0.0000  0.0000  0.0000  0.0000  0.0000 </r>
        <r>  0.2108  0.0020  0.0191  0.0058  0.0000  0.0000  0.0000  0.0000  0.0000 </r>
       </set>
       <set comment="band 2">
        <r>  0.1714  0.0089  0.0307  0.0246  0.0000  0.0000  0.0000  0.0000  0.0000 </r>
        <r>  0.1714  0.0089  0.0307  0.0246  0.0000  0.0000  0.0000  0.0000  0.0000 </r>
       </set>
       <set comment="band 3">
        <r>  0.0167  0.0481  0.0445  0.0587  0.0000  0.0000  0.0000  0.0000  0.0000 </r>
        <r>  0.0167  0.0481  0.0445  0.0587  0.0000  0.0000  0.0000  0.0000  0.0000 </r>
       </set>
       <set comment="band 4">
        <r>  0.0011  0.0906  0.0335  0.0546  0.0000  0.0000  0.0000  0.0000  0.0000 </r>
        <r>  0.0011  0.0906  0.0335  0.0546  0.0000  0.0000  0.0000  0.0000  0.0000 </r>
       </set>
       <set comment="band 5">
        <r>  0.0369  0.0307  0.0321  0.0146  0.0000  0.0000  0.0000  0.0000  0.0000 </r>
        <r>  0.0369  0.0307  0.0321  0.0146  0.0000  0.0000  0.0000  0.0000  0.0000 </r>
       </set>
       <set comment="band 6">
        <r>  0.0210  0.0622  0.0102  0.0188  0.0000  0.0000  0.0000  0.0000  0.0000 </r>
        <r>  0.0210  0.0622  0.0102  0.0188  0.0000  0.0000  0.0000  0.0000  0.0000 </r>
       </set>
       <set comment="band 7">
        <r>  0.0455  0.0203  0.0297  0.0472  0.0000  0.0000  0.0000  0.0000  0.0000 </r>
        <r>  0.0455  0.0203  0.0297  0.0472  0.0000  0.0000  0.0000  0.0000  0.0000 </r>
       </set>
       <set comment="band 8">
        <r>  0.0191  0.0546  0.0218  0.0719  0.0000  0.0000  0.0000  0.0000  0.0000 </r>
        <r>  0.0191  0.0546  0.0218  0.0719  0.0000  0.0000  0.0000  0.0000  0.0000 </r>
       </set>
       <set comment="band 9">
        <r>  0.0146  0.0247  0.0589  0.0104  0.0000  0.0000  0.0000  0.0000  0.0000 </r>
        <r>  0.0146  0.0247  0.0589  0.0104  0.0000  0.0000  0.0000  0.0000  0.0000 </r>
       </set>
       <set comment="band 10">
        <r>  0.0132  0.0178  0.0478  0.0230  0.0000  0.0000  0.0000  0.0000  0.0000 </r>
        <r>  0.0132  0.0178  0.0478  0.0230  0.0000  0.0000  0.0000  0.0000  0.0000 </r>
       </set>
       <set comment="band 11">
        <r>  0.0127  0.0121  0.0436  0.0494  0.0000  0.0000  0.0000  0.0000  0.0000 </r>
        <r>  0.0127  0.0121  0.0436  0.0494  0.0000  0.0000  0.0000  0.0000  0.0000 </r>
       </set>
       <set comment="band 12">
        <r>  0.0221  0.0110  0.0081  0.0330  0.0000  0.0000  0.0000  0.0000  0.0000 </r>
        <r>  0.0221  0.0110  0.0081  0.0330  0.0000  0.0000  0.0000  0.0000  0.0000 </r>
       </set>
       <set comment="band 13">
        <r>  0.0116  0.0410  0.0731  0.0180  0.0000  0.0000  0.0000  0.0000  0.0000 </r>
        <r>  0.0116  0.0410  0.0731  0.0180  0.0000  0.0000  0.0000  0.0000  0.0000 </r>
       </set>
       <set comment="band 14">
        <r>  0.0105  0.0002  0.0546  0.0178  0.0000  0.0000  0.0000  0.0000  0.0000 </r>
        <r>  0.0105  0.0002  0.0546  0.0178  0.0000  0.0000  0.0000  0.0000  0.0000 </r>
       </set>
       <set comment="band 15">
        <r>  0.0198  0.0070  0.0035  0.0295  0.0000  0.0000  0.0000  0.0000  0.0000 </r>
        <r>  0.0198  0.0070  0.0035  0.0295  0.0000  0.0000  0.0000  0.0000  0.0000 </r>
       </set>
       <set comment="band 16">
        <r>  0.0160  0.0305  0.0063  0.0158  0.0000  0.0000  0.0000  0.0000  0.0000 </r>
        <r>  0.0160  0.0305  0.0063  0.0157  0.0000  0.0000  0.0000  0.0000  0.0000 </r>
       </set>
      </set>
      <set comment="kpoint 108">
       <set comment="band 1">
        <r>  0.2145  0.0023  0.0123  0.0120  0.0000  0.0000  0.0000  0.0000  0.0000 </r>
        <r>  0.2145  0.0023  0.0123  0.0120  0.0000  0.0000  0.0000  0.0000  0.0000 </r>
       </set>
       <set comment="band 2">
        <r>  0.1678  0.0096  0.0315  0.0230  0.0000  0.0000  0.0000  0.0000  0.0000 </r>
        <r>  0.1678  0.0096  0.0315  0.0230  0.0000  0.0000  0.0000  0.0000  0.0000 </r>
       </set>
       <set comment="band 3">
        <r>  0.0164  0.0467  0.0585  0.0443  0.0000  0.0000  0.0000  0.0000  0.0000 </r>
        <r>  0.0164  0.0467  0.0585  0.0443  0.0000  0.0000  0.0000  0.0000  0.0000 </r>
       </set>
       <set comment="band 4">
        <r>  0.0018  0.0894  0.0267  0.0627  0.0000  0.0000  0.0000  0.0000  0.0000 </r>
        <r>  0.0018  0.0894  0.0267  0.0627  0.0000  0.0000  0.0000  0.0000  0.0000 </r>
       </set>
       <set comment="band 5">
        <r>  0.0370  0.0350  0.0316  0.0113  0.0000  0.0000  0.0000  0.0000  0.0000 </r>
        <r>  0.0370  0.0350  0.0316  0.0113  0.0000  0.0000  0.0000  0.0000  0.0000 </r>
       </set>
       <set comment="band 6">
        <r>  0.0333  0.0447  0.0205  0.0278  0.0000  0.0000  0.0000  0.0000  0.0000 </r>
        <r>  0.0333  0.0447  0.0205  0.0278  0.0000  0.0000  0.0000  0.0000  0.0000 </r>
       </set>
       <set comment="band 7">
        <r>  0.0206  0.0564  0.0105  0.0226  0.0000  0.0000  0.0000  0.0000  0.0000 </r>
        <r>  0.0206  0.0564  0.0105  0.0226  0.0000  0.0000  0.0000  0.0000  0.0000 </r>
       </set>
       <set comment="band 8">
        <r>  0.0322  0.0215  0.0465  0.0536  0.0000  0.0000  0.0000  0.0000  0.0000 </r>
        <r>  0.0322  0.0215  0.0465  0.0536  0.0000  0.0000  0.0000  0.0000  0.0000 </r>
       </set>
       <set comment="band 9">
        <r>  0.0162  0.0342  0.0535  0.0360  0.0000  0.0000  0.0000  0.0000  0.0000 </r>
        <r>  0.0162  0.0342  0.0535  0.0360  0.0000  0.0000  0.0000  0.0000  0.0000 </r>
       </set>
       <set comment="band 10">
        <r>  0.0121  0.0178  0.0274  0.0493  0.0000  0.0000  0.0000  0.0000  0.0000 </r>
        <r>  0.0121  0.0178  0.0274  0.0493  0.0000  0.0000  0.0000  0.0000  0.0000 </r>
       </set>
       <set comment="band 11">
        <r>  0.0125  0.0110  0.0547  0.0370  0.0000  0.0000  0.0000  0.0000  0.0000 </r>
        <r>  0.0125  0.0110  0.0547  0.0370  0.0000  0.0000  0.0000  0.0000  0.0000 </r>
       </set>
       <set comment="band 12">
        <r>  0.0223  0.0108  0.0244  0.0121  0.0000  0.0000  0.0000  0.0000  0.0000 </r>
        <r>  0.0223  0.0108  0.0244  0.0121  0.0000  0.0000  0.0000  0.0000  0.0000 </r>
       </set>
       <set comment="band 13">
        <r>  0.0028  0.0298  0.0598  0.0623  0.0000  0.0000  0.0000  0.0000  0.0000 </r>
        <r>  0.0028  0.0298  0.0598  0.0623  0.0000  0.0000  0.0000  0.0000  0.0000 </r>
       </set>
       <set comment="band 14">
        <r>  0.0009  0.0196  0.0497  0.0296  0.0000  0.0000  0.0000  0.0000  0.0000 </r>
        <r>  0.0009  0.0196  0.0497  0.0296  0.0000  0.0000  0.0000  0.0000  0.0000 </r>
       </set>
       <set comment="band 15">
        <r>  0.0085  0.0300  0.0042  0.0350  0.0000  0.0000  0.0000  0.0000  0.0000 </r>
        <r>  0.0085  0.0300  0.0042  0.0350  0.0000  0.0000  0.0000  0.0000  0.0000 </r>
       </set>
       <set comment="band 16">
        <r>  0.0406  0.0025  0.0042  0.0001  0.0000  0.0000  0.0000  0.0000  0.0000 </r>
        <r>  0.0406  0.0025  0.0042  0.0001  0.0000  0.0000  0.0000  0.0000  0.0000 </r>
       </set>
      </set>
      <set comment="kpoint 109">
       <set comment="band 1">
        <r>  0.2103  0.0035  0.0060  0.0160  0.0000  0.0000  0.0000  0.0000  0.0000 </r>
        <r>  0.2103  0.0035  0.0060  0.0160  0.0000  0.0000  0.0000  0.0000  0.0000 </r>
       </set>
       <set comment="band 2">
        <r>  0.1720  0.0085  0.0329  0.0244  0.0000  0.0000  0.0000  0.0000  0.0000 </r>
        <r>  0.1720  0.0085  0.0329  0.0244  0.0000  0.0000  0.0000  0.0000  0.0000 </r>
       </set>
       <set comment="band 3">
        <r>  0.0126  0.0483  0.0691  0.0335  0.0000  0.0000  0.0000  0.0000  0.0000 </r>
        <r>  0.0126  0.0483  0.0691  0.0335  0.0000  0.0000  0.0000  0.0000  0.0000 </r>
       </set>
       <set comment="band 4">
        <r>  0.0032  0.0896  0.0234  0.0676  0.0000  0.0000  0.0000  0.0000  0.0000 </r>
        <r>  0.0032  0.0896  0.0234  0.0676  0.0000  0.0000  0.0000  0.0000  0.0000 </r>
       </set>
       <set comment="band 5">
        <r>  0.0366  0.0392  0.0332  0.0090  0.0000  0.0000  0.0000  0.0000  0.0000 </r>
        <r>  0.0366  0.0392  0.0332  0.0090  0.0000  0.0000  0.0000  0.0000  0.0000 </r>
       </set>
       <set comment="band 6">
        <r>  0.0312  0.0395  0.0264  0.0315  0.0000  0.0000  0.0000  0.0000  0.0000 </r>
        <r>  0.0312  0.0395  0.0264  0.0315  0.0000  0.0000  0.0000  0.0000  0.0000 </r>
       </set>
       <set comment="band 7">
        <r>  0.0370  0.0380  0.0290  0.0223  0.0000  0.0000  0.0000  0.0000  0.0000 </r>
        <r>  0.0370  0.0380  0.0290  0.0223  0.0000  0.0000  0.0000  0.0000  0.0000 </r>
       </set>
       <set comment="band 8">
        <r>  0.0065  0.0194  0.0409  0.0474  0.0000  0.0000  0.0000  0.0000  0.0000 </r>
        <r>  0.0065  0.0194  0.0409  0.0474  0.0000  0.0000  0.0000  0.0000  0.0000 </r>
       </set>
       <set comment="band 9">
        <r>  0.0240  0.0570  0.0505  0.0334  0.0000  0.0000  0.0000  0.0000  0.0000 </r>
        <r>  0.0240  0.0570  0.0505  0.0334  0.0000  0.0000  0.0000  0.0000  0.0000 </r>
       </set>
       <set comment="band 10">
        <r>  0.0250  0.0131  0.0178  0.0548  0.0000  0.0000  0.0000  0.0000  0.0000 </r>
        <r>  0.0250  0.0131  0.0178  0.0548  0.0000  0.0000  0.0000  0.0000  0.0000 </r>
       </set>
       <set comment="band 11">
        <r>  0.0154  0.0017  0.0082  0.0223  0.0000  0.0000  0.0000  0.0000  0.0000 </r>
        <r>  0.0154  0.0017  0.0082  0.0223  0.0000  0.0000  0.0000  0.0000  0.0000 </r>
       </set>
       <set comment="band 12">
        <r>  0.0082  0.0321  0.0899  0.0155  0.0000  0.0000  0.0000  0.0000  0.0000 </r>
        <r>  0.0082  0.0321  0.0899  0.0155  0.0000  0.0000  0.0000  0.0000  0.0000 </r>
       </set>
       <set comment="band 13">
        <r>  0.0069  0.0030  0.0137  0.0363  0.0000  0.0000  0.0000  0.0000  0.0000 </r>
        <r>  0.0069  0.0030  0.0137  0.0363  0.0000  0.0000  0.0000  0.0000  0.0000 </r>
       </set>
       <set comment="band 14">
        <r>  0.0220  0.0329  0.0107  0.0581  0.0000  0.0000  0.0000  0.0000  0.0000 </r>
        <r>  0.0220  0.0329  0.0107  0.0581  0.0000  0.0000  0.0000  0.0000  0.0000 </r>
       </set>
       <set comment="band 15">
        <r>  0.0251  0.0073  0.0150  0.0389  0.0000  0.0000  0.0000  0.0000  0.0000 </r>
        <r>  0.0251  0.0073  0.0150  0.0389  0.0000  0.0000  0.0000  0.0000  0.0000 </r>
       </set>
       <set comment="band 16">
        <r>  0.0109  0.0215  0.0361  0.0119  0.0000  0.0000  0.0000  0.0000  0.0000 </r>
        <r>  0.0109  0.0215  0.0361  0.0119  0.0000  0.0000  0.0000  0.0000  0.0000 </r>
       </set>
      </set>
      <set comment="kpoint 110">
       <set comment="band 1">
        <r>  0.2076  0.0037  0.0029  0.0159  0.0000  0.0000  0.0000  0.0000  0.0000 </r>
        <r>  0.2076  0.0037  0.0029  0.0159  0.0000  0.0000  0.0000  0.0000  0.0000 </r>
       </set>
       <set comment="band 2">
        <r>  0.1701  0.0094  0.0314  0.0310  0.0000  0.0000  0.0000  0.0000  0.0000 </r>
        <r>  0.1701  0.0094  0.0314  0.0310  0.0000  0.0000  0.0000  0.0000  0.0000 </r>
       </set>
       <set comment="band 3">
        <r>  0.0108  0.0494  0.0781  0.0268  0.0000  0.0000  0.0000  0.0000  0.0000 </r>
        <r>  0.0108  0.0494  0.0781  0.0268  0.0000  0.0000  0.0000  0.0000  0.0000 </r>
       </set>
       <set comment="band 4">
        <r>  0.0044  0.0930  0.0236  0.0678  0.0000  0.0000  0.0000  0.0000  0.0000 </r>
        <r>  0.0044  0.0930  0.0236  0.0678  0.0000  0.0000  0.0000  0.0000  0.0000 </r>
       </set>
       <set comment="band 5">
        <r>  0.0374  0.0419  0.0379  0.0078  0.0000  0.0000  0.0000  0.0000  0.0000 </r>
        <r>  0.0374  0.0419  0.0379  0.0078  0.0000  0.0000  0.0000  0.0000  0.0000 </r>
       </set>
       <set comment="band 6">
        <r>  0.0243  0.0376  0.0315  0.0389  0.0000  0.0000  0.0000  0.0000  0.0000 </r>
        <r>  0.0243  0.0376  0.0315  0.0389  0.0000  0.0000  0.0000  0.0000  0.0000 </r>
       </set>
       <set comment="band 7">
        <r>  0.0504  0.0249  0.0230  0.0225  0.0000  0.0000  0.0000  0.0000  0.0000 </r>
        <r>  0.0504  0.0249  0.0230  0.0225  0.0000  0.0000  0.0000  0.0000  0.0000 </r>
       </set>
       <set comment="band 8">
        <r>  0.0073  0.0440  0.0757  0.0212  0.0000  0.0000  0.0000  0.0000  0.0000 </r>
        <r>  0.0073  0.0440  0.0757  0.0212  0.0000  0.0000  0.0000  0.0000  0.0000 </r>
       </set>
       <set comment="band 9">
        <r>  0.0344  0.0078  0.0061  0.0543  0.0000  0.0000  0.0000  0.0000  0.0000 </r>
        <r>  0.0344  0.0078  0.0061  0.0543  0.0000  0.0000  0.0000  0.0000  0.0000 </r>
       </set>
       <set comment="band 10">
        <r>  0.0097  0.0458  0.0301  0.0536  0.0000  0.0000  0.0000  0.0000  0.0000 </r>
        <r>  0.0097  0.0458  0.0301  0.0536  0.0000  0.0000  0.0000  0.0000  0.0000 </r>
       </set>
       <set comment="band 11">
        <r>  0.0273  0.0021  0.0052  0.0100  0.0000  0.0000  0.0000  0.0000  0.0000 </r>
        <r>  0.0273  0.0021  0.0052  0.0100  0.0000  0.0000  0.0000  0.0000  0.0000 </r>
       </set>
       <set comment="band 12">
        <r>  0.0160  0.0567  0.0398  0.0520  0.0000  0.0000  0.0000  0.0000  0.0000 </r>
        <r>  0.0160  0.0567  0.0398  0.0520  0.0000  0.0000  0.0000  0.0000  0.0000 </r>
       </set>
       <set comment="band 13">
        <r>  0.0203  0.0004  0.0103  0.0347  0.0000  0.0000  0.0000  0.0000  0.0000 </r>
        <r>  0.0203  0.0004  0.0103  0.0347  0.0000  0.0000  0.0000  0.0000  0.0000 </r>
       </set>
       <set comment="band 14">
        <r>  0.0039  0.0085  0.0590  0.0011  0.0000  0.0000  0.0000  0.0000  0.0000 </r>
        <r>  0.0039  0.0085  0.0590  0.0011  0.0000  0.0000  0.0000  0.0000  0.0000 </r>
       </set>
       <set comment="band 15">
        <r>  0.0153  0.0019  0.0002  0.0794  0.0000  0.0000  0.0000  0.0000  0.0000 </r>
        <r>  0.0153  0.0019  0.0002  0.0794  0.0000  0.0000  0.0000  0.0000  0.0000 </r>
       </set>
       <set comment="band 16">
        <r>  0.0124  0.0300  0.0067  0.0005  0.0000  0.0000  0.0000  0.0000  0.0000 </r>
        <r>  0.0124  0.0300  0.0067  0.0005  0.0000  0.0000  0.0000  0.0000  0.0000 </r>
       </set>
      </set>
      <set comment="kpoint 111">
       <set comment="band 1">
        <r>  0.2032  0.0010  0.0256  0.0021  0.0000  0.0000  0.0000  0.0000  0.0000 </r>
        <r>  0.2032  0.0010  0.0256  0.0021  0.0000  0.0000  0.0000  0.0000  0.0000 </r>
       </set>
       <set comment="band 2">
        <r>  0.1873  0.0015  0.0461  0.0126  0.0000  0.0000  0.0000  0.0000  0.0000 </r>
        <r>  0.1873  0.0015  0.0461  0.0126  0.0000  0.0000  0.0000  0.0000  0.0000 </r>
       </set>
       <set comment="band 3">
        <r>  0.0076  0.0649  0.0165  0.0831  0.0000  0.0000  0.0000  0.0000  0.0000 </r>
        <r>  0.0076  0.0649  0.0165  0.0831  0.0000  0.0000  0.0000  0.0000  0.0000 </r>
       </set>
       <set comment="band 4">
        <r>  0.0002  0.0901  0.0276  0.0592  0.0000  0.0000  0.0000  0.0000  0.0000 </r>
        <r>  0.0002  0.0901  0.0276  0.0592  0.0000  0.0000  0.0000  0.0000  0.0000 </r>
       </set>
       <set comment="band 5">
        <r>  0.0367  0.0265  0.0347  0.0210  0.0000  0.0000  0.0000  0.0000  0.0000 </r>
        <r>  0.0367  0.0265  0.0347  0.0210  0.0000  0.0000  0.0000  0.0000  0.0000 </r>
       </set>
       <set comment="band 6">
        <r>  0.0381  0.0249  0.0213  0.0115  0.0000  0.0000  0.0000  0.0000  0.0000 </r>
        <r>  0.0381  0.0249  0.0213  0.0115  0.0000  0.0000  0.0000  0.0000  0.0000 </r>
       </set>
       <set comment="band 7">
        <r>  0.0330  0.0549  0.0227  0.0389  0.0000  0.0000  0.0000  0.0000  0.0000 </r>
        <r>  0.0330  0.0549  0.0227  0.0389  0.0000  0.0000  0.0000  0.0000  0.0000 </r>
       </set>
       <set comment="band 8">
        <r>  0.0031  0.0625  0.0051  0.1022  0.0000  0.0000  0.0000  0.0000  0.0000 </r>
        <r>  0.0031  0.0625  0.0051  0.1022  0.0000  0.0000  0.0000  0.0000  0.0000 </r>
       </set>
       <set comment="band 9">
        <r>  0.0096  0.0320  0.0529  0.0111  0.0000  0.0000  0.0000  0.0000  0.0000 </r>
        <r>  0.0096  0.0320  0.0529  0.0111  0.0000  0.0000  0.0000  0.0000  0.0000 </r>
       </set>
       <set comment="band 10">
        <r>  0.0369  0.0066  0.0727  0.0003  0.0000  0.0000  0.0000  0.0000  0.0000 </r>
        <r>  0.0369  0.0066  0.0727  0.0003  0.0000  0.0000  0.0000  0.0000  0.0000 </r>
       </set>
       <set comment="band 11">
        <r>  0.0004  0.0383  0.0036  0.0781  0.0000  0.0000  0.0000  0.0000  0.0000 </r>
        <r>  0.0004  0.0383  0.0036  0.0781  0.0000  0.0000  0.0000  0.0000  0.0000 </r>
       </set>
       <set comment="band 12">
        <r>  0.0380  0.0203  0.0658  0.0057  0.0000  0.0000  0.0000  0.0000  0.0000 </r>
        <r>  0.0380  0.0203  0.0658  0.0057  0.0000  0.0000  0.0000  0.0000  0.0000 </r>
       </set>
       <set comment="band 13">
        <r>  0.0001  0.0024  0.1103  0.0056  0.0000  0.0000  0.0000  0.0000  0.0000 </r>
        <r>  0.0001  0.0024  0.1103  0.0056  0.0000  0.0000  0.0000  0.0000  0.0000 </r>
       </set>
       <set comment="band 14">
        <r>  0.0002  0.0000  0.0017  0.0270  0.0000  0.0000  0.0000  0.0000  0.0000 </r>
        <r>  0.0002  0.0000  0.0017  0.0270  0.0000  0.0000  0.0000  0.0000  0.0000 </r>
       </set>
       <set comment="band 15">
        <r>  0.0409  0.0086  0.0005  0.0006  0.0000  0.0000  0.0000  0.0000  0.0000 </r>
        <r>  0.0409  0.0086  0.0005  0.0006  0.0000  0.0000  0.0000  0.0000  0.0000 </r>
       </set>
       <set comment="band 16">
        <r>  0.0038  0.0000  0.0463  0.0125  0.0000  0.0000  0.0000  0.0000  0.0000 </r>
        <r>  0.0038  0.0000  0.0463  0.0125  0.0000  0.0000  0.0000  0.0000  0.0000 </r>
       </set>
      </set>
      <set comment="kpoint 112">
       <set comment="band 1">
        <r>  0.2053  0.0010  0.0263  0.0049  0.0000  0.0000  0.0000  0.0000  0.0000 </r>
        <r>  0.2053  0.0010  0.0263  0.0049  0.0000  0.0000  0.0000  0.0000  0.0000 </r>
       </set>
       <set comment="band 2">
        <r>  0.1911  0.0019  0.0371  0.0149  0.0000  0.0000  0.0000  0.0000  0.0000 </r>
        <r>  0.1911  0.0019  0.0371  0.0149  0.0000  0.0000  0.0000  0.0000  0.0000 </r>
       </set>
       <set comment="band 3">
        <r>  0.0054  0.0624  0.0306  0.0653  0.0000  0.0000  0.0000  0.0000  0.0000 </r>
        <r>  0.0054  0.0624  0.0306  0.0653  0.0000  0.0000  0.0000  0.0000  0.0000 </r>
       </set>
       <set comment="band 4">
        <r>  0.0010  0.0838  0.0251  0.0644  0.0000  0.0000  0.0000  0.0000  0.0000 </r>
        <r>  0.0010  0.0838  0.0251  0.0644  0.0000  0.0000  0.0000  0.0000  0.0000 </r>
       </set>
       <set comment="band 5">
        <r>  0.0373  0.0295  0.0288  0.0155  0.0000  0.0000  0.0000  0.0000  0.0000 </r>
        <r>  0.0373  0.0295  0.0288  0.0155  0.0000  0.0000  0.0000  0.0000  0.0000 </r>
       </set>
       <set comment="band 6">
        <r>  0.0286  0.0402  0.0182  0.0206  0.0000  0.0000  0.0000  0.0000  0.0000 </r>
        <r>  0.0286  0.0402  0.0182  0.0206  0.0000  0.0000  0.0000  0.0000  0.0000 </r>
       </set>
       <set comment="band 7">
        <r>  0.0364  0.0452  0.0277  0.0371  0.0000  0.0000  0.0000  0.0000  0.0000 </r>
        <r>  0.0364  0.0452  0.0277  0.0371  0.0000  0.0000  0.0000  0.0000  0.0000 </r>
       </set>
       <set comment="band 8">
        <r>  0.0204  0.0584  0.0336  0.0392  0.0000  0.0000  0.0000  0.0000  0.0000 </r>
        <r>  0.0204  0.0584  0.0336  0.0392  0.0000  0.0000  0.0000  0.0000  0.0000 </r>
       </set>
       <set comment="band 9">
        <r>  0.0057  0.0274  0.0341  0.0578  0.0000  0.0000  0.0000  0.0000  0.0000 </r>
        <r>  0.0057  0.0274  0.0341  0.0578  0.0000  0.0000  0.0000  0.0000  0.0000 </r>
       </set>
       <set comment="band 10">
        <r>  0.0149  0.0226  0.0602  0.0197  0.0000  0.0000  0.0000  0.0000  0.0000 </r>
        <r>  0.0149  0.0226  0.0602  0.0197  0.0000  0.0000  0.0000  0.0000  0.0000 </r>
       </set>
       <set comment="band 11">
        <r>  0.0169  0.0116  0.0315  0.0615  0.0000  0.0000  0.0000  0.0000  0.0000 </r>
        <r>  0.0169  0.0116  0.0315  0.0615  0.0000  0.0000  0.0000  0.0000  0.0000 </r>
       </set>
       <set comment="band 12">
        <r>  0.0016  0.0138  0.0812  0.0391  0.0000  0.0000  0.0000  0.0000  0.0000 </r>
        <r>  0.0016  0.0138  0.0812  0.0391  0.0000  0.0000  0.0000  0.0000  0.0000 </r>
       </set>
       <set comment="band 13">
        <r>  0.0205  0.0050  0.0272  0.0154  0.0000  0.0000  0.0000  0.0000  0.0000 </r>
        <r>  0.0205  0.0050  0.0272  0.0154  0.0000  0.0000  0.0000  0.0000  0.0000 </r>
       </set>
       <set comment="band 14">
        <r>  0.0139  0.0229  0.0511  0.0012  0.0000  0.0000  0.0000  0.0000  0.0000 </r>
        <r>  0.0139  0.0229  0.0511  0.0012  0.0000  0.0000  0.0000  0.0000  0.0000 </r>
       </set>
       <set comment="band 15">
        <r>  0.0211  0.0039  0.0091  0.0078  0.0000  0.0000  0.0000  0.0000  0.0000 </r>
        <r>  0.0211  0.0039  0.0091  0.0078  0.0000  0.0000  0.0000  0.0000  0.0000 </r>
       </set>
       <set comment="band 16">
        <r>  0.0183  0.0037  0.0429  0.0173  0.0000  0.0000  0.0000  0.0000  0.0000 </r>
        <r>  0.0183  0.0037  0.0429  0.0173  0.0000  0.0000  0.0000  0.0000  0.0000 </r>
       </set>
      </set>
      <set comment="kpoint 113">
       <set comment="band 1">
        <r>  0.2109  0.0012  0.0202  0.0107  0.0000  0.0000  0.0000  0.0000  0.0000 </r>
        <r>  0.2109  0.0012  0.0202  0.0107  0.0000  0.0000  0.0000  0.0000  0.0000 </r>
       </set>
       <set comment="band 2">
        <r>  0.1884  0.0030  0.0342  0.0154  0.0000  0.0000  0.0000  0.0000  0.0000 </r>
        <r>  0.1884  0.0030  0.0342  0.0154  0.0000  0.0000  0.0000  0.0000  0.0000 </r>
       </set>
       <set comment="band 3">
        <r>  0.0027  0.0586  0.0467  0.0488  0.0000  0.0000  0.0000  0.0000  0.0000 </r>
        <r>  0.0027  0.0586  0.0467  0.0488  0.0000  0.0000  0.0000  0.0000  0.0000 </r>
       </set>
       <set comment="band 4">
        <r>  0.0023  0.0823  0.0209  0.0702  0.0000  0.0000  0.0000  0.0000  0.0000 </r>
        <r>  0.0023  0.0823  0.0209  0.0702  0.0000  0.0000  0.0000  0.0000  0.0000 </r>
       </set>
       <set comment="band 5">
        <r>  0.0375  0.0330  0.0282  0.0121  0.0000  0.0000  0.0000  0.0000  0.0000 </r>
        <r>  0.0375  0.0330  0.0282  0.0121  0.0000  0.0000  0.0000  0.0000  0.0000 </r>
       </set>
       <set comment="band 6">
        <r>  0.0124  0.0640  0.0070  0.0151  0.0000  0.0000  0.0000  0.0000  0.0000 </r>
        <r>  0.0124  0.0640  0.0070  0.0151  0.0000  0.0000  0.0000  0.0000  0.0000 </r>
       </set>
       <set comment="band 7">
        <r>  0.0435  0.0257  0.0384  0.0465  0.0000  0.0000  0.0000  0.0000  0.0000 </r>
        <r>  0.0435  0.0257  0.0384  0.0465  0.0000  0.0000  0.0000  0.0000  0.0000 </r>
       </set>
       <set comment="band 8">
        <r>  0.0295  0.0426  0.0366  0.0317  0.0000  0.0000  0.0000  0.0000  0.0000 </r>
        <r>  0.0295  0.0426  0.0366  0.0317  0.0000  0.0000  0.0000  0.0000  0.0000 </r>
       </set>
       <set comment="band 9">
        <r>  0.0101  0.0339  0.0525  0.0441  0.0000  0.0000  0.0000  0.0000  0.0000 </r>
        <r>  0.0101  0.0339  0.0525  0.0441  0.0000  0.0000  0.0000  0.0000  0.0000 </r>
       </set>
       <set comment="band 10">
        <r>  0.0119  0.0218  0.0155  0.0663  0.0000  0.0000  0.0000  0.0000  0.0000 </r>
        <r>  0.0119  0.0218  0.0155  0.0663  0.0000  0.0000  0.0000  0.0000  0.0000 </r>
       </set>
       <set comment="band 11">
        <r>  0.0164  0.0135  0.0849  0.0162  0.0000  0.0000  0.0000  0.0000  0.0000 </r>
        <r>  0.0164  0.0135  0.0849  0.0162  0.0000  0.0000  0.0000  0.0000  0.0000 </r>
       </set>
       <set comment="band 12">
        <r>  0.0005  0.0104  0.0492  0.0585  0.0000  0.0000  0.0000  0.0000  0.0000 </r>
        <r>  0.0005  0.0104  0.0492  0.0585  0.0000  0.0000  0.0000  0.0000  0.0000 </r>
       </set>
       <set comment="band 13">
        <r>  0.0221  0.0022  0.0084  0.0144  0.0000  0.0000  0.0000  0.0000  0.0000 </r>
        <r>  0.0221  0.0022  0.0084  0.0144  0.0000  0.0000  0.0000  0.0000  0.0000 </r>
       </set>
       <set comment="band 14">
        <r>  0.0015  0.0262  0.0570  0.0168  0.0000  0.0000  0.0000  0.0000  0.0000 </r>
        <r>  0.0015  0.0262  0.0570  0.0168  0.0000  0.0000  0.0000  0.0000  0.0000 </r>
       </set>
       <set comment="band 15">
        <r>  0.0230  0.0052  0.0151  0.0096  0.0000  0.0000  0.0000  0.0000  0.0000 </r>
        <r>  0.0230  0.0052  0.0151  0.0096  0.0000  0.0000  0.0000  0.0000  0.0000 </r>
       </set>
       <set comment="band 16">
        <r>  0.0022  0.0160  0.0595  0.0033  0.0000  0.0000  0.0000  0.0000  0.0000 </r>
        <r>  0.0021  0.0160  0.0595  0.0033  0.0000  0.0000  0.0000  0.0000  0.0000 </r>
       </set>
      </set>
      <set comment="kpoint 114">
       <set comment="band 1">
        <r>  0.2113  0.0027  0.0113  0.0155  0.0000  0.0000  0.0000  0.0000  0.0000 </r>
        <r>  0.2113  0.0027  0.0113  0.0155  0.0000  0.0000  0.0000  0.0000  0.0000 </r>
       </set>
       <set comment="band 2">
        <r>  0.1852  0.0039  0.0345  0.0180  0.0000  0.0000  0.0000  0.0000  0.0000 </r>
        <r>  0.1852  0.0039  0.0345  0.0180  0.0000  0.0000  0.0000  0.0000  0.0000 </r>
       </set>
       <set comment="band 3">
        <r>  0.0032  0.0548  0.0596  0.0381  0.0000  0.0000  0.0000  0.0000  0.0000 </r>
        <r>  0.0032  0.0548  0.0596  0.0381  0.0000  0.0000  0.0000  0.0000  0.0000 </r>
       </set>
       <set comment="band 4">
        <r>  0.0031  0.0841  0.0204  0.0713  0.0000  0.0000  0.0000  0.0000  0.0000 </r>
        <r>  0.0031  0.0841  0.0204  0.0713  0.0000  0.0000  0.0000  0.0000  0.0000 </r>
       </set>
       <set comment="band 5">
        <r>  0.0371  0.0366  0.0298  0.0101  0.0000  0.0000  0.0000  0.0000  0.0000 </r>
        <r>  0.0371  0.0366  0.0298  0.0101  0.0000  0.0000  0.0000  0.0000  0.0000 </r>
       </set>
       <set comment="band 6">
        <r>  0.0119  0.0657  0.0200  0.0161  0.0000  0.0000  0.0000  0.0000  0.0000 </r>
        <r>  0.0119  0.0657  0.0200  0.0161  0.0000  0.0000  0.0000  0.0000  0.0000 </r>
       </set>
       <set comment="band 7">
        <r>  0.0414  0.0383  0.0281  0.0226  0.0000  0.0000  0.0000  0.0000  0.0000 </r>
        <r>  0.0414  0.0383  0.0281  0.0226  0.0000  0.0000  0.0000  0.0000  0.0000 </r>
       </set>
       <set comment="band 8">
        <r>  0.0318  0.0188  0.0314  0.0612  0.0000  0.0000  0.0000  0.0000  0.0000 </r>
        <r>  0.0318  0.0188  0.0314  0.0612  0.0000  0.0000  0.0000  0.0000  0.0000 </r>
       </set>
       <set comment="band 9">
        <r>  0.0087  0.0414  0.0753  0.0261  0.0000  0.0000  0.0000  0.0000  0.0000 </r>
        <r>  0.0087  0.0414  0.0753  0.0261  0.0000  0.0000  0.0000  0.0000  0.0000 </r>
       </set>
       <set comment="band 10">
        <r>  0.0246  0.0127  0.0048  0.0696  0.0000  0.0000  0.0000  0.0000  0.0000 </r>
        <r>  0.0246  0.0127  0.0048  0.0696  0.0000  0.0000  0.0000  0.0000  0.0000 </r>
       </set>
       <set comment="band 11">
        <r>  0.0065  0.0246  0.0977  0.0027  0.0000  0.0000  0.0000  0.0000  0.0000 </r>
        <r>  0.0065  0.0246  0.0977  0.0027  0.0000  0.0000  0.0000  0.0000  0.0000 </r>
       </set>
       <set comment="band 12">
        <r>  0.0108  0.0053  0.0130  0.0117  0.0000  0.0000  0.0000  0.0000  0.0000 </r>
        <r>  0.0108  0.0053  0.0130  0.0117  0.0000  0.0000  0.0000  0.0000  0.0000 </r>
       </set>
       <set comment="band 13">
        <r>  0.0000  0.0009  0.0254  0.0831  0.0000  0.0000  0.0000  0.0000  0.0000 </r>
        <r>  0.0000  0.0009  0.0254  0.0831  0.0000  0.0000  0.0000  0.0000  0.0000 </r>
       </set>
       <set comment="band 14">
        <r>  0.0387  0.0072  0.0001  0.0086  0.0000  0.0000  0.0000  0.0000  0.0000 </r>
        <r>  0.0387  0.0072  0.0001  0.0086  0.0000  0.0000  0.0000  0.0000  0.0000 </r>
       </set>
       <set comment="band 15">
        <r>  0.0051  0.0432  0.0278  0.0653  0.0000  0.0000  0.0000  0.0000  0.0000 </r>
        <r>  0.0051  0.0432  0.0278  0.0653  0.0000  0.0000  0.0000  0.0000  0.0000 </r>
       </set>
       <set comment="band 16">
        <r>  0.0172  0.0000  0.0382  0.0001  0.0000  0.0000  0.0000  0.0000  0.0000 </r>
        <r>  0.0172  0.0000  0.0382  0.0001  0.0000  0.0000  0.0000  0.0000  0.0000 </r>
       </set>
      </set>
      <set comment="kpoint 115">
       <set comment="band 1">
        <r>  0.2006  0.0003  0.0333  0.0039  0.0000  0.0000  0.0000  0.0000  0.0000 </r>
        <r>  0.2006  0.0003  0.0333  0.0039  0.0000  0.0000  0.0000  0.0000  0.0000 </r>
       </set>
       <set comment="band 2">
        <r>  0.1962  0.0000  0.0405  0.0072  0.0000  0.0000  0.0000  0.0000  0.0000 </r>
        <r>  0.1962  0.0000  0.0405  0.0072  0.0000  0.0000  0.0000  0.0000  0.0000 </r>
       </set>
       <set comment="band 3">
        <r>  0.0042  0.0729  0.0171  0.0770  0.0000  0.0000  0.0000  0.0000  0.0000 </r>
        <r>  0.0042  0.0729  0.0171  0.0770  0.0000  0.0000  0.0000  0.0000  0.0000 </r>
       </set>
       <set comment="band 4">
        <r>  0.0010  0.0815  0.0203  0.0695  0.0000  0.0000  0.0000  0.0000  0.0000 </r>
        <r>  0.0010  0.0815  0.0203  0.0695  0.0000  0.0000  0.0000  0.0000  0.0000 </r>
       </set>
       <set comment="band 5">
        <r>  0.0383  0.0271  0.0280  0.0177  0.0000  0.0000  0.0000  0.0000  0.0000 </r>
        <r>  0.0383  0.0271  0.0280  0.0177  0.0000  0.0000  0.0000  0.0000  0.0000 </r>
       </set>
       <set comment="band 6">
        <r>  0.0385  0.0266  0.0235  0.0145  0.0000  0.0000  0.0000  0.0000  0.0000 </r>
        <r>  0.0385  0.0266  0.0235  0.0145  0.0000  0.0000  0.0000  0.0000  0.0000 </r>
       </set>
       <set comment="band 7">
        <r>  0.0256  0.0577  0.0271  0.0347  0.0000  0.0000  0.0000  0.0000  0.0000 </r>
        <r>  0.0256  0.0577  0.0271  0.0347  0.0000  0.0000  0.0000  0.0000  0.0000 </r>
       </set>
       <set comment="band 8">
        <r>  0.0190  0.0632  0.0300  0.0389  0.0000  0.0000  0.0000  0.0000  0.0000 </r>
        <r>  0.0190  0.0632  0.0300  0.0389  0.0000  0.0000  0.0000  0.0000  0.0000 </r>
       </set>
       <set comment="band 9">
        <r>  0.0000  0.0300  0.0204  0.0715  0.0000  0.0000  0.0000  0.0000  0.0000 </r>
        <r>  0.0000  0.0300  0.0204  0.0715  0.0000  0.0000  0.0000  0.0000  0.0000 </r>
       </set>
       <set comment="band 10">
        <r>  0.0050  0.0314  0.0417  0.0489  0.0000  0.0000  0.0000  0.0000  0.0000 </r>
        <r>  0.0050  0.0314  0.0417  0.0489  0.0000  0.0000  0.0000  0.0000  0.0000 </r>
       </set>
       <set comment="band 11">
        <r>  0.0258  0.0028  0.0474  0.0375  0.0000  0.0000  0.0000  0.0000  0.0000 </r>
        <r>  0.0258  0.0028  0.0474  0.0375  0.0000  0.0000  0.0000  0.0000  0.0000 </r>
       </set>
       <set comment="band 12">
        <r>  0.0171  0.0002  0.0955  0.0105  0.0000  0.0000  0.0000  0.0000  0.0000 </r>
        <r>  0.0171  0.0002  0.0955  0.0105  0.0000  0.0000  0.0000  0.0000  0.0000 </r>
       </set>
       <set comment="band 13">
        <r>  0.0198  0.0284  0.0775  0.0124  0.0000  0.0000  0.0000  0.0000  0.0000 </r>
        <r>  0.0198  0.0284  0.0775  0.0124  0.0000  0.0000  0.0000  0.0000  0.0000 </r>
       </set>
       <set comment="band 14">
        <r>  0.0015  0.0222  0.0704  0.0115  0.0000  0.0000  0.0000  0.0000  0.0000 </r>
        <r>  0.0015  0.0222  0.0704  0.0115  0.0000  0.0000  0.0000  0.0000  0.0000 </r>
       </set>
       <set comment="band 15">
        <r>  0.0003  0.0009  0.0036  0.0153  0.0000  0.0000  0.0000  0.0000  0.0000 </r>
        <r>  0.0003  0.0009  0.0036  0.0153  0.0000  0.0000  0.0000  0.0000  0.0000 </r>
       </set>
       <set comment="band 16">
        <r>  0.0338  0.0000  0.0046  0.0001  0.0000  0.0000  0.0000  0.0000  0.0000 </r>
        <r>  0.0338  0.0000  0.0046  0.0001  0.0000  0.0000  0.0000  0.0000  0.0000 </r>
       </set>
      </set>
      <set comment="kpoint 116">
       <set comment="band 1">
        <r>  0.2061  0.0002  0.0290  0.0087  0.0000  0.0000  0.0000  0.0000  0.0000 </r>
        <r>  0.2061  0.0002  0.0290  0.0087  0.0000  0.0000  0.0000  0.0000  0.0000 </r>
       </set>
       <set comment="band 2">
        <r>  0.1955  0.0007  0.0365  0.0087  0.0000  0.0000  0.0000  0.0000  0.0000 </r>
        <r>  0.1955  0.0007  0.0365  0.0087  0.0000  0.0000  0.0000  0.0000  0.0000 </r>
       </set>
       <set comment="band 3">
        <r>  0.0006  0.0676  0.0324  0.0596  0.0000  0.0000  0.0000  0.0000  0.0000 </r>
        <r>  0.0006  0.0676  0.0324  0.0596  0.0000  0.0000  0.0000  0.0000  0.0000 </r>
       </set>
       <set comment="band 4">
        <r>  0.0025  0.0788  0.0187  0.0729  0.0000  0.0000  0.0000  0.0000  0.0000 </r>
        <r>  0.0025  0.0788  0.0187  0.0729  0.0000  0.0000  0.0000  0.0000  0.0000 </r>
       </set>
       <set comment="band 5">
        <r>  0.0381  0.0301  0.0264  0.0139  0.0000  0.0000  0.0000  0.0000  0.0000 </r>
        <r>  0.0381  0.0301  0.0264  0.0139  0.0000  0.0000  0.0000  0.0000  0.0000 </r>
       </set>
       <set comment="band 6">
        <r>  0.0294  0.0402  0.0189  0.0226  0.0000  0.0000  0.0000  0.0000  0.0000 </r>
        <r>  0.0294  0.0402  0.0189  0.0226  0.0000  0.0000  0.0000  0.0000  0.0000 </r>
       </set>
       <set comment="band 7">
        <r>  0.0256  0.0476  0.0346  0.0368  0.0000  0.0000  0.0000  0.0000  0.0000 </r>
        <r>  0.0256  0.0476  0.0346  0.0368  0.0000  0.0000  0.0000  0.0000  0.0000 </r>
       </set>
       <set comment="band 8">
        <r>  0.0294  0.0517  0.0300  0.0284  0.0000  0.0000  0.0000  0.0000  0.0000 </r>
        <r>  0.0294  0.0517  0.0300  0.0284  0.0000  0.0000  0.0000  0.0000  0.0000 </r>
       </set>
       <set comment="band 9">
        <r>  0.0042  0.0347  0.0518  0.0477  0.0000  0.0000  0.0000  0.0000  0.0000 </r>
        <r>  0.0042  0.0347  0.0518  0.0477  0.0000  0.0000  0.0000  0.0000  0.0000 </r>
       </set>
       <set comment="band 10">
        <r>  0.0045  0.0291  0.0019  0.0833  0.0000  0.0000  0.0000  0.0000  0.0000 </r>
        <r>  0.0045  0.0291  0.0019  0.0833  0.0000  0.0000  0.0000  0.0000  0.0000 </r>
       </set>
       <set comment="band 11">
        <r>  0.0219  0.0065  0.1032  0.0012  0.0000  0.0000  0.0000  0.0000  0.0000 </r>
        <r>  0.0219  0.0065  0.1032  0.0012  0.0000  0.0000  0.0000  0.0000  0.0000 </r>
       </set>
       <set comment="band 12">
        <r>  0.0190  0.0027  0.0476  0.0502  0.0000  0.0000  0.0000  0.0000  0.0000 </r>
        <r>  0.0190  0.0027  0.0476  0.0502  0.0000  0.0000  0.0000  0.0000  0.0000 </r>
       </set>
       <set comment="band 13">
        <r>  0.0000  0.0161  0.0402  0.0247  0.0000  0.0000  0.0000  0.0000  0.0000 </r>
        <r>  0.0000  0.0161  0.0402  0.0247  0.0000  0.0000  0.0000  0.0000  0.0000 </r>
       </set>
       <set comment="band 14">
        <r>  0.0114  0.0159  0.0460  0.0193  0.0000  0.0000  0.0000  0.0000  0.0000 </r>
        <r>  0.0114  0.0159  0.0460  0.0193  0.0000  0.0000  0.0000  0.0000  0.0000 </r>
       </set>
       <set comment="band 15">
        <r>  0.0146  0.0092  0.0365  0.0004  0.0000  0.0000  0.0000  0.0000  0.0000 </r>
        <r>  0.0146  0.0092  0.0365  0.0004  0.0000  0.0000  0.0000  0.0000  0.0000 </r>
       </set>
       <set comment="band 16">
        <r>  0.0000  0.0214  0.0363  0.0032  0.0000  0.0000  0.0000  0.0000  0.0000 </r>
        <r>  0.0000  0.0214  0.0363  0.0032  0.0000  0.0000  0.0000  0.0000  0.0000 </r>
       </set>
      </set>
      <set comment="kpoint 117">
       <set comment="band 1">
        <r>  0.2072  0.0020  0.0215  0.0055  0.0000  0.0000  0.0000  0.0000  0.0000 </r>
        <r>  0.2072  0.0020  0.0215  0.0055  0.0000  0.0000  0.0000  0.0000  0.0000 </r>
       </set>
       <set comment="band 2">
        <r>  0.1870  0.0030  0.0310  0.0245  0.0000  0.0000  0.0000  0.0000  0.0000 </r>
        <r>  0.1870  0.0030  0.0310  0.0245  0.0000  0.0000  0.0000  0.0000  0.0000 </r>
       </set>
       <set comment="band 3">
        <r>  0.0067  0.0573  0.0268  0.0712  0.0000  0.0000  0.0000  0.0000  0.0000 </r>
        <r>  0.0067  0.0573  0.0268  0.0712  0.0000  0.0000  0.0000  0.0000  0.0000 </r>
       </set>
       <set comment="band 4">
        <r>  0.0016  0.0835  0.0502  0.0384  0.0000  0.0000  0.0000  0.0000  0.0000 </r>
        <r>  0.0016  0.0835  0.0502  0.0384  0.0000  0.0000  0.0000  0.0000  0.0000 </r>
       </set>
       <set comment="band 5">
        <r>  0.0272  0.0410  0.0292  0.0267  0.0000  0.0000  0.0000  0.0000  0.0000 </r>
        <r>  0.0272  0.0410  0.0292  0.0267  0.0000  0.0000  0.0000  0.0000  0.0000 </r>
       </set>
       <set comment="band 6">
        <r>  0.0090  0.0652  0.0051  0.0025  0.0000  0.0000  0.0000  0.0000  0.0000 </r>
        <r>  0.0090  0.0652  0.0051  0.0025  0.0000  0.0000  0.0000  0.0000  0.0000 </r>
       </set>
       <set comment="band 7">
        <r>  0.0665  0.0129  0.0339  0.0515  0.0000  0.0000  0.0000  0.0000  0.0000 </r>
        <r>  0.0665  0.0129  0.0339  0.0515  0.0000  0.0000  0.0000  0.0000  0.0000 </r>
       </set>
       <set comment="band 8">
        <r>  0.0195  0.0444  0.0451  0.0285  0.0000  0.0000  0.0000  0.0000  0.0000 </r>
        <r>  0.0195  0.0444  0.0451  0.0285  0.0000  0.0000  0.0000  0.0000  0.0000 </r>
       </set>
       <set comment="band 9">
        <r>  0.0033  0.0411  0.0229  0.0773  0.0000  0.0000  0.0000  0.0000  0.0000 </r>
        <r>  0.0033  0.0411  0.0229  0.0773  0.0000  0.0000  0.0000  0.0000  0.0000 </r>
       </set>
       <set comment="band 10">
        <r>  0.0303  0.0106  0.0726  0.0017  0.0000  0.0000  0.0000  0.0000  0.0000 </r>
        <r>  0.0303  0.0106  0.0726  0.0017  0.0000  0.0000  0.0000  0.0000  0.0000 </r>
       </set>
       <set comment="band 11">
        <r>  0.0056  0.0259  0.0005  0.0825  0.0000  0.0000  0.0000  0.0000  0.0000 </r>
        <r>  0.0056  0.0259  0.0005  0.0825  0.0000  0.0000  0.0000  0.0000  0.0000 </r>
       </set>
       <set comment="band 12">
        <r>  0.0000  0.0014  0.0938  0.0148  0.0000  0.0000  0.0000  0.0000  0.0000 </r>
        <r>  0.0000  0.0014  0.0938  0.0148  0.0000  0.0000  0.0000  0.0000  0.0000 </r>
       </set>
       <set comment="band 13">
        <r>  0.0120  0.0101  0.0149  0.0334  0.0000  0.0000  0.0000  0.0000  0.0000 </r>
        <r>  0.0120  0.0101  0.0149  0.0334  0.0000  0.0000  0.0000  0.0000  0.0000 </r>
       </set>
       <set comment="band 14">
        <r>  0.0161  0.0282  0.0549  0.0025  0.0000  0.0000  0.0000  0.0000  0.0000 </r>
        <r>  0.0161  0.0282  0.0549  0.0025  0.0000  0.0000  0.0000  0.0000  0.0000 </r>
       </set>
       <set comment="band 15">
        <r>  0.0483  0.0000  0.0098  0.0002  0.0000  0.0000  0.0000  0.0000  0.0000 </r>
        <r>  0.0483  0.0000  0.0098  0.0002  0.0000  0.0000  0.0000  0.0000  0.0000 </r>
       </set>
       <set comment="band 16">
        <r>  0.0005  0.0023  0.0266  0.0192  0.0000  0.0000  0.0000  0.0000  0.0000 </r>
        <r>  0.0005  0.0023  0.0266  0.0192  0.0000  0.0000  0.0000  0.0000  0.0000 </r>
       </set>
      </set>
      <set comment="kpoint 118">
       <set comment="band 1">
        <r>  0.2101  0.0012  0.0192  0.0110  0.0000  0.0000  0.0000  0.0000  0.0000 </r>
        <r>  0.2101  0.0012  0.0192  0.0110  0.0000  0.0000  0.0000  0.0000  0.0000 </r>
       </set>
       <set comment="band 2">
        <r>  0.1893  0.0028  0.0252  0.0256  0.0000  0.0000  0.0000  0.0000  0.0000 </r>
        <r>  0.1893  0.0028  0.0252  0.0256  0.0000  0.0000  0.0000  0.0000  0.0000 </r>
       </set>
       <set comment="band 3">
        <r>  0.0051  0.0576  0.0390  0.0574  0.0000  0.0000  0.0000  0.0000  0.0000 </r>
        <r>  0.0051  0.0576  0.0390  0.0574  0.0000  0.0000  0.0000  0.0000  0.0000 </r>
       </set>
       <set comment="band 4">
        <r>  0.0010  0.0800  0.0483  0.0407  0.0000  0.0000  0.0000  0.0000  0.0000 </r>
        <r>  0.0010  0.0800  0.0483  0.0407  0.0000  0.0000  0.0000  0.0000  0.0000 </r>
       </set>
       <set comment="band 5">
        <r>  0.0127  0.0625  0.0133  0.0105  0.0000  0.0000  0.0000  0.0000  0.0000 </r>
        <r>  0.0127  0.0625  0.0133  0.0105  0.0000  0.0000  0.0000  0.0000  0.0000 </r>
       </set>
       <set comment="band 6">
        <r>  0.0384  0.0413  0.0226  0.0280  0.0000  0.0000  0.0000  0.0000  0.0000 </r>
        <r>  0.0384  0.0413  0.0226  0.0280  0.0000  0.0000  0.0000  0.0000  0.0000 </r>
       </set>
       <set comment="band 7">
        <r>  0.0413  0.0302  0.0263  0.0373  0.0000  0.0000  0.0000  0.0000  0.0000 </r>
        <r>  0.0413  0.0302  0.0263  0.0373  0.0000  0.0000  0.0000  0.0000  0.0000 </r>
       </set>
       <set comment="band 8">
        <r>  0.0305  0.0316  0.0471  0.0312  0.0000  0.0000  0.0000  0.0000  0.0000 </r>
        <r>  0.0305  0.0316  0.0471  0.0312  0.0000  0.0000  0.0000  0.0000  0.0000 </r>
       </set>
       <set comment="band 9">
        <r>  0.0078  0.0378  0.0370  0.0609  0.0000  0.0000  0.0000  0.0000  0.0000 </r>
        <r>  0.0078  0.0378  0.0370  0.0609  0.0000  0.0000  0.0000  0.0000  0.0000 </r>
       </set>
       <set comment="band 10">
        <r>  0.0140  0.0223  0.0669  0.0138  0.0000  0.0000  0.0000  0.0000  0.0000 </r>
        <r>  0.0140  0.0223  0.0669  0.0138  0.0000  0.0000  0.0000  0.0000  0.0000 </r>
       </set>
       <set comment="band 11">
        <r>  0.0160  0.0125  0.0222  0.0770  0.0000  0.0000  0.0000  0.0000  0.0000 </r>
        <r>  0.0160  0.0125  0.0222  0.0770  0.0000  0.0000  0.0000  0.0000  0.0000 </r>
       </set>
       <set comment="band 12">
        <r>  0.0002  0.0097  0.0587  0.0442  0.0000  0.0000  0.0000  0.0000  0.0000 </r>
        <r>  0.0002  0.0097  0.0587  0.0442  0.0000  0.0000  0.0000  0.0000  0.0000 </r>
       </set>
       <set comment="band 13">
        <r>  0.0201  0.0001  0.0247  0.0099  0.0000  0.0000  0.0000  0.0000  0.0000 </r>
        <r>  0.0201  0.0001  0.0247  0.0099  0.0000  0.0000  0.0000  0.0000  0.0000 </r>
       </set>
       <set comment="band 14">
        <r>  0.0224  0.0124  0.0218  0.0171  0.0000  0.0000  0.0000  0.0000  0.0000 </r>
        <r>  0.0224  0.0124  0.0218  0.0171  0.0000  0.0000  0.0000  0.0000  0.0000 </r>
       </set>
       <set comment="band 15">
        <r>  0.0071  0.0279  0.0496  0.0079  0.0000  0.0000  0.0000  0.0000  0.0000 </r>
        <r>  0.0071  0.0279  0.0496  0.0079  0.0000  0.0000  0.0000  0.0000  0.0000 </r>
       </set>
       <set comment="band 16">
        <r>  0.0192  0.0010  0.0019  0.0256  0.0000  0.0000  0.0000  0.0000  0.0000 </r>
        <r>  0.0191  0.0010  0.0019  0.0256  0.0000  0.0000  0.0000  0.0000  0.0000 </r>
       </set>
      </set>
      <set comment="kpoint 119">
       <set comment="band 1">
        <r>  0.2053  0.0004  0.0264  0.0098  0.0000  0.0000  0.0000  0.0000  0.0000 </r>
        <r>  0.2053  0.0004  0.0264  0.0098  0.0000  0.0000  0.0000  0.0000  0.0000 </r>
       </set>
       <set comment="band 2">
        <r>  0.1993  0.0002  0.0297  0.0165  0.0000  0.0000  0.0000  0.0000  0.0000 </r>
        <r>  0.1993  0.0002  0.0297  0.0165  0.0000  0.0000  0.0000  0.0000  0.0000 </r>
       </set>
       <set comment="band 3">
        <r>  0.0023  0.0659  0.0300  0.0629  0.0000  0.0000  0.0000  0.0000  0.0000 </r>
        <r>  0.0023  0.0659  0.0300  0.0629  0.0000  0.0000  0.0000  0.0000  0.0000 </r>
       </set>
       <set comment="band 4">
        <r>  0.0000  0.0748  0.0375  0.0519  0.0000  0.0000  0.0000  0.0000  0.0000 </r>
        <r>  0.0000  0.0748  0.0375  0.0519  0.0000  0.0000  0.0000  0.0000  0.0000 </r>
       </set>
       <set comment="band 5">
        <r>  0.0279  0.0444  0.0216  0.0214  0.0000  0.0000  0.0000  0.0000  0.0000 </r>
        <r>  0.0279  0.0444  0.0216  0.0214  0.0000  0.0000  0.0000  0.0000  0.0000 </r>
       </set>
       <set comment="band 6">
        <r>  0.0252  0.0490  0.0153  0.0150  0.0000  0.0000  0.0000  0.0000  0.0000 </r>
        <r>  0.0252  0.0490  0.0153  0.0150  0.0000  0.0000  0.0000  0.0000  0.0000 </r>
       </set>
       <set comment="band 7">
        <r>  0.0408  0.0350  0.0334  0.0364  0.0000  0.0000  0.0000  0.0000  0.0000 </r>
        <r>  0.0408  0.0350  0.0334  0.0364  0.0000  0.0000  0.0000  0.0000  0.0000 </r>
       </set>
       <set comment="band 8">
        <r>  0.0290  0.0415  0.0385  0.0305  0.0000  0.0000  0.0000  0.0000  0.0000 </r>
        <r>  0.0290  0.0415  0.0385  0.0305  0.0000  0.0000  0.0000  0.0000  0.0000 </r>
       </set>
       <set comment="band 9">
        <r>  0.0005  0.0389  0.0274  0.0716  0.0000  0.0000  0.0000  0.0000  0.0000 </r>
        <r>  0.0005  0.0389  0.0274  0.0716  0.0000  0.0000  0.0000  0.0000  0.0000 </r>
       </set>
       <set comment="band 10">
        <r>  0.0055  0.0329  0.0626  0.0273  0.0000  0.0000  0.0000  0.0000  0.0000 </r>
        <r>  0.0055  0.0329  0.0626  0.0273  0.0000  0.0000  0.0000  0.0000  0.0000 </r>
       </set>
       <set comment="band 11">
        <r>  0.0247  0.0041  0.0291  0.0675  0.0000  0.0000  0.0000  0.0000  0.0000 </r>
        <r>  0.0247  0.0041  0.0291  0.0675  0.0000  0.0000  0.0000  0.0000  0.0000 </r>
       </set>
       <set comment="band 12">
        <r>  0.0177  0.0006  0.0869  0.0229  0.0000  0.0000  0.0000  0.0000  0.0000 </r>
        <r>  0.0177  0.0006  0.0869  0.0229  0.0000  0.0000  0.0000  0.0000  0.0000 </r>
       </set>
       <set comment="band 13">
        <r>  0.0031  0.0049  0.0129  0.0234  0.0000  0.0000  0.0000  0.0000  0.0000 </r>
        <r>  0.0031  0.0049  0.0129  0.0234  0.0000  0.0000  0.0000  0.0000  0.0000 </r>
       </set>
       <set comment="band 14">
        <r>  0.0104  0.0031  0.0143  0.0080  0.0000  0.0000  0.0000  0.0000  0.0000 </r>
        <r>  0.0104  0.0031  0.0143  0.0080  0.0000  0.0000  0.0000  0.0000  0.0000 </r>
       </set>
       <set comment="band 15">
        <r>  0.0080  0.0320  0.0644  0.0047  0.0000  0.0000  0.0000  0.0000  0.0000 </r>
        <r>  0.0080  0.0320  0.0644  0.0047  0.0000  0.0000  0.0000  0.0000  0.0000 </r>
       </set>
       <set comment="band 16">
        <r>  0.0312  0.0002  0.0008  0.0261  0.0000  0.0000  0.0000  0.0000  0.0000 </r>
        <r>  0.0312  0.0002  0.0008  0.0261  0.0000  0.0000  0.0000  0.0000  0.0000 </r>
       </set>
      </set>
      <set comment="kpoint 120">
       <set comment="band 1">
        <r>  0.2080  0.0003  0.0188  0.0174  0.0000  0.0000  0.0000  0.0000  0.0000 </r>
        <r>  0.2080  0.0003  0.0188  0.0174  0.0000  0.0000  0.0000  0.0000  0.0000 </r>
       </set>
       <set comment="band 2">
        <r>  0.1988  0.0005  0.0274  0.0180  0.0000  0.0000  0.0000  0.0000  0.0000 </r>
        <r>  0.1988  0.0005  0.0274  0.0180  0.0000  0.0000  0.0000  0.0000  0.0000 </r>
       </set>
       <set comment="band 3">
        <r>  0.0002  0.0643  0.0479  0.0446  0.0000  0.0000  0.0000  0.0000  0.0000 </r>
        <r>  0.0002  0.0643  0.0479  0.0446  0.0000  0.0000  0.0000  0.0000  0.0000 </r>
       </set>
       <set comment="band 4">
        <r>  0.0009  0.0738  0.0343  0.0557  0.0000  0.0000  0.0000  0.0000  0.0000 </r>
        <r>  0.0009  0.0738  0.0343  0.0557  0.0000  0.0000  0.0000  0.0000  0.0000 </r>
       </set>
       <set comment="band 5">
        <r>  0.0223  0.0551  0.0166  0.0135  0.0000  0.0000  0.0000  0.0000  0.0000 </r>
        <r>  0.0223  0.0551  0.0166  0.0135  0.0000  0.0000  0.0000  0.0000  0.0000 </r>
       </set>
       <set comment="band 6">
        <r>  0.0009  0.0850  0.0001  0.0013  0.0000  0.0000  0.0000  0.0000  0.0000 </r>
        <r>  0.0009  0.0850  0.0001  0.0013  0.0000  0.0000  0.0000  0.0000  0.0000 </r>
       </set>
       <set comment="band 7">
        <r>  0.0447  0.0282  0.0374  0.0321  0.0000  0.0000  0.0000  0.0000  0.0000 </r>
        <r>  0.0447  0.0282  0.0374  0.0321  0.0000  0.0000  0.0000  0.0000  0.0000 </r>
       </set>
       <set comment="band 8">
        <r>  0.0553  0.0016  0.0529  0.0582  0.0000  0.0000  0.0000  0.0000  0.0000 </r>
        <r>  0.0553  0.0016  0.0529  0.0582  0.0000  0.0000  0.0000  0.0000  0.0000 </r>
       </set>
       <set comment="band 9">
        <r>  0.0019  0.0390  0.0620  0.0382  0.0000  0.0000  0.0000  0.0000  0.0000 </r>
        <r>  0.0019  0.0390  0.0620  0.0382  0.0000  0.0000  0.0000  0.0000  0.0000 </r>
       </set>
       <set comment="band 10">
        <r>  0.0054  0.0320  0.0104  0.0779  0.0000  0.0000  0.0000  0.0000  0.0000 </r>
        <r>  0.0054  0.0320  0.0104  0.0779  0.0000  0.0000  0.0000  0.0000  0.0000 </r>
       </set>
       <set comment="band 11">
        <r>  0.0229  0.0056  0.0921  0.0110  0.0000  0.0000  0.0000  0.0000  0.0000 </r>
        <r>  0.0229  0.0056  0.0921  0.0110  0.0000  0.0000  0.0000  0.0000  0.0000 </r>
       </set>
       <set comment="band 12">
        <r>  0.0189  0.0012  0.0377  0.0706  0.0000  0.0000  0.0000  0.0000  0.0000 </r>
        <r>  0.0189  0.0012  0.0377  0.0706  0.0000  0.0000  0.0000  0.0000  0.0000 </r>
       </set>
       <set comment="band 13">
        <r>  0.0026  0.0039  0.0144  0.0141  0.0000  0.0000  0.0000  0.0000  0.0000 </r>
        <r>  0.0026  0.0039  0.0144  0.0141  0.0000  0.0000  0.0000  0.0000  0.0000 </r>
       </set>
       <set comment="band 14">
        <r>  0.0092  0.0001  0.0031  0.0130  0.0000  0.0000  0.0000  0.0000  0.0000 </r>
        <r>  0.0092  0.0001  0.0031  0.0130  0.0000  0.0000  0.0000  0.0000  0.0000 </r>
       </set>
       <set comment="band 15">
        <r>  0.0177  0.0086  0.0436  0.0003  0.0000  0.0000  0.0000  0.0000  0.0000 </r>
        <r>  0.0177  0.0086  0.0436  0.0003  0.0000  0.0000  0.0000  0.0000  0.0000 </r>
       </set>
       <set comment="band 16">
        <r>  0.0016  0.0405  0.0533  0.0413  0.0000  0.0000  0.0000  0.0000  0.0000 </r>
        <r>  0.0016  0.0405  0.0533  0.0413  0.0000  0.0000  0.0000  0.0000  0.0000 </r>
       </set>
      </set>
     </set>
    </set>
   </array>
  </projected>
 </calculation>
 <structure name="finalpos" >
  <crystal>
   <varray name="basis" >
    <v>       0.00000000       2.73450000       2.73450000 </v>
    <v>       2.73450000       0.00000000       2.73450000 </v>
    <v>       2.73450000       2.73450000       0.00000000 </v>
   </varray>
   <i name="volume">     40.89439418 </i>
   <varray name="rec_basis" >
    <v>      -0.18284878       0.18284878       0.18284878 </v>
    <v>       0.18284878      -0.18284878       0.18284878 </v>
    <v>       0.18284878       0.18284878      -0.18284878 </v>
   </varray>
  </crystal>
  <varray name="positions" >
   <v>       0.87500000       0.87500000       0.87500000 </v>
   <v>       0.12500000       0.12500000       0.12500000 </v>
  </varray>
 </structure>
</modeling>
