   2   2   0   0
  0.2079688E+02  0.3889087E-09  0.3889087E-09  0.3889087E-09  0.5000000E-15
  1.000000000000000E-004
  CAR 
 cd Si                                   
     30.22334859     -7.92969097  301      5.93838817      1.00000000
     -7.930  0.0000E+00  0.0000E+00
     -7.803  0.0000E+00  0.0000E+00
     -7.675  0.0000E+00  0.0000E+00
     -7.548  0.0000E+00  0.0000E+00
     -7.421  0.0000E+00  0.0000E+00
     -7.294  0.0000E+00  0.0000E+00
     -7.167  0.0000E+00  0.0000E+00
     -7.039  0.0000E+00  0.0000E+00
     -6.912  0.0000E+00  0.0000E+00
     -6.785  0.1312E-18  0.1668E-19
     -6.658  0.7260E-13  0.9234E-14
     -6.531  0.2509E-08  0.3191E-09
     -6.404  0.3924E-05  0.4994E-06
     -6.276  0.3819E-03  0.4906E-04
     -6.149  0.6356E-02  0.8574E-03
     -6.022  0.2258E-01  0.3729E-02
     -5.895  0.2980E-01  0.7520E-02
     -5.768  0.5495E-01  0.1451E-01
     -5.641  0.3511E-01  0.1897E-01
     -5.513  0.6109E-01  0.2674E-01
     -5.386  0.7498E-01  0.3628E-01
     -5.259  0.7001E-01  0.4518E-01
     -5.132  0.5206E-01  0.5180E-01
     -5.005  0.8462E-01  0.6256E-01
     -4.877  0.1166E+00  0.7739E-01
     -4.750  0.8791E-01  0.8857E-01
     -4.623  0.8418E-01  0.9928E-01
     -4.496  0.6805E-01  0.1079E+00
     -4.369  0.1512E+00  0.1272E+00
     -4.242  0.1547E+00  0.1468E+00
     -4.114  0.1170E+00  0.1617E+00
     -3.987  0.9999E-01  0.1744E+00
     -3.860  0.1381E+00  0.1920E+00
     -3.733  0.2670E+00  0.2259E+00
     -3.606  0.1515E+00  0.2452E+00
     -3.479  0.1493E+00  0.2642E+00
     -3.351  0.8879E-01  0.2755E+00
     -3.224  0.1833E+00  0.2988E+00
     -3.097  0.1798E+00  0.3217E+00
     -2.970  0.7503E-01  0.3312E+00
     -2.843  0.8138E-01  0.3416E+00
     -2.715  0.1388E+00  0.3592E+00
     -2.588  0.1242E+00  0.3750E+00
     -2.461  0.4986E-01  0.3814E+00
     -2.334  0.4040E-01  0.3865E+00
     -2.207  0.6156E-01  0.3943E+00
     -2.080  0.4881E-01  0.4005E+00
     -1.952  0.2567E-01  0.4038E+00
     -1.825  0.3466E-01  0.4082E+00
     -1.698  0.2677E-01  0.4116E+00
     -1.571  0.4071E-01  0.4168E+00
     -1.444  0.9724E-01  0.4292E+00
     -1.316  0.1744E+00  0.4513E+00
     -1.189  0.1125E+00  0.4656E+00
     -1.062  0.2353E+00  0.4956E+00
     -0.935  0.2764E+00  0.5307E+00
     -0.808  0.1962E+00  0.5557E+00
     -0.681  0.1995E+00  0.5810E+00
     -0.553  0.8784E-01  0.5922E+00
     -0.426  0.1116E+00  0.6064E+00
     -0.299  0.1656E+00  0.6275E+00
     -0.172  0.7643E-01  0.6372E+00
     -0.045  0.8390E-01  0.6479E+00
      0.082  0.1078E+00  0.6616E+00
      0.210  0.4643E-01  0.6675E+00
      0.337  0.9619E-01  0.6797E+00
      0.464  0.9141E-01  0.6913E+00
      0.591  0.4925E-01  0.6976E+00
      0.718  0.4272E-01  0.7030E+00
      0.846  0.9171E-01  0.7147E+00
      0.973  0.5487E-01  0.7217E+00
      1.100  0.4002E-02  0.7222E+00
      1.227  0.1995E-01  0.7247E+00
      1.354  0.1371E+00  0.7422E+00
      1.481  0.1608E+00  0.7626E+00
      1.609  0.2030E+00  0.7884E+00
      1.736  0.1646E+00  0.8094E+00
      1.863  0.2180E+00  0.8371E+00
      1.990  0.3104E+00  0.8766E+00
      2.117  0.1784E+00  0.8993E+00
      2.244  0.1759E+00  0.9216E+00
      2.372  0.1927E+00  0.9461E+00
      2.499  0.2284E+00  0.9752E+00
      2.626  0.3124E+00  0.1015E+01
      2.753  0.2243E+00  0.1043E+01
      2.880  0.2220E+00  0.1072E+01
      3.008  0.3860E+00  0.1121E+01
      3.135  0.3484E+00  0.1165E+01
      3.262  0.1819E+00  0.1188E+01
      3.389  0.3169E+00  0.1229E+01
      3.516  0.3167E+00  0.1269E+01
      3.643  0.1703E+00  0.1290E+01
      3.771  0.2864E+00  0.1327E+01
      3.898  0.3521E+00  0.1372E+01
      4.025  0.2386E+00  0.1402E+01
      4.152  0.2264E+00  0.1431E+01
      4.279  0.2600E+00  0.1464E+01
      4.406  0.1360E+00  0.1481E+01
      4.534  0.2146E+00  0.1508E+01
      4.661  0.1885E+00  0.1532E+01
      4.788  0.1180E+00  0.1547E+01
      4.915  0.1465E+00  0.1566E+01
      5.042  0.7198E-01  0.1575E+01
      5.170  0.5995E-01  0.1583E+01
      5.297  0.5481E-01  0.1590E+01
      5.424  0.2369E-01  0.1593E+01
      5.551  0.4161E-01  0.1598E+01
      5.678  0.1311E-01  0.1600E+01
      5.805  0.1728E-02  0.1600E+01
      5.933  0.4133E-04  0.1600E+01
      6.060  0.3736E-04  0.1600E+01
      6.187  0.2902E-02  0.1600E+01
      6.314  0.1765E-01  0.1603E+01
      6.441  0.3226E-01  0.1607E+01
      6.568  0.6030E-01  0.1614E+01
      6.696  0.6561E-01  0.1623E+01
      6.823  0.6243E-01  0.1631E+01
      6.950  0.7342E-01  0.1640E+01
      7.077  0.1531E+00  0.1659E+01
      7.204  0.1259E+00  0.1675E+01
      7.332  0.2082E+00  0.1702E+01
      7.459  0.2318E+00  0.1731E+01
      7.586  0.1882E+00  0.1755E+01
      7.713  0.2356E+00  0.1785E+01
      7.840  0.2785E+00  0.1821E+01
      7.967  0.3552E+00  0.1866E+01
      8.095  0.2361E+00  0.1896E+01
      8.222  0.2365E+00  0.1926E+01
      8.349  0.3146E+00  0.1966E+01
      8.476  0.2207E+00  0.1994E+01
      8.603  0.2135E+00  0.2021E+01
      8.730  0.2087E+00  0.2048E+01
      8.858  0.3502E+00  0.2092E+01
      8.985  0.5099E+00  0.2157E+01
      9.112  0.3681E+00  0.2204E+01
      9.239  0.3458E+00  0.2248E+01
      9.366  0.3655E+00  0.2294E+01
      9.494  0.3312E+00  0.2337E+01
      9.621  0.1808E+00  0.2360E+01
      9.748  0.1803E+00  0.2383E+01
      9.875  0.2366E+00  0.2413E+01
     10.002  0.2594E+00  0.2446E+01
     10.129  0.1397E+00  0.2463E+01
     10.257  0.3145E+00  0.2503E+01
     10.384  0.4908E+00  0.2566E+01
     10.511  0.3193E+00  0.2606E+01
     10.638  0.2586E+00  0.2639E+01
     10.765  0.2496E+00  0.2671E+01
     10.892  0.1661E+00  0.2692E+01
     11.020  0.1517E+00  0.2711E+01
     11.147  0.1359E+00  0.2729E+01
     11.274  0.2154E+00  0.2756E+01
     11.401  0.2992E+00  0.2794E+01
     11.528  0.1582E+00  0.2814E+01
     11.656  0.1725E+00  0.2836E+01
     11.783  0.2711E+00  0.2871E+01
     11.910  0.3027E+00  0.2909E+01
     12.037  0.3278E+00  0.2951E+01
     12.164  0.1850E+00  0.2974E+01
     12.291  0.2273E+00  0.3003E+01
     12.419  0.2437E+00  0.3034E+01
     12.546  0.1887E+00  0.3058E+01
     12.673  0.1259E+00  0.3074E+01
     12.800  0.2071E+00  0.3101E+01
     12.927  0.2501E+00  0.3132E+01
     13.054  0.1832E+00  0.3156E+01
     13.182  0.2331E+00  0.3185E+01
     13.309  0.3095E+00  0.3225E+01
     13.436  0.3601E+00  0.3271E+01
     13.563  0.3017E+00  0.3309E+01
     13.690  0.4039E+00  0.3360E+01
     13.818  0.2485E+00  0.3392E+01
     13.945  0.9439E-01  0.3404E+01
     14.072  0.1962E+00  0.3429E+01
     14.199  0.1817E+00  0.3452E+01
     14.326  0.3035E+00  0.3491E+01
     14.453  0.2352E+00  0.3521E+01
     14.581  0.1962E+00  0.3545E+01
     14.708  0.1593E+00  0.3566E+01
     14.835  0.1821E+00  0.3589E+01
     14.962  0.3249E+00  0.3630E+01
     15.089  0.3212E+00  0.3671E+01
     15.216  0.4089E+00  0.3723E+01
     15.344  0.3261E+00  0.3765E+01
     15.471  0.4190E+00  0.3818E+01
     15.598  0.3603E+00  0.3864E+01
     15.725  0.2400E+00  0.3894E+01
     15.852  0.1457E+00  0.3913E+01
     15.980  0.2037E+00  0.3939E+01
     16.107  0.1347E+00  0.3956E+01
     16.234  0.2369E+00  0.3986E+01
     16.361  0.2499E+00  0.4018E+01
     16.488  0.1309E+00  0.4034E+01
     16.615  0.1826E+00  0.4058E+01
     16.743  0.3054E+00  0.4096E+01
     16.870  0.2541E+00  0.4129E+01
     16.997  0.2362E+00  0.4159E+01
     17.124  0.3050E+00  0.4198E+01
     17.251  0.3085E+00  0.4237E+01
     17.378  0.4354E+00  0.4292E+01
     17.506  0.3971E+00  0.4343E+01
     17.633  0.3011E+00  0.4381E+01
     17.760  0.2436E+00  0.4412E+01
     17.887  0.2445E+00  0.4443E+01
     18.014  0.3109E+00  0.4483E+01
     18.142  0.3687E+00  0.4529E+01
     18.269  0.2408E+00  0.4560E+01
     18.396  0.1531E+00  0.4580E+01
     18.523  0.1774E+00  0.4602E+01
     18.650  0.3673E+00  0.4649E+01
     18.777  0.3733E+00  0.4696E+01
     18.905  0.3091E+00  0.4736E+01
     19.032  0.3459E+00  0.4780E+01
     19.159  0.2931E+00  0.4817E+01
     19.286  0.4490E+00  0.4874E+01
     19.413  0.5299E+00  0.4941E+01
     19.540  0.3335E+00  0.4984E+01
     19.668  0.3468E+00  0.5028E+01
     19.795  0.2802E+00  0.5063E+01
     19.922  0.1596E+00  0.5084E+01
     20.049  0.2416E+00  0.5114E+01
     20.176  0.3175E+00  0.5155E+01
     20.304  0.2602E+00  0.5188E+01
     20.431  0.2051E+00  0.5214E+01
     20.558  0.2492E+00  0.5246E+01
     20.685  0.4013E+00  0.5297E+01
     20.812  0.4043E+00  0.5348E+01
     20.939  0.3521E+00  0.5393E+01
     21.067  0.2770E+00  0.5428E+01
     21.194  0.3104E+00  0.5468E+01
     21.321  0.1920E+00  0.5492E+01
     21.448  0.2766E+00  0.5527E+01
     21.575  0.4126E+00  0.5580E+01
     21.703  0.2571E+00  0.5612E+01
     21.830  0.2110E+00  0.5639E+01
     21.957  0.2916E+00  0.5676E+01
     22.084  0.2402E+00  0.5707E+01
     22.211  0.3007E+00  0.5745E+01
     22.338  0.3101E+00  0.5785E+01
     22.466  0.2882E+00  0.5821E+01
     22.593  0.3203E+00  0.5862E+01
     22.720  0.2519E+00  0.5894E+01
     22.847  0.2290E+00  0.5923E+01
     22.974  0.2358E+00  0.5953E+01
     23.101  0.4053E+00  0.6005E+01
     23.229  0.4948E+00  0.6068E+01
     23.356  0.4086E+00  0.6120E+01
     23.483  0.2285E+00  0.6149E+01
     23.610  0.3496E+00  0.6193E+01
     23.737  0.3703E+00  0.6240E+01
     23.865  0.1809E+00  0.6263E+01
     23.992  0.1765E+00  0.6286E+01
     24.119  0.1592E+00  0.6306E+01
     24.246  0.1539E+00  0.6325E+01
     24.373  0.1301E+00  0.6342E+01
     24.500  0.9254E-01  0.6354E+01
     24.628  0.3400E-01  0.6358E+01
     24.755  0.6805E-02  0.6359E+01
     24.882  0.5006E-01  0.6365E+01
     25.009  0.1125E+00  0.6380E+01
     25.136  0.4744E-01  0.6386E+01
     25.263  0.2052E-02  0.6386E+01
     25.391  0.1104E-01  0.6387E+01
     25.518  0.3574E-01  0.6392E+01
     25.645  0.9530E-02  0.6393E+01
     25.772  0.1895E-03  0.6393E+01
     25.899  0.1806E-02  0.6393E+01
     26.027  0.1120E-01  0.6395E+01
     26.154  0.5673E-02  0.6395E+01
     26.281  0.2097E-03  0.6395E+01
     26.408  0.4255E-06  0.6395E+01
     26.535  0.1525E-08  0.6395E+01
     26.662  0.4913E-05  0.6395E+01
     26.790  0.7820E-03  0.6396E+01
     26.917  0.7453E-02  0.6397E+01
     27.044  0.5619E-02  0.6397E+01
     27.171  0.5290E-03  0.6397E+01
     27.298  0.5669E-02  0.6398E+01
     27.425  0.1119E-01  0.6399E+01
     27.553  0.1815E-02  0.6400E+01
     27.680  0.1891E-04  0.6400E+01
     27.807  0.9992E-08  0.6400E+01
     27.934  0.2400E-12  0.6400E+01
     28.061  0.1715E-11  0.6400E+01
     28.189  0.2513E-07  0.6400E+01
     28.316  0.1673E-04  0.6400E+01
     28.443  0.5895E-03  0.6400E+01
     28.570  0.1459E-02  0.6400E+01
     28.697  0.2944E-03  0.6400E+01
     28.824  0.3837E-05  0.6400E+01
     28.952  0.2505E-08  0.6400E+01
     29.079  0.7260E-13  0.6400E+01
     29.206  0.0000E+00  0.6400E+01
     29.333  0.0000E+00  0.6400E+01
     29.460  0.0000E+00  0.6400E+01
     29.587  0.0000E+00  0.6400E+01
     29.715  0.0000E+00  0.6400E+01
     29.842  0.0000E+00  0.6400E+01
     29.969  0.0000E+00  0.6400E+01
     30.096  0.0000E+00  0.6400E+01
     30.223  0.0000E+00  0.6400E+01
