    2    2    5    1
  0.2079688E+02  0.3889087E-09  0.3889087E-09  0.3889087E-09  0.5000000E-15
  1.000000000000000E-004
  CAR 
 cd Si                                   
      8    366     16
 
  0.0000000E+00  0.0000000E+00  0.0000000E+00  0.7513148E-03
    1       -6.195462   1.000000
    2        5.615792   0.999997
    3        5.627053   0.999995
    4        5.634942   0.999991
    5        8.180468   0.000000
    6        8.181608   0.000000
    7        8.187874   0.000000
    8        8.771288   0.000000
    9       13.335540   0.000000
   10       13.335876   0.000000
   11       13.507804   0.000000
   12       16.806781   0.000000
   13       16.810517   0.000000
   14       16.818073   0.000000
   15       20.906724   0.000000
   16       28.489120   0.000000
 
  0.9090909E-01  0.0000000E+00  0.0000000E+00  0.3005259E-02
    1       -6.089066   1.000000
    2        4.641098   1.000000
    3        5.454401   1.000000
    4        5.469020   1.000000
    5        8.175482   0.000000
    6        8.422980   0.000000
    7        8.428766   0.000000
    8        9.589811   0.000000
    9       13.032452   0.000000
   10       13.033385   0.000000
   11       13.953316   0.000000
   12       16.447123   0.000000
   13       17.460979   0.000000
   14       17.470106   0.000000
   15       21.602645   0.000000
   16       27.330365   0.000000
 
  0.1818182E+00  0.0000000E+00  0.0000000E+00  0.3005259E-02
    1       -5.774092   1.000000
    2        2.979812   1.000000
    3        5.120189   1.000000
    4        5.133386   1.000000
    5        7.855387   0.000000
    6        8.889276   0.000000
    7        8.896453   0.000000
    8       11.185872   0.000000
    9       12.682258   0.000000
   10       12.686020   0.000000
   11       14.691926   0.000000
   12       16.297549   0.000000
   13       18.928438   0.000000
   14       18.937544   0.000000
   15       23.080893   0.000000
   16       24.963370   0.000000
 
  0.2727273E+00  0.0000000E+00  0.0000000E+00  0.3005259E-02
    1       -5.267187   1.000000
    2        1.342062   1.000000
    3        4.801472   1.000000
    4        4.813839   1.000000
    5        7.508810   0.000000
    6        9.140251   0.000000
    7        9.150095   0.000000
    8       12.752892   0.000000
    9       12.957300   0.000000
   10       12.964958   0.000000
   11       14.484223   0.000000
   12       17.815582   0.000000
   13       20.429390   0.000000
   14       20.435198   0.000000
   15       22.925989   0.000000
   16       22.936623   0.000000
 
  0.3636364E+00  0.0000000E+00  0.0000000E+00  0.3005259E-02
    1       -4.619667   1.000000
    2       -0.091458   1.000000
    3        4.572743   1.000000
    4        4.584718   1.000000
    5        7.249469   0.000000
    6        9.088622   0.000000
    7        9.099668   0.000000
    8       13.472507   0.000000
    9       13.993260   0.000000
   10       14.002553   0.000000
   11       14.978058   0.000000
   12       19.447624   0.000000
   13       19.492474   0.000000
   14       19.502795   0.000000
   15       22.054381   0.000000
   16       23.745119   0.000000
 
  0.4545455E+00  0.0000000E+00  0.0000000E+00  0.3005259E-02
    1       -4.023950   1.000000
    2       -1.087428   1.000000
    3        4.455926   1.000000
    4        4.467754   1.000000
    5        7.114374   0.000000
    6        8.985766   0.000000
    7        8.997023   0.000000
    8       13.354989   0.000000
    9       15.508593   0.000000
   10       15.517098   0.000000
   11       16.422996   0.000000
   12       17.517621   0.000000
   13       17.530674   0.000000
   14       18.747615   0.000000
   15       23.699448   0.000000
   16       25.989546   0.000000
 
  0.9090909E-01  0.9090909E-01  0.0000000E+00  0.1502630E-02
    1       -6.053359   1.000000
    2        4.807599   1.000000
    3        5.142919   1.000000
    4        5.143391   1.000000
    5        7.868661   0.000000
    6        8.838848   0.000000
    7        8.842873   0.000000
    8        9.520031   0.000000
    9       12.479060   0.000000
   10       13.493778   0.000000
   11       14.103915   0.000000
   12       17.058407   0.000000
   13       17.061335   0.000000
   14       17.410060   0.000000
   15       21.899205   0.000000
   16       26.901693   0.000000
 
  0.1818182E+00  0.9090909E-01  0.0000000E+00  0.3005259E-02
    1       -5.807093   1.000000
    2        3.466449   1.000000
    3        4.752590   1.000000
    4        4.927444   1.000000
    5        7.901667   0.000000
    6        8.867630   0.000000
    7        9.426949   0.000000
    8       10.498595   0.000000
    9       12.224355   0.000000
   10       13.453257   0.000000
   11       14.910201   0.000000
   12       16.658165   0.000000
   13       17.899409   0.000000
   14       18.792521   0.000000
   15       23.197708   0.000000
   16       24.847665   0.000000
 
  0.2727273E+00  0.9090909E-01  0.0000000E+00  0.3005259E-02
    1       -5.361550   1.000000
    2        1.867213   1.000000
    3        4.437686   1.000000
    4        4.559222   1.000000
    5        8.008768   0.000000
    6        8.872997   0.000000
    7        9.778667   0.000000
    8       10.955157   0.000000
    9       13.273552   0.000000
   10       13.637750   0.000000
   11       15.116821   0.000000
   12       17.378364   0.000000
   13       19.339931   0.000000
   14       20.533998   0.000000
   15       22.559754   0.000000
   16       23.102164   0.000000
 
  0.3636364E+00  0.9090909E-01  0.0000000E+00  0.3005259E-02
    1       -4.751100   1.000000
    2        0.381592   1.000000
    3        4.181556   1.000000
    4        4.253246   1.000000
    5        7.845716   0.000000
    6        8.927035   0.000000
    7        9.719219   0.000000
    8       11.719877   0.000000
    9       14.457498   0.000000
   10       14.532902   0.000000
   11       15.106160   0.000000
   12       18.951226   0.000000
   13       19.203942   0.000000
   14       20.670745   0.000000
   15       22.375069   0.000000
   16       22.725917   0.000000
 
  0.4545455E+00  0.9090909E-01  0.0000000E+00  0.3005259E-02
    1       -4.096026   1.000000
    2       -0.790086   1.000000
    3        3.887866   1.000000
    4        4.211966   1.000000
    5        7.702282   0.000000
    6        8.894892   0.000000
    7        9.489925   0.000000
    8       12.948785   0.000000
    9       14.368484   0.000000
   10       15.931941   0.000000
   11       16.621984   0.000000
   12       17.297788   0.000000
   13       18.090048   0.000000
   14       20.361623   0.000000
   15       22.918791   0.000000
   16       24.466896   0.000000
 
 -0.4545455E+00  0.9090909E-01  0.0000000E+00  0.3005259E-02
    1       -3.833806   1.000000
    2       -1.182192   1.000000
    3        3.713220   1.000000
    4        4.310931   1.000000
    5        7.673614   0.000000
    6        8.952911   0.000000
    7        9.308363   0.000000
    8       13.658895   0.000000
    9       14.900416   0.000000
   10       15.225752   0.000000
   11       16.499592   0.000000
   12       17.880443   0.000000
   13       18.209642   0.000000
   14       19.019554   0.000000
   15       24.300116   0.000000
   16       25.448028   0.000000
 
 -0.3636364E+00  0.9090909E-01  0.0000000E+00  0.3005259E-02
    1       -4.304775   1.000000
    2       -0.448860   1.000000
    3        3.678761   1.000000
    4        4.534143   1.000000
    5        7.772516   0.000000
    6        9.141023   0.000000
    7        9.230183   0.000000
    8       13.335247   0.000000
    9       13.602058   0.000000
   10       14.761033   0.000000
   11       16.748851   0.000000
   12       17.421027   0.000000
   13       19.860180   0.000000
   14       20.029182   0.000000
   15       22.180336   0.000000
   16       23.648290   0.000000
 
 -0.2727273E+00  0.9090909E-01  0.0000000E+00  0.3005259E-02
    1       -4.970541   1.000000
    2        0.857500   1.000000
    3        3.800027   1.000000
    4        4.853081   1.000000
    5        7.987734   0.000000
    6        9.158646   0.000000
    7        9.347852   0.000000
    8       12.274390   0.000000
    9       12.434399   0.000000
   10       14.931209   0.000000
   11       15.111756   0.000000
   12       18.283628   0.000000
   13       19.622148   0.000000
   14       21.449598   0.000000
   15       21.458257   0.000000
   16       23.117077   0.000000
 
 -0.1818182E+00  0.9090909E-01  0.0000000E+00  0.3005259E-02
    1       -5.532139   1.000000
    2        2.385700   1.000000
    3        4.094956   1.000000
    4        5.211882   1.000000
    5        8.284340   0.000000
    6        8.875677   0.000000
    7        9.218511   0.000000
    8       11.380086   0.000000
    9       12.021786   0.000000
   10       13.761325   0.000000
   11       15.243247   0.000000
   12       16.856042   0.000000
   13       18.644895   0.000000
   14       20.434093   0.000000
   15       22.592940   0.000000
   16       23.867882   0.000000
 
 -0.9090909E-01  0.9090909E-01  0.0000000E+00  0.1502630E-02
    1       -5.912880   1.000000
    2        3.838726   1.000000
    3        4.653435   1.000000
    4        5.482972   1.000000
    5        8.478708   0.000000
    6        8.518246   0.000000
    7        8.636410   0.000000
    8       10.478626   0.000000
    9       12.356352   0.000000
   10       13.196146   0.000000
   11       14.591211   0.000000
   12       16.644492   0.000000
   13       17.351728   0.000000
   14       18.765123   0.000000
   15       22.577760   0.000000
   16       24.992656   0.000000
 
  0.1818182E+00  0.1818182E+00  0.0000000E+00  0.1502630E-02
    1       -5.629708   1.000000
    2        3.310095   1.000000
    3        4.325865   1.000000
    4        4.326537   1.000000
    5        7.230651   0.000000
    6        9.702903   0.000000
    7       10.170778   0.000000
    8       10.173084   0.000000
    9       12.305009   0.000000
   10       13.967019   0.000000
   11       15.564656   0.000000
   12       17.782467   0.000000
   13       17.785695   0.000000
   14       18.379538   0.000000
   15       24.320800   0.000000
   16       24.497437   0.000000
 
  0.2727273E+00  0.1818182E+00  0.0000000E+00  0.3005259E-02
    1       -5.249037   1.000000
    2        2.167923   1.000000
    3        3.911167   1.000000
    4        3.988451   1.000000
    5        7.281858   0.000000
    6        9.306562   0.000000
    7       10.454267   0.000000
    8       10.751923   0.000000
    9       13.499547   0.000000
   10       14.285384   0.000000
   11       16.321727   0.000000
   12       17.735369   0.000000
   13       18.675997   0.000000
   14       19.939147   0.000000
   15       22.501490   0.000000
   16       22.965154   0.000000
 
  0.3636364E+00  0.1818182E+00  0.0000000E+00  0.3005259E-02
    1       -4.687981   1.000000
    2        0.817649   1.000000
    3        3.385224   1.000000
    4        3.793968   1.000000
    5        7.515453   0.000000
    6        9.663179   0.000000
    7       10.253452   0.000000
    8       10.836642   0.000000
    9       15.090090   0.000000
   10       15.218308   0.000000
   11       16.089005   0.000000
   12       18.811197   0.000000
   13       18.961531   0.000000
   14       20.597705   0.000000
   15       21.536808   0.000000
   16       22.800869   0.000000
 
  0.4545455E+00  0.1818182E+00  0.0000000E+00  0.3005259E-02
    1       -4.021322   1.000000
    2       -0.398275   1.000000
    3        2.914652   1.000000
    4        3.761297   1.000000
    5        7.553941   0.000000
    6       10.023426   0.000000
    7       10.590605   0.000000
    8       10.868185   0.000000
    9       15.487429   0.000000
   10       16.407588   0.000000
   11       17.044258   0.000000
   12       17.206089   0.000000
   13       18.253282   0.000000
   14       21.607382   0.000000
   15       23.212464   0.000000
   16       23.381618   0.000000
 
 -0.4545455E+00  0.1818182E+00  0.0000000E+00  0.3005259E-02
    1       -3.550985   1.000000
    2       -1.092155   1.000000
    3        2.584145   1.000000
    4        3.889439   1.000000
    5        7.649895   0.000000
    6        9.898845   0.000000
    7       10.305253   0.000000
    8       12.475928   0.000000
    9       14.650018   0.000000
   10       15.100899   0.000000
   11       17.049100   0.000000
   12       18.304535   0.000000
   13       18.966824   0.000000
   14       21.161133   0.000000
   15       24.179674   0.000000
   16       24.432801   0.000000
 
 -0.3636364E+00  0.1818182E+00  0.0000000E+00  0.3005259E-02
    1       -3.829258   1.000000
    2       -0.689339   1.000000
    3        2.434686   1.000000
    4        4.162377   1.000000
    5        7.894420   0.000000
    6        9.892409   0.000000
    7       10.083282   0.000000
    8       13.288851   0.000000
    9       13.392931   0.000000
   10       14.218344   0.000000
   11       16.930584   0.000000
   12       19.303296   0.000000
   13       20.274011   0.000000
   14       20.489551   0.000000
   15       21.927478   0.000000
   16       24.256152   0.000000
 
 -0.2727273E+00  0.1818182E+00  0.0000000E+00  0.3005259E-02
    1       -4.486914   1.000000
    2        0.406730   1.000000
    3        2.518282   1.000000
    4        4.542730   1.000000
    5        8.251151   0.000000
    6        9.838361   0.000000
    7        9.946939   0.000000
    8       11.906055   0.000000
    9       12.158234   0.000000
   10       15.654679   0.000000
   11       17.349673   0.000000
   12       17.623943   0.000000
   13       19.428394   0.000000
   14       21.454094   0.000000
   15       22.120907   0.000000
   16       23.065069   0.000000
 
 -0.1818182E+00  0.1818182E+00  0.0000000E+00  0.1502630E-02
    1       -5.092214   1.000000
    2        1.580281   1.000000
    3        2.997185   1.000000
    4        4.949283   1.000000
    5        8.567350   0.000000
    6        9.352200   0.000000
    7        9.639141   0.000000
    8       11.234971   0.000000
    9       11.731661   0.000000
   10       15.490084   0.000000
   11       16.169931   0.000000
   12       17.224932   0.000000
   13       19.254123   0.000000
   14       20.518061   0.000000
   15       21.992196   0.000000
   16       24.006334   0.000000
 
  0.2727273E+00  0.2727273E+00  0.0000000E+00  0.1502630E-02
    1       -4.932920   1.000000
    2        1.704441   1.000000
    3        3.615137   1.000000
    4        3.616442   1.000000
    5        6.648608   0.000000
    6        8.434382   0.000000
    7       11.715947   0.000000
    8       11.717006   0.000000
    9       13.970867   0.000000
   10       14.754148   0.000000
   11       17.403881   0.000000
   12       18.789040   0.000000
   13       18.792002   0.000000
   14       19.599583   0.000000
   15       22.408613   0.000000
   16       22.408717   0.000000
 
  0.3636364E+00  0.2727273E+00  0.0000000E+00  0.3005259E-02
    1       -4.427988   1.000000
    2        0.762555   1.000000
    3        3.087686   1.000000
    4        3.388107   1.000000
    5        6.779910   0.000000
    6        8.148287   0.000000
    7       11.995067   0.000000
    8       12.181033   0.000000
    9       15.419407   0.000000
   10       15.488815   0.000000
   11       17.619827   0.000000
   12       18.849952   0.000000
   13       19.321105   0.000000
   14       20.285654   0.000000
   15       21.354527   0.000000
   16       22.287037   0.000000
 
  0.4545455E+00  0.2727273E+00  0.0000000E+00  0.3005259E-02
    1       -3.780438   1.000000
    2       -0.250093   1.000000
    3        2.373605   1.000000
    4        3.327229   1.000000
    5        6.979887   0.000000
    6        8.888160   0.000000
    7       11.832356   0.000000
    8       12.052573   0.000000
    9       16.565345   0.000000
   10       16.822101   0.000000
   11       17.202531   0.000000
   12       17.334395   0.000000
   13       19.205339   0.000000
   14       21.123635   0.000000
   15       22.245474   0.000000
   16       23.857903   0.000000
 
 -0.4545455E+00  0.2727273E+00  0.0000000E+00  0.3005259E-02
    1       -3.180136   1.000000
    2       -1.035382   1.000000
    3        1.810172   1.000000
    4        3.437481   1.000000
    5        7.112376   0.000000
    6       10.350376   0.000000
    7       11.663529   0.000000
    8       11.731722   0.000000
    9       15.031346   0.000000
   10       15.148283   0.000000
   11       18.665397   0.000000
   12       18.674226   0.000000
   13       19.192404   0.000000
   14       23.061381   0.000000
   15       23.082101   0.000000
   16       23.572319   0.000000
 
 -0.3636364E+00  0.2727273E+00  0.0000000E+00  0.3005259E-02
    1       -3.236409   1.000000
    2       -0.956073   1.000000
    3        1.530834   1.000000
    4        3.707083   1.000000
    5        7.396241   0.000000
    6       11.382101   0.000000
    7       11.400703   0.000000
    8       12.282306   0.000000
    9       13.332940   0.000000
   10       13.412133   0.000000
   11       18.620447   0.000000
   12       20.635720   0.000000
   13       20.653200   0.000000
   14       21.430823   0.000000
   15       22.056057   0.000000
   16       23.263123   0.000000
 
 -0.2727273E+00  0.2727273E+00  0.0000000E+00  0.1502630E-02
    1       -3.858011   1.000000
    2       -0.209529   1.000000
    3        1.689987   1.000000
    4        4.102232   1.000000
    5        7.830854   0.000000
    6       10.789425   0.000000
    7       11.127878   0.000000
    8       11.957107   0.000000
    9       12.334868   0.000000
   10       14.235703   0.000000
   11       18.586613   0.000000
   12       19.252834   0.000000
   13       19.704919   0.000000
   14       22.227775   0.000000
   15       22.439216   0.000000
   16       22.989649   0.000000
 
  0.3636364E+00  0.3636364E+00  0.0000000E+00  0.1502630E-02
    1       -3.978643   1.000000
    2        0.107973   1.000000
    3        3.115868   1.000000
    4        3.117504   1.000000
    5        6.298119   0.000000
    6        7.313719   0.000000
    7       13.358471   0.000000
    8       13.358581   0.000000
    9       15.852483   0.000000
   10       15.885395   0.000000
   11       18.683240   0.000000
   12       18.683345   0.000000
   13       18.983986   0.000000
   14       20.953127   0.000000
   15       21.239212   0.000000
   16       22.149544   0.000000
 
  0.4545455E+00  0.3636364E+00  0.0000000E+00  0.3005259E-02
    1       -3.367188   1.000000
    2       -0.695174   1.000000
    3        2.592988   1.000000
    4        3.013786   1.000000
    5        6.505834   0.000000
    6        7.323936   0.000000
    7       13.677300   0.000000
    8       13.689816   0.000000
    9       16.987486   0.000000
   10       17.015862   0.000000
   11       17.291979   0.000000
   12       17.500595   0.000000
   13       20.039670   0.000000
   14       20.589478   0.000000
   15       21.239226   0.000000
   16       23.294901   0.000000
 
 -0.4545455E+00  0.3636364E+00  0.0000000E+00  0.3005259E-02
    1       -2.706522   1.000000
    2       -1.400484   1.000000
    3        1.831587   1.000000
    4        3.085454   1.000000
    5        6.675221   0.000000
    6        8.490169   0.000000
    7       13.409641   0.000000
    8       13.545510   0.000000
    9       15.275554   0.000000
   10       15.363799   0.000000
   11       18.809570   0.000000
   12       19.146976   0.000000
   13       20.777352   0.000000
   14       20.844653   0.000000
   15       21.452520   0.000000
   16       23.591656   0.000000
 
 -0.3636364E+00  0.3636364E+00  0.0000000E+00  0.1502630E-02
    1       -2.647527   1.000000
    2       -1.428490   1.000000
    3        1.356491   1.000000
    4        3.325529   1.000000
    5        6.948171   0.000000
    6       10.193116   0.000000
    7       12.739161   0.000000
    8       13.263174   0.000000
    9       13.498140   0.000000
   10       13.870490   0.000000
   11       20.248312   0.000000
   12       20.622661   0.000000
   13       20.965990   0.000000
   14       21.141034   0.000000
   15       21.245218   0.000000
   16       22.840548   0.000000
 
  0.4545455E+00  0.4545455E+00  0.0000000E+00  0.1502630E-02
    1       -2.792267   1.000000
    2       -1.412243   1.000000
    3        2.860654   1.000000
    4        2.862436   1.000000
    5        6.260724   0.000003
    6        6.587368   0.000000
    7       15.028375   0.000000
    8       15.029011   0.000000
    9       17.089413   0.000000
   10       17.089897   0.000000
   11       17.257716   0.000000
   12       17.675871   0.000000
   13       18.962062   0.000000
   14       19.020570   0.000000
   15       23.300697   0.000000
   16       24.110992   0.000000
 
 -0.4545455E+00  0.4545455E+00  0.0000000E+00  0.1502630E-02
    1       -2.160205   1.000000
    2       -2.044176   1.000000
    3        2.429926   1.000000
    4        2.887098   1.000000
    5        6.442103   0.000000
    6        7.014971   0.000000
    7       14.956537   0.000000
    8       15.190114   0.000000
    9       15.706746   0.000000
   10       15.890984   0.000000
   11       18.701082   0.000000
   12       18.736819   0.000000
   13       18.812799   0.000000
   14       19.383007   0.000000
   15       23.350744   0.000000
   16       23.680420   0.000000
 
  0.0000000E+00  0.0000000E+00  0.9090909E-01  0.1502630E-02
    1       -6.089004   1.000000
    2        4.633611   1.000000
    3        5.462616   1.000000
    4        5.469612   1.000000
    5        8.179723   0.000000
    6        8.423293   0.000000
    7        8.424515   0.000000
    8        9.588676   0.000000
    9       13.031620   0.000000
   10       13.032050   0.000000
   11       13.953119   0.000000
   12       16.453991   0.000000
   13       17.460716   0.000000
   14       17.464725   0.000000
   15       21.603618   0.000000
   16       27.328783   0.000000
 
  0.9090909E-01  0.0000000E+00  0.9090909E-01  0.3005259E-02
    1       -6.053354   1.000000
    2        4.807821   1.000000
    3        5.137580   1.000000
    4        5.148478   1.000000
    5        7.868564   0.000000
    6        8.840138   0.000000
    7        8.841664   0.000000
    8        9.520033   0.000000
    9       12.479368   0.000000
   10       13.493530   0.000000
   11       14.103949   0.000000
   12       17.055718   0.000000
   13       17.063599   0.000000
   14       17.410255   0.000000
   15       21.899442   0.000000
   16       26.902560   0.000000
 
  0.1818182E+00  0.0000000E+00  0.9090909E-01  0.3005259E-02
    1       -5.807144   1.000000
    2        3.468663   1.000000
    3        4.757809   1.000000
    4        4.918989   1.000000
    5        7.902052   0.000000
    6        8.870677   0.000000
    7        9.423569   0.000000
    8       10.498015   0.000000
    9       12.225652   0.000000
   10       13.454313   0.000000
   11       14.910962   0.000000
   12       16.657808   0.000000
   13       17.893507   0.000000
   14       18.797363   0.000000
   15       23.197398   0.000000
   16       24.851906   0.000000
 
  0.2727273E+00  0.0000000E+00  0.9090909E-01  0.3005259E-02
    1       -5.361656   1.000000
    2        1.868601   1.000000
    3        4.442799   1.000000
    4        4.551892   1.000000
    5        8.008435   0.000000
    6        8.878852   0.000000
    7        9.773599   0.000000
    8       10.951974   0.000000
    9       13.275459   0.000000
   10       13.640273   0.000000
   11       15.118394   0.000000
   12       17.376880   0.000000
   13       19.334598   0.000000
   14       20.538457   0.000000
   15       22.563362   0.000000
   16       23.102186   0.000000
 
  0.3636364E+00  0.0000000E+00  0.9090909E-01  0.3005259E-02
    1       -4.751250   1.000000
    2        0.382476   1.000000
    3        4.175649   1.000000
    4        4.257911   1.000000
    5        7.845663   0.000000
    6        8.933483   0.000000
    7        9.713021   0.000000
    8       11.715831   0.000000
    9       14.460677   0.000000
   10       14.535809   0.000000
   11       15.106117   0.000000
   12       18.950966   0.000000
   13       19.205188   0.000000
   14       20.668139   0.000000
   15       22.372088   0.000000
   16       22.727552   0.000000
 
  0.4545455E+00  0.0000000E+00  0.9090909E-01  0.3005259E-02
    1       -4.096149   1.000000
    2       -0.789620   1.000000
    3        3.882393   1.000000
    4        4.217121   1.000000
    5        7.702500   0.000000
    6        8.900792   0.000000
    7        9.483188   0.000000
    8       12.945360   0.000000
    9       14.370669   0.000000
   10       15.933979   0.000000
   11       16.621496   0.000000
   12       17.301989   0.000000
   13       18.089986   0.000000
   14       20.357493   0.000000
   15       22.919018   0.000000
   16       24.462160   0.000000
 
 -0.4545455E+00  0.0000000E+00  0.9090909E-01  0.3005259E-02
    1       -3.833680   1.000000
    2       -1.182318   1.000000
    3        3.708328   1.000000
    4        4.316453   1.000000
    5        7.673885   0.000000
    6        8.958496   0.000000
    7        9.301151   0.000000
    8       13.659014   0.000000
    9       14.900863   0.000000
   10       15.227784   0.000000
   11       16.495220   0.000000
   12       17.884757   0.000000
   13       18.209704   0.000000
   14       19.017732   0.000000
   15       24.301506   0.000000
   16       25.448196   0.000000
 
 -0.3636364E+00  0.0000000E+00  0.9090909E-01  0.3005259E-02
    1       -4.304503   1.000000
    2       -0.449514   1.000000
    3        3.674459   1.000000
    4        4.540080   1.000000
    5        7.772709   0.000000
    6        9.146771   0.000000
    7        9.222308   0.000000
    8       13.336954   0.000000
    9       13.604541   0.000000
   10       14.759829   0.000000
   11       16.745408   0.000000
   12       17.417290   0.000000
   13       19.863736   0.000000
   14       20.031212   0.000000
   15       22.180923   0.000000
   16       23.648537   0.000000
 
 -0.2727273E+00  0.0000000E+00  0.9090909E-01  0.3005259E-02
    1       -4.970299   1.000000
    2        0.856306   1.000000
    3        3.796415   1.000000
    4        4.859486   1.000000
    5        7.987822   0.000000
    6        9.151240   0.000000
    7        9.353118   0.000000
    8       12.275624   0.000000
    9       12.436521   0.000000
   10       14.930348   0.000000
   11       15.107578   0.000000
   12       18.283841   0.000000
   13       19.623664   0.000000
   14       21.451769   0.000000
   15       21.455842   0.000000
   16       23.115562   0.000000
 
 -0.1818182E+00  0.0000000E+00  0.9090909E-01  0.3005259E-02
    1       -5.531957   1.000000
    2        2.383332   1.000000
    3        4.092541   1.000000
    4        5.218808   1.000000
    5        8.284356   0.000000
    6        8.869469   0.000000
    7        9.223235   0.000000
    8       11.381550   0.000000
    9       12.022336   0.000000
   10       13.756662   0.000000
   11       15.242162   0.000000
   12       16.858329   0.000000
   13       18.648838   0.000000
   14       20.430377   0.000000
   15       22.588607   0.000000
   16       23.868753   0.000000
 
 -0.9090909E-01  0.0000000E+00  0.9090909E-01  0.3005259E-02
    1       -5.912760   1.000000
    2        3.832690   1.000000
    3        4.654453   1.000000
    4        5.490238   1.000000
    5        8.473865   0.000000
    6        8.519048   0.000000
    7        8.639990   0.000000
    8       10.478421   0.000000
    9       12.355286   0.000000
   10       13.193308   0.000000
   11       14.590791   0.000000
   12       16.649140   0.000000
   13       17.353220   0.000000
   14       18.760944   0.000000
   15       22.579168   0.000000
   16       24.988114   0.000000
 
  0.9090909E-01  0.9090909E-01  0.9090909E-01  0.1502630E-02
    1       -6.089003   1.000000
    2        4.648243   1.000000
    3        5.453081   1.000000
    4        5.462908   1.000000
    5        8.171301   0.000000
    6        8.421953   0.000000
    7        8.428332   0.000000
    8        9.594488   0.000000
    9       13.032560   0.000000
   10       13.032935   0.000000
   11       13.954522   0.000000
   12       16.443487   0.000000
   13       17.464610   0.000000
   14       17.470914   0.000000
   15       21.603155   0.000000
   16       27.343639   0.000000
 
  0.1818182E+00  0.9090909E-01  0.9090909E-01  0.3005259E-02
    1       -5.912761   1.000000
    2        3.843130   1.000000
    3        4.654262   1.000000
    4        5.477555   1.000000
    5        8.477801   0.000000
    6        8.513764   0.000000
    7        8.635136   0.000000
    8       10.482514   0.000000
    9       12.354851   0.000000
   10       13.198134   0.000000
   11       14.593108   0.000000
   12       16.641866   0.000000
   13       17.352487   0.000000
   14       18.768664   0.000000
   15       22.578373   0.000000
   16       25.006235   0.000000
 
  0.2727273E+00  0.9090909E-01  0.9090909E-01  0.3005259E-02
    1       -5.531970   1.000000
    2        2.386580   1.000000
    3        4.098896   1.000000
    4        5.207051   1.000000
    5        8.282232   0.000000
    6        8.875755   0.000000
    7        9.215931   0.000000
    8       11.378431   0.000000
    9       12.018668   0.000000
   10       13.768478   0.000000
   11       15.245289   0.000000
   12       16.856044   0.000000
   13       18.642938   0.000000
   14       20.438080   0.000000
   15       22.606050   0.000000
   16       23.867012   0.000000
 
  0.3636364E+00  0.9090909E-01  0.9090909E-01  0.3005259E-02
    1       -4.970337   1.000000
    2        0.857613   1.000000
    3        3.804260   1.000000
    4        4.848698   1.000000
    5        7.986008   0.000000
    6        9.159797   0.000000
    7        9.346316   0.000000
    8       12.269548   0.000000
    9       12.429393   0.000000
   10       14.933375   0.000000
   11       15.122174   0.000000
   12       18.286393   0.000000
   13       19.624500   0.000000
   14       21.452383   0.000000
   15       21.458185   0.000000
   16       23.113457   0.000000
 
  0.4545455E+00  0.9090909E-01  0.9090909E-01  0.3005259E-02
    1       -4.304578   1.000000
    2       -0.448918   1.000000
    3        3.682710   1.000000
    4        4.530003   1.000000
    5        7.771083   0.000000
    6        9.140286   0.000000
    7        9.231467   0.000000
    8       13.330587   0.000000
    9       13.596383   0.000000
   10       14.762839   0.000000
   11       16.760831   0.000000
   12       17.430638   0.000000
   13       19.854276   0.000000
   14       20.023776   0.000000
   15       22.179379   0.000000
   16       23.647163   0.000000
 
 -0.4545455E+00  0.9090909E-01  0.9090909E-01  0.3005259E-02
    1       -3.833742   1.000000
    2       -1.182156   1.000000
    3        3.716758   1.000000
    4        4.306865   1.000000
    5        7.672448   0.000000
    6        8.952546   0.000000
    7        9.309853   0.000000
    8       13.660479   0.000000
    9       14.903578   0.000000
   10       15.220271   0.000000
   11       16.500918   0.000000
   12       17.873712   0.000000
   13       18.213702   0.000000
   14       19.022625   0.000000
   15       24.299253   0.000000
   16       25.447055   0.000000
 
 -0.3636364E+00  0.9090909E-01  0.9090909E-01  0.3005259E-02
    1       -4.096136   1.000000
    2       -0.789888   1.000000
    3        3.891053   1.000000
    4        4.207829   1.000000
    5        7.701399   0.000000
    6        8.895060   0.000000
    7        9.491463   0.000000
    8       12.958055   0.000000
    9       14.368225   0.000000
   10       15.927372   0.000000
   11       16.616791   0.000000
   12       17.290653   0.000000
   13       18.085725   0.000000
   14       20.374433   0.000000
   15       22.918625   0.000000
   16       24.469172   0.000000
 
 -0.2727273E+00  0.9090909E-01  0.9090909E-01  0.3005259E-02
    1       -4.751234   1.000000
    2        0.381753   1.000000
    3        4.184782   1.000000
    4        4.248765   1.000000
    5        7.845077   0.000000
    6        8.928148   0.000000
    7        9.720593   0.000000
    8       11.728806   0.000000
    9       14.455958   0.000000
   10       14.527910   0.000000
   11       15.102820   0.000000
   12       18.948248   0.000000
   13       19.199178   0.000000
   14       20.671572   0.000000
   15       22.374605   0.000000
   16       22.729027   0.000000
 
 -0.1818182E+00  0.9090909E-01  0.9090909E-01  0.3005259E-02
    1       -5.361652   1.000000
    2        1.867130   1.000000
    3        4.433387   1.000000
    4        4.562406   1.000000
    5        8.008090   0.000000
    6        8.876653   0.000000
    7        9.779191   0.000000
    8       10.960536   0.000000
    9       13.269680   0.000000
   10       13.634548   0.000000
   11       15.116511   0.000000
   12       17.377853   0.000000
   13       19.341974   0.000000
   14       20.530491   0.000000
   15       22.552058   0.000000
   16       23.096877   0.000000
 
 -0.9090909E-01  0.9090909E-01  0.9090909E-01  0.3005259E-02
    1       -5.807145   1.000000
    2        3.465713   1.000000
    3        4.747897   1.000000
    4        4.932184   1.000000
    5        7.901710   0.000000
    6        8.872318   0.000000
    7        9.426191   0.000000
    8       10.498120   0.000000
    9       12.223457   0.000000
   10       13.452121   0.000000
   11       14.909514   0.000000
   12       16.658455   0.000000
   13       17.901502   0.000000
   14       18.789299   0.000000
   15       23.197674   0.000000
   16       24.839931   0.000000
 
  0.1818182E+00  0.1818182E+00  0.9090909E-01  0.1502630E-02
    1       -5.807030   1.000000
    2        3.474090   1.000000
    3        4.752915   1.000000
    4        4.917855   1.000000
    5        7.900778   0.000000
    6        8.868432   0.000000
    7        9.421944   0.000000
    8       10.500518   0.000000
    9       12.226368   0.000000
   10       13.454423   0.000000
   11       14.912445   0.000000
   12       16.654177   0.000000
   13       17.897164   0.000000
   14       18.799562   0.000000
   15       23.197644   0.000000
   16       24.858837   0.000000
 
  0.2727273E+00  0.1818182E+00  0.9090909E-01  0.3005259E-02
    1       -5.494058   1.000000
    2        2.614926   1.000000
    3        3.828622   1.000000
    4        4.810304   1.000000
    5        7.960692   0.000000
    6        9.181598   0.000000
    7        9.967808   0.000000
    8       10.384761   0.000000
    9       12.581161   0.000000
   10       14.000128   0.000000
   11       15.755576   0.000000
   12       17.061786   0.000000
   13       18.219734   0.000000
   14       20.117248   0.000000
   15       22.589690   0.000000
   16       24.230419   0.000000
 
  0.3636364E+00  0.1818182E+00  0.9090909E-01  0.3005259E-02
    1       -4.989919   1.000000
    2        1.311069   1.000000
    3        3.275062   1.000000
    4        4.497257   1.000000
    5        8.266181   0.000000
    6        9.141267   0.000000
    7       10.297027   0.000000
    8       10.503911   0.000000
    9       13.118567   0.000000
   10       15.407849   0.000000
   11       15.925124   0.000000
   12       17.817518   0.000000
   13       19.379983   0.000000
   14       20.818937   0.000000
   15       21.468153   0.000000
   16       23.474736   0.000000
 
  0.4545455E+00  0.1818182E+00  0.9090909E-01  0.3005259E-02
    1       -4.343891   1.000000
    2       -0.010559   1.000000
    3        3.019040   1.000000
    4        4.160228   1.000000
    5        8.291020   0.000000
    6        8.959345   0.000000
    7       10.396672   0.000000
    8       11.332438   0.000000
    9       14.194082   0.000000
   10       15.384327   0.000000
   11       17.145780   0.000000
   12       17.465203   0.000000
   13       19.668286   0.000000
   14       20.788398   0.000000
   15       22.312948   0.000000
   16       23.261270   0.000000
 
 -0.4545455E+00  0.1818182E+00  0.9090909E-01  0.3005259E-02
    1       -3.743503   1.000000
    2       -0.972712   1.000000
    3        2.918667   1.000000
    4        3.954290   1.000000
    5        8.259952   0.000000
    6        8.768901   0.000000
    7       10.333582   0.000000
    8       12.779717   0.000000
    9       14.314015   0.000000
   10       15.437249   0.000000
   11       16.696927   0.000000
   12       18.064527   0.000000
   13       18.994298   0.000000
   14       20.773855   0.000000
   15       23.185738   0.000000
   16       24.965464   0.000000
 
 -0.3636364E+00  0.1818182E+00  0.9090909E-01  0.3005259E-02
    1       -3.743699   1.000000
    2       -0.972570   1.000000
    3        2.917739   1.000000
    4        3.955057   1.000000
    5        8.258923   0.000000
    6        8.770187   0.000000
    7       10.333945   0.000000
    8       12.789872   0.000000
    9       14.305339   0.000000
   10       15.438475   0.000000
   11       16.693258   0.000000
   12       18.064685   0.000000
   13       18.981683   0.000000
   14       20.787254   0.000000
   15       23.187222   0.000000
   16       24.965561   0.000000
 
 -0.2727273E+00  0.1818182E+00  0.9090909E-01  0.3005259E-02
    1       -4.344227   1.000000
    2       -0.010503   1.000000
    3        3.016717   1.000000
    4        4.162270   1.000000
    5        8.288889   0.000000
    6        8.962488   0.000000
    7       10.397664   0.000000
    8       11.341755   0.000000
    9       14.195723   0.000000
   10       15.379866   0.000000
   11       17.134197   0.000000
   12       17.457800   0.000000
   13       19.667805   0.000000
   14       20.790770   0.000000
   15       22.315835   0.000000
   16       23.267088   0.000000
 
 -0.1818182E+00  0.1818182E+00  0.9090909E-01  0.3005259E-02
    1       -4.990223   1.000000
    2        1.310309   1.000000
    3        3.272447   1.000000
    4        4.500326   1.000000
    5        8.264648   0.000000
    6        9.146359   0.000000
    7       10.299796   0.000000
    8       10.508243   0.000000
    9       13.120109   0.000000
   10       15.398414   0.000000
   11       15.922156   0.000000
   12       17.817446   0.000000
   13       19.378429   0.000000
   14       20.811046   0.000000
   15       21.464616   0.000000
   16       23.472060   0.000000
 
 -0.9090909E-01  0.1818182E+00  0.9090909E-01  0.3005259E-02
    1       -5.494278   1.000000
    2        2.611522   1.000000
    3        3.827901   1.000000
    4        4.814568   1.000000
    5        7.961606   0.000000
    6        9.186487   0.000000
    7        9.969126   0.000000
    8       10.385711   0.000000
    9       12.581129   0.000000
   10       13.995066   0.000000
   11       15.752967   0.000000
   12       17.064715   0.000000
   13       18.218541   0.000000
   14       20.112469   0.000000
   15       22.577026   0.000000
   16       24.230839   0.000000
 
  0.2727273E+00  0.2727273E+00  0.9090909E-01  0.1502630E-02
    1       -5.248990   1.000000
    2        2.173679   1.000000
    3        3.905024   1.000000
    4        3.987487   1.000000
    5        7.282202   0.000000
    6        9.307402   0.000000
    7       10.450976   0.000000
    8       10.747057   0.000000
    9       13.503952   0.000000
   10       14.288323   0.000000
   11       16.324225   0.000000
   12       17.730783   0.000000
   13       18.673430   0.000000
   14       19.946327   0.000000
   15       22.511700   0.000000
   16       22.968559   0.000000
 
  0.3636364E+00  0.2727273E+00  0.9090909E-01  0.3005259E-02
    1       -4.807283   1.000000
    2        1.332471   1.000000
    3        3.124300   1.000000
    4        3.824202   1.000000
    5        7.407121   0.000000
    6        8.925120   0.000000
    7       10.559726   0.000000
    8       11.600413   0.000000
    9       14.033553   0.000000
   10       15.523409   0.000000
   11       17.006379   0.000000
   12       18.047852   0.000000
   13       19.334710   0.000000
   14       20.781445   0.000000
   15       20.868744   0.000000
   16       23.065603   0.000000
 
  0.4545455E+00  0.2727273E+00  0.9090909E-01  0.3005259E-02
    1       -4.200562   1.000000
    2        0.266806   1.000000
    3        2.559083   1.000000
    4        3.517391   1.000000
    5        7.765344   0.000000
    6        9.333231   0.000000
    7       10.247822   0.000000
    8       11.992354   0.000000
    9       14.883320   0.000000
   10       16.253557   0.000000
   11       17.370897   0.000000
   12       18.054828   0.000000
   13       19.647488   0.000000
   14       20.266991   0.000000
   15       21.872928   0.000000
   16       23.615358   0.000000
 
 -0.4545455E+00  0.2727273E+00  0.9090909E-01  0.3005259E-02
    1       -3.541406   1.000000
    2       -0.723836   1.000000
    3        2.177612   1.000000
    4        3.366067   1.000000
    5        7.897381   0.000000
    6        9.866177   0.000000
    7       10.677233   0.000000
    8       11.950391   0.000000
    9       14.590315   0.000000
   10       16.232029   0.000000
   11       17.255969   0.000000
   12       18.510128   0.000000
   13       19.291882   0.000000
   14       21.888722   0.000000
   15       23.255068   0.000000
   16       23.976920   0.000000
 
 -0.3636364E+00  0.2727273E+00  0.9090909E-01  0.3005259E-02
    1       -3.282014   1.000000
    2       -1.064494   1.000000
    3        1.950673   1.000000
    4        3.454767   1.000000
    5        8.106327   0.000000
    6        9.604166   0.000000
    7       11.838219   0.000000
    8       12.344804   0.000000
    9       12.839257   0.000000
   10       15.556615   0.000000
   11       17.708531   0.000000
   12       18.551577   0.000000
   13       21.108038   0.000000
   14       21.557657   0.000000
   15       22.787938   0.000000
   16       23.741491   0.000000
 
 -0.2727273E+00  0.2727273E+00  0.9090909E-01  0.3005259E-02
    1       -3.776842   1.000000
    2       -0.389906   1.000000
    3        1.942006   1.000000
    4        3.745198   1.000000
    5        8.460377   0.000000
    6        9.417941   0.000000
    7       11.138755   0.000000
    8       11.771161   0.000000
    9       14.044651   0.000000
   10       14.309571   0.000000
   11       17.941728   0.000000
   12       19.538863   0.000000
   13       20.081002   0.000000
   14       20.605460   0.000000
   15       22.982562   0.000000
   16       23.268005   0.000000
 
 -0.1818182E+00  0.2727273E+00  0.9090909E-01  0.3005259E-02
    1       -4.439409   1.000000
    2        0.575966   1.000000
    3        2.314806   1.000000
    4        4.152324   1.000000
    5        8.886452   0.000000
    6        9.010011   0.000000
    7       10.261705   0.000000
    8       11.312958   0.000000
    9       13.132719   0.000000
   10       15.994071   0.000000
   11       17.454889   0.000000
   12       18.041479   0.000000
   13       19.043444   0.000000
   14       21.322252   0.000000
   15       21.649414   0.000000
   16       24.164617   0.000000
 
 -0.9090909E-01  0.2727273E+00  0.9090909E-01  0.3005259E-02
    1       -4.990223   1.000000
    2        1.311080   1.000000
    3        3.270019   1.000000
    4        4.502640   1.000000
    5        8.266829   0.000000
    6        9.149590   0.000000
    7       10.294619   0.000000
    8       10.498713   0.000000
    9       13.129090   0.000000
   10       15.398363   0.000000
   11       15.923346   0.000000
   12       17.816295   0.000000
   13       19.378122   0.000000
   14       20.808231   0.000000
   15       21.471781   0.000000
   16       23.482239   0.000000
 
  0.3636364E+00  0.3636364E+00  0.9090909E-01  0.1502630E-02
    1       -4.427987   1.000000
    2        0.765739   1.000000
    3        3.084887   1.000000
    4        3.386721   1.000000
    5        6.780275   0.000000
    6        8.148550   0.000000
    7       11.991318   0.000000
    8       12.175816   0.000000
    9       15.424256   0.000000
   10       15.493321   0.000000
   11       17.623009   0.000000
   12       18.852342   0.000000
   13       19.315876   0.000000
   14       20.285598   0.000000
   15       21.358559   0.000000
   16       22.297176   0.000000
 
  0.4545455E+00  0.3636364E+00  0.9090909E-01  0.3005259E-02
    1       -3.871824   1.000000
    2       -0.025140   1.000000
    3        2.656447   1.000000
    4        3.040249   1.000000
    5        7.056078   0.000000
    6        7.905604   0.000000
    7       11.924303   0.000000
    8       13.324231   0.000000
    9       15.654314   0.000000
   10       16.797985   0.000000
   11       17.327438   0.000000
   12       18.770383   0.000000
   13       19.628124   0.000000
   14       20.297293   0.000000
   15       21.710296   0.000000
   16       22.299885   0.000000
 
 -0.4545455E+00  0.3636364E+00  0.9090909E-01  0.3005259E-02
    1       -3.203848   1.000000
    2       -0.836513   1.000000
    3        2.027300   1.000000
    4        2.865919   1.000000
    5        7.399596   0.000000
    6        8.706902   0.000000
    7       11.577601   0.000000
    8       13.687951   0.000000
    9       14.867927   0.000000
   10       16.708007   0.000000
   11       17.576110   0.000000
   12       19.318606   0.000000
   13       20.063569   0.000000
   14       20.618828   0.000000
   15       22.539873   0.000000
   16       23.096042   0.000000
 
 -0.3636364E+00  0.3636364E+00  0.9090909E-01  0.3005259E-02
    1       -2.746420   1.000000
    2       -1.324888   1.000000
    3        1.516061   1.000000
    4        2.980619   1.000000
    5        7.611462   0.000000
    6       10.261287   0.000000
    7       11.279732   0.000000
    8       12.876448   0.000000
    9       13.643273   0.000000
   10       15.656588   0.000000
   11       18.589246   0.000000
   12       19.815784   0.000000
   13       21.069480   0.000000
   14       21.525655   0.000000
   15       22.715909   0.000000
   16       23.647291   0.000000
 
 -0.2727273E+00  0.3636364E+00  0.9090909E-01  0.3005259E-02
    1       -3.125848   1.000000
    2       -0.930043   1.000000
    3        1.413037   1.000000
    4        3.298584   1.000000
    5        7.976681   0.000000
    6       10.672351   0.000000
    7       11.396058   0.000000
    8       12.278285   0.000000
    9       13.128248   0.000000
   10       14.329165   0.000000
   11       19.695766   0.000000
   12       20.018777   0.000000
   13       20.177704   0.000000
   14       21.971942   0.000000
   15       22.055194   0.000000
   16       23.147107   0.000000
 
 -0.1818182E+00  0.3636364E+00  0.9090909E-01  0.3005259E-02
    1       -3.776811   1.000000
    2       -0.389756   1.000000
    3        1.940275   1.000000
    4        3.747085   1.000000
    5        8.459702   0.000000
    6        9.427241   0.000000
    7       11.130609   0.000000
    8       11.759728   0.000000
    9       14.053861   0.000000
   10       14.311644   0.000000
   11       17.942432   0.000000
   12       19.540942   0.000000
   13       20.091339   0.000000
   14       20.599720   0.000000
   15       22.972163   0.000000
   16       23.263440   0.000000
 
 -0.9090909E-01  0.3636364E+00  0.9090909E-01  0.3005259E-02
    1       -4.344221   1.000000
    2       -0.010052   1.000000
    3        3.012426   1.000000
    4        4.167041   1.000000
    5        8.291329   0.000000
    6        8.969100   0.000000
    7       10.387345   0.000000
    8       11.329156   0.000000
    9       14.209391   0.000000
   10       15.380785   0.000000
   11       17.133840   0.000000
   12       17.457941   0.000000
   13       19.680629   0.000000
   14       20.784686   0.000000
   15       22.315099   0.000000
   16       23.257138   0.000000
 
  0.4545455E+00  0.4545455E+00  0.9090909E-01  0.1502630E-02
    1       -3.367263   1.000000
    2       -0.693781   1.000000
    3        2.592584   1.000000
    4        3.012142   1.000000
    5        6.505539   0.000000
    6        7.324859   0.000000
    7       13.674676   0.000000
    8       13.682572   0.000000
    9       16.994025   0.000000
   10       17.019362   0.000000
   11       17.297997   0.000000
   12       17.505244   0.000000
   13       20.035625   0.000000
   14       20.583580   0.000000
   15       21.234000   0.000000
   16       23.289777   0.000000
 
 -0.4545455E+00  0.4545455E+00  0.9090909E-01  0.3005259E-02
    1       -2.721244   1.000000
    2       -1.409661   1.000000
    3        2.468624   1.000000
    4        2.588033   1.000000
    5        6.990069   0.000000
    6        7.259162   0.000000
    7       13.441625   0.000000
    8       14.843067   0.000000
    9       15.457874   0.000000
   10       16.874279   0.000000
   11       17.580457   0.000000
   12       19.064327   0.000000
   13       19.257238   0.000000
   14       20.849801   0.000000
   15       22.096565   0.000000
   16       23.465581   0.000000
 
 -0.3636364E+00  0.4545455E+00  0.9090909E-01  0.3005259E-02
    1       -2.228666   1.000000
    2       -1.847965   1.000000
    3        1.823234   1.000000
    4        2.660064   1.000000
    5        7.269461   0.000000
    6        8.501189   0.000000
    7       12.999509   0.000000
    8       13.228785   0.000000
    9       15.253038   0.000000
   10       15.890090   0.000000
   11       18.483947   0.000000
   12       19.276473   0.000000
   13       20.986494   0.000000
   14       21.643700   0.000000
   15       22.202128   0.000000
   16       22.610920   0.000000
 
 -0.2727273E+00  0.4545455E+00  0.9090909E-01  0.3005259E-02
    1       -2.745958   1.000000
    2       -1.325823   1.000000
    3        1.515129   1.000000
    4        2.982215   1.000000
    5        7.611474   0.000000
    6       10.261237   0.000000
    7       11.290778   0.000000
    8       12.866721   0.000000
    9       13.629662   0.000000
   10       15.669497   0.000000
   11       18.603321   0.000000
   12       19.812272   0.000000
   13       21.059224   0.000000
   14       21.509042   0.000000
   15       22.716385   0.000000
   16       23.663394   0.000000
 
 -0.1818182E+00  0.4545455E+00  0.9090909E-01  0.3005259E-02
    1       -3.281786   1.000000
    2       -1.064946   1.000000
    3        1.947611   1.000000
    4        3.458573   1.000000
    5        8.105976   0.000000
    6        9.614098   0.000000
    7       11.827929   0.000000
    8       12.346711   0.000000
    9       12.824488   0.000000
   10       15.570249   0.000000
   11       17.716774   0.000000
   12       18.558046   0.000000
   13       21.089205   0.000000
   14       21.556622   0.000000
   15       22.785160   0.000000
   16       23.734928   0.000000
 
 -0.9090909E-01  0.4545455E+00  0.9090909E-01  0.3005259E-02
    1       -3.743623   1.000000
    2       -0.972583   1.000000
    3        2.911393   1.000000
    4        3.962411   1.000000
    5        8.259363   0.000000
    6        8.779178   0.000000
    7       10.322571   0.000000
    8       12.777256   0.000000
    9       14.308066   0.000000
   10       15.445613   0.000000
   11       16.702572   0.000000
   12       18.072630   0.000000
   13       18.983972   0.000000
   14       20.769223   0.000000
   15       23.187421   0.000000
   16       24.963759   0.000000
 
 -0.4545455E+00 -0.4545455E+00  0.9090909E-01  0.1502630E-02
    1       -2.156025   1.000000
    2       -2.048225   1.000000
    3        2.430999   1.000000
    4        2.885371   1.000000
    5        6.440582   0.000000
    6        7.017254   0.000000
    7       14.956229   0.000000
    8       15.188157   0.000000
    9       15.707819   0.000000
   10       15.891135   0.000000
   11       18.702571   0.000000
   12       18.736331   0.000000
   13       18.806827   0.000000
   14       19.388696   0.000000
   15       23.355783   0.000000
   16       23.679700   0.000000
 
 -0.3636364E+00 -0.4545455E+00  0.9090909E-01  0.3005259E-02
    1       -2.720391   1.000000
    2       -1.411517   1.000000
    3        2.468500   1.000000
    4        2.589321   1.000000
    5        6.988758   0.000000
    6        7.260655   0.000000
    7       13.452457   0.000000
    8       14.840450   0.000000
    9       15.447709   0.000000
   10       16.876045   0.000000
   11       17.580026   0.000000
   12       19.064443   0.000000
   13       19.241629   0.000000
   14       20.865510   0.000000
   15       22.107651   0.000000
   16       23.462078   0.000000
 
 -0.2727273E+00 -0.4545455E+00  0.9090909E-01  0.3005259E-02
    1       -3.203295   1.000000
    2       -0.838645   1.000000
    3        2.025879   1.000000
    4        2.869274   1.000000
    5        7.399357   0.000000
    6        8.707406   0.000000
    7       11.588472   0.000000
    8       13.679836   0.000000
    9       14.853542   0.000000
   10       16.720018   0.000000
   11       17.588299   0.000000
   12       19.305350   0.000000
   13       20.054882   0.000000
   14       20.617341   0.000000
   15       22.550125   0.000000
   16       23.095861   0.000000
 
 -0.1818182E+00 -0.4545455E+00  0.9090909E-01  0.3005259E-02
    1       -3.541062   1.000000
    2       -0.725196   1.000000
    3        2.173350   1.000000
    4        3.372038   1.000000
    5        7.897022   0.000000
    6        9.875460   0.000000
    7       10.678970   0.000000
    8       11.939651   0.000000
    9       14.577610   0.000000
   10       16.246880   0.000000
   11       17.264350   0.000000
   12       18.514331   0.000000
   13       19.274437   0.000000
   14       21.888817   0.000000
   15       23.248321   0.000000
   16       23.973731   0.000000
 
 -0.9090909E-01 -0.4545455E+00  0.9090909E-01  0.3005259E-02
    1       -3.743312   1.000000
    2       -0.973295   1.000000
    3        2.910913   1.000000
    4        3.963669   1.000000
    5        8.258208   0.000000
    6        8.779848   0.000000
    7       10.322518   0.000000
    8       12.780749   0.000000
    9       14.305002   0.000000
   10       15.446975   0.000000
   11       16.698230   0.000000
   12       18.075562   0.000000
   13       18.979652   0.000000
   14       20.773586   0.000000
   15       23.188807   0.000000
   16       24.964608   0.000000
 
 -0.3636364E+00 -0.3636364E+00  0.9090909E-01  0.1502630E-02
    1       -3.366706   1.000000
    2       -0.696587   1.000000
    3        2.595194   1.000000
    4        3.012120   1.000000
    5        6.504658   0.000000
    6        7.326080   0.000000
    7       13.682622   0.000000
    8       13.692826   0.000000
    9       16.981535   0.000000
   10       17.016216   0.000000
   11       17.286052   0.000000
   12       17.488627   0.000000
   13       20.046847   0.000000
   14       20.595516   0.000000
   15       21.247965   0.000000
   16       23.292249   0.000000
 
 -0.2727273E+00 -0.3636364E+00  0.9090909E-01  0.3005259E-02
    1       -3.871467   1.000000
    2       -0.028838   1.000000
    3        2.656805   1.000000
    4        3.043769   1.000000
    5        7.055127   0.000000
    6        7.906988   0.000000
    7       11.934753   0.000000
    8       13.324851   0.000000
    9       15.654320   0.000000
   10       16.785703   0.000000
   11       17.314195   0.000000
   12       18.773499   0.000000
   13       19.627295   0.000000
   14       20.303459   0.000000
   15       21.707391   0.000000
   16       22.308519   0.000000
 
 -0.1818182E+00 -0.3636364E+00  0.9090909E-01  0.3005259E-02
    1       -4.200337   1.000000
    2        0.263897   1.000000
    3        2.555172   1.000000
    4        3.524890   1.000000
    5        7.764628   0.000000
    6        9.334042   0.000000
    7       10.258162   0.000000
    8       11.984437   0.000000
    9       14.894568   0.000000
   10       16.243827   0.000000
   11       17.355333   0.000000
   12       18.054916   0.000000
   13       19.659559   0.000000
   14       20.261932   0.000000
   15       21.872753   0.000000
   16       23.615408   0.000000
 
 -0.9090909E-01 -0.3636364E+00  0.9090909E-01  0.3005259E-02
    1       -4.343753   1.000000
    2       -0.011856   1.000000
    3        3.011428   1.000000
    4        4.170479   1.000000
    5        8.288784   0.000000
    6        8.970095   0.000000
    7       10.387119   0.000000
    8       11.333291   0.000000
    9       14.208487   0.000000
   10       15.379565   0.000000
   11       17.129485   0.000000
   12       17.454979   0.000000
   13       19.682634   0.000000
   14       20.788643   0.000000
   15       22.317445   0.000000
   16       23.255463   0.000000
 
 -0.2727273E+00 -0.2727273E+00  0.9090909E-01  0.1502630E-02
    1       -4.427772   1.000000
    2        0.759997   1.000000
    3        3.091167   1.000000
    4        3.386652   1.000000
    5        6.779728   0.000000
    6        8.149630   0.000000
    7       11.999830   0.000000
    8       12.184412   0.000000
    9       15.414786   0.000000
   10       15.482683   0.000000
   11       17.618138   0.000000
   12       18.846792   0.000000
   13       19.326087   0.000000
   14       20.287434   0.000000
   15       21.344638   0.000000
   16       22.279930   0.000000
 
 -0.1818182E+00 -0.2727273E+00  0.9090909E-01  0.3005259E-02
    1       -4.807158   1.000000
    2        1.326145   1.000000
    3        3.124758   1.000000
    4        3.830998   1.000000
    5        7.406584   0.000000
    6        8.925827   0.000000
    7       10.569762   0.000000
    8       11.601195   0.000000
    9       14.034200   0.000000
   10       15.509706   0.000000
   11       17.000252   0.000000
   12       18.056545   0.000000
   13       19.335923   0.000000
   14       20.777945   0.000000
   15       20.854427   0.000000
   16       23.059581   0.000000
 
 -0.9090909E-01 -0.2727273E+00  0.9090909E-01  0.3005259E-02
    1       -4.989848   1.000000
    2        1.307911   1.000000
    3        3.269481   1.000000
    4        4.507691   1.000000
    5        8.264145   0.000000
    6        9.150063   0.000000
    7       10.295892   0.000000
    8       10.501354   0.000000
    9       13.128383   0.000000
   10       15.393542   0.000000
   11       15.921062   0.000000
   12       17.819074   0.000000
   13       19.381638   0.000000
   14       20.806449   0.000000
   15       21.469226   0.000000
   16       23.480170   0.000000
 
 -0.1818182E+00 -0.1818182E+00  0.9090909E-01  0.1502630E-02
    1       -5.248926   1.000000
    2        2.163620   1.000000
    3        3.916240   1.000000
    4        3.987318   1.000000
    5        7.282474   0.000000
    6        9.307128   0.000000
    7       10.460337   0.000000
    8       10.753216   0.000000
    9       13.494158   0.000000
   10       14.280853   0.000000
   11       16.321210   0.000000
   12       17.741436   0.000000
   13       18.674209   0.000000
   14       19.936552   0.000000
   15       22.490695   0.000000
   16       22.958600   0.000000
 
 -0.9090909E-01 -0.1818182E+00  0.9090909E-01  0.3005259E-02
    1       -5.494028   1.000000
    2        2.606139   1.000000
    3        3.828981   1.000000
    4        4.820518   1.000000
    5        7.960388   0.000000
    6        9.187578   0.000000
    7        9.968849   0.000000
    8       10.387359   0.000000
    9       12.580320   0.000000
   10       13.989835   0.000000
   11       15.751691   0.000000
   12       17.069274   0.000000
   13       18.221169   0.000000
   14       20.109734   0.000000
   15       22.572208   0.000000
   16       24.230876   0.000000
 
 -0.9090909E-01 -0.9090909E-01  0.9090909E-01  0.1502630E-02
    1       -5.807022   1.000000
    2        3.460477   1.000000
    3        4.752592   1.000000
    4        4.933426   1.000000
    5        7.902502   0.000000
    6        8.873727   0.000000
    7        9.425613   0.000000
    8       10.497508   0.000000
    9       12.221365   0.000000
   10       13.450236   0.000000
   11       14.909085   0.000000
   12       16.664981   0.000000
   13       17.897598   0.000000
   14       18.789180   0.000000
   15       23.198689   0.000000
   16       24.837351   0.000000
 
  0.0000000E+00  0.0000000E+00  0.1818182E+00  0.1502630E-02
    1       -5.773822   1.000000
    2        2.973978   1.000000
    3        5.126902   1.000000
    4        5.133109   1.000000
    5        7.858560   0.000000
    6        8.893148   0.000000
    7        8.893552   0.000000
    8       11.183586   0.000000
    9       12.679750   0.000000
   10       12.682372   0.000000
   11       14.691155   0.000000
   12       16.304300   0.000000
   13       18.929039   0.000000
   14       18.933715   0.000000
   15       23.083833   0.000000
   16       24.960347   0.000000
 
  0.9090909E-01  0.0000000E+00  0.1818182E+00  0.3005259E-02
    1       -5.806952   1.000000
    2        3.461268   1.000000
    3        4.757180   1.000000
    4        4.928679   1.000000
    5        7.902202   0.000000
    6        8.869133   0.000000
    7        9.426417   0.000000
    8       10.498049   0.000000
    9       12.222789   0.000000
   10       13.450975   0.000000
   11       14.909840   0.000000
   12       16.664503   0.000000
   13       17.895048   0.000000
   14       18.792504   0.000000
   15       23.199374   0.000000
   16       24.845539   0.000000
 
  0.1818182E+00  0.0000000E+00  0.1818182E+00  0.3005259E-02
    1       -5.629690   1.000000
    2        3.310241   1.000000
    3        4.321687   1.000000
    4        4.330503   1.000000
    5        7.230518   0.000000
    6        9.702939   0.000000
    7       10.171829   0.000000
    8       10.172127   0.000000
    9       12.305236   0.000000
   10       13.966786   0.000000
   11       15.564760   0.000000
   12       17.779931   0.000000
   13       17.787937   0.000000
   14       18.379497   0.000000
   15       24.321287   0.000000
   16       24.496349   0.000000
 
  0.2727273E+00  0.0000000E+00  0.1818182E+00  0.3005259E-02
    1       -5.249138   1.000000
    2        2.170500   1.000000
    3        3.904102   1.000000
    4        3.992169   1.000000
    5        7.283163   0.000000
    6        9.307007   0.000000
    7       10.453402   0.000000
    8       10.748999   0.000000
    9       13.501269   0.000000
   10       14.287626   0.000000
   11       16.324084   0.000000
   12       17.733936   0.000000
   13       18.669563   0.000000
   14       19.943125   0.000000
   15       22.505540   0.000000
   16       22.964943   0.000000
 
  0.3636364E+00  0.0000000E+00  0.1818182E+00  0.3005259E-02
    1       -4.688187   1.000000
    2        0.819783   1.000000
    3        3.378717   1.000000
    4        3.797792   1.000000
    5        7.518674   0.000000
    6        9.662651   0.000000
    7       10.251829   0.000000
    8       10.832009   0.000000
    9       15.093968   0.000000
   10       15.220257   0.000000
   11       16.091447   0.000000
   12       18.809195   0.000000
   13       18.960644   0.000000
   14       20.596587   0.000000
   15       21.534976   0.000000
   16       22.805771   0.000000
 
  0.4545455E+00  0.0000000E+00  0.1818182E+00  0.3005259E-02
    1       -4.021536   1.000000
    2       -0.396938   1.000000
    3        2.909197   1.000000
    4        3.765308   1.000000
    5        7.557852   0.000000
    6       10.023445   0.000000
    7       10.585199   0.000000
    8       10.865448   0.000000
    9       15.491127   0.000000
   10       16.409755   0.000000
   11       17.044136   0.000000
   12       17.210411   0.000000
   13       18.252229   0.000000
   14       21.603401   0.000000
   15       23.207075   0.000000
   16       23.382381   0.000000
 
 -0.4545455E+00  0.0000000E+00  0.1818182E+00  0.3005259E-02
    1       -3.550761   1.000000
    2       -1.092061   1.000000
    3        2.579745   1.000000
    4        3.893753   1.000000
    5        7.653873   0.000000
    6        9.898572   0.000000
    7       10.299269   0.000000
    8       12.473700   0.000000
    9       14.652929   0.000000
   10       15.103047   0.000000
   11       17.046649   0.000000
   12       18.309300   0.000000
   13       18.968102   0.000000
   14       21.156894   0.000000
   15       24.181755   0.000000
   16       24.433548   0.000000
 
 -0.3636364E+00  0.0000000E+00  0.1818182E+00  0.3005259E-02
    1       -3.828509   1.000000
    2       -0.690720   1.000000
    3        2.431427   1.000000
    4        4.167107   1.000000
    5        7.898286   0.000000
    6        9.892487   0.000000
    7       10.076642   0.000000
    8       13.290521   0.000000
    9       13.395390   0.000000
   10       14.216626   0.000000
   11       16.928948   0.000000
   12       19.298790   0.000000
   13       20.278357   0.000000
   14       20.491866   0.000000
   15       21.928273   0.000000
   16       24.254054   0.000000
 
 -0.2727273E+00  0.0000000E+00  0.1818182E+00  0.3005259E-02
    1       -4.486203   1.000000
    2        0.403852   1.000000
    3        2.516656   1.000000
    4        4.547982   1.000000
    5        8.254767   0.000000
    6        9.831881   0.000000
    7        9.947795   0.000000
    8       11.906338   0.000000
    9       12.160420   0.000000
   10       15.653988   0.000000
   11       17.346812   0.000000
   12       17.620735   0.000000
   13       19.430184   0.000000
   14       21.456410   0.000000
   15       22.123774   0.000000
   16       23.061309   0.000000
 
 -0.1818182E+00  0.0000000E+00  0.1818182E+00  0.3005259E-02
    1       -5.091655   1.000000
    2        1.574820   1.000000
    3        2.998249   1.000000
    4        4.955080   1.000000
    5        8.570496   0.000000
    6        9.347463   0.000000
    7        9.641771   0.000000
    8       11.234215   0.000000
    9       11.731506   0.000000
   10       15.484428   0.000000
   11       16.168205   0.000000
   12       17.229222   0.000000
   13       19.257989   0.000000
   14       20.513055   0.000000
   15       21.990751   0.000000
   16       24.005086   0.000000
 
 -0.9090909E-01  0.0000000E+00  0.1818182E+00  0.3005259E-02
    1       -5.531731   1.000000
    2        2.379373   1.000000
    3        4.096771   1.000000
    4        5.217856   1.000000
    5        8.286983   0.000000
    6        8.872850   0.000000
    7        9.221836   0.000000
    8       11.379365   0.000000
    9       12.019590   0.000000
   10       13.755281   0.000000
   11       15.242485   0.000000
   12       16.862060   0.000000
   13       18.646324   0.000000
   14       20.431324   0.000000
   15       22.587622   0.000000
   16       23.870490   0.000000
 
  0.9090909E-01  0.9090909E-01  0.1818182E+00  0.1502630E-02
    1       -5.912632   1.000000
    2        3.837091   1.000000
    3        4.655073   1.000000
    4        5.485027   1.000000
    5        8.473248   0.000000
    6        8.514331   0.000000
    7        8.638539   0.000000
    8       10.482330   0.000000
    9       12.354137   0.000000
   10       13.195257   0.000000
   11       14.592690   0.000000
   12       16.646327   0.000000
   13       17.353111   0.000000
   14       18.765127   0.000000
   15       22.580079   0.000000
   16       25.002668   0.000000
 
  0.1818182E+00  0.9090909E-01  0.1818182E+00  0.3005259E-02
    1       -5.806961   1.000000
    2        3.471925   1.000000
    3        4.747582   1.000000
    4        4.926313   1.000000
    5        7.900162   0.000000
    6        8.865457   0.000000
    7        9.425370   0.000000
    8       10.501159   0.000000
    9       12.225601   0.000000
   10       13.452973   0.000000
   11       14.911748   0.000000
   12       16.654350   0.000000
   13       17.902612   0.000000
   14       18.794816   0.000000
   15       23.198605   0.000000
   16       24.855068   0.000000
 
  0.2727273E+00  0.9090909E-01  0.1818182E+00  0.3005259E-02
    1       -5.494045   1.000000
    2        2.614969   1.000000
    3        3.828563   1.000000
    4        4.810298   1.000000
    5        7.960541   0.000000
    6        9.181493   0.000000
    7        9.967983   0.000000
    8       10.384841   0.000000
    9       12.581245   0.000000
   10       13.999995   0.000000
   11       15.755641   0.000000
   12       17.061718   0.000000
   13       18.219784   0.000000
   14       20.117042   0.000000
   15       22.589639   0.000000
   16       24.230851   0.000000
 
  0.3636364E+00  0.9090909E-01  0.1818182E+00  0.3005259E-02
    1       -4.989955   1.000000
    2        1.311962   1.000000
    3        3.273035   1.000000
    4        4.498426   1.000000
    5        8.265855   0.000000
    6        9.145550   0.000000
    7       10.295565   0.000000
    8       10.498097   0.000000
    9       13.121910   0.000000
   10       15.407922   0.000000
   11       15.926892   0.000000
   12       17.816004   0.000000
   13       19.379300   0.000000
   14       20.816670   0.000000
   15       21.471166   0.000000
   16       23.476728   0.000000
 
  0.4545455E+00  0.9090909E-01  0.1818182E+00  0.3005259E-02
    1       -4.343950   1.000000
    2       -0.009838   1.000000
    3        3.015700   1.000000
    4        4.163170   1.000000
    5        8.290282   0.000000
    6        8.964749   0.000000
    7       10.391373   0.000000
    8       11.328146   0.000000
    9       14.199068   0.000000
   10       15.385289   0.000000
   11       17.145770   0.000000
   12       17.465306   0.000000
   13       19.671138   0.000000
   14       20.784139   0.000000
   15       22.313250   0.000000
   16       23.259544   0.000000
 
 -0.4545455E+00  0.9090909E-01  0.1818182E+00  0.3005259E-02
    1       -3.743443   1.000000
    2       -0.972447   1.000000
    3        2.914129   1.000000
    4        3.959108   1.000000
    5        8.258131   0.000000
    6        8.774942   0.000000
    7       10.327406   0.000000
    8       12.776519   0.000000
    9       14.315853   0.000000
   10       15.439108   0.000000
   11       16.700264   0.000000
   12       18.064405   0.000000
   13       18.995929   0.000000
   14       20.769717   0.000000
   15       23.185625   0.000000
   16       24.963719   0.000000
 
 -0.3636364E+00  0.9090909E-01  0.1818182E+00  0.3005259E-02
    1       -3.743328   1.000000
    2       -0.973017   1.000000
    3        2.912727   1.000000
    4        3.961128   1.000000
    5        8.255953   0.000000
    6        8.776892   0.000000
    7       10.327713   0.000000
    8       12.790165   0.000000
    9       14.304100   0.000000
   10       15.441709   0.000000
   11       16.692259   0.000000
   12       18.067478   0.000000
   13       18.979003   0.000000
   14       20.787485   0.000000
   15       23.188505   0.000000
   16       24.964638   0.000000
 
 -0.2727273E+00  0.9090909E-01  0.1818182E+00  0.3005259E-02
    1       -4.343818   1.000000
    2       -0.011586   1.000000
    3        3.012389   1.000000
    4        4.168640   1.000000
    5        8.285615   0.000000
    6        8.968886   0.000000
    7       10.392130   0.000000
    8       11.341598   0.000000
    9       14.199809   0.000000
   10       15.379601   0.000000
   11       17.129833   0.000000
   12       17.454940   0.000000
   13       19.672660   0.000000
   14       20.790466   0.000000
   15       22.318470   0.000000
   16       23.263703   0.000000
 
 -0.1818182E+00  0.9090909E-01  0.1818182E+00  0.3005259E-02
    1       -4.989884   1.000000
    2        1.308032   1.000000
    3        3.269895   1.000000
    4        4.506537   1.000000
    5        8.261634   0.000000
    6        9.151136   0.000000
    7       10.299552   0.000000
    8       10.505106   0.000000
    9       13.122743   0.000000
   10       15.393666   0.000000
   11       15.921639   0.000000
   12       17.818715   0.000000
   13       19.381266   0.000000
   14       20.806981   0.000000
   15       21.465087   0.000000
   16       23.471999   0.000000
 
 -0.9090909E-01  0.9090909E-01  0.1818182E+00  0.3005259E-02
    1       -5.494015   1.000000
    2        2.606174   1.000000
    3        3.828943   1.000000
    4        4.820501   1.000000
    5        7.960217   0.000000
    6        9.187499   0.000000
    7        9.969019   0.000000
    8       10.387441   0.000000
    9       12.580398   0.000000
   10       13.989702   0.000000
   11       15.751760   0.000000
   12       17.069210   0.000000
   13       18.221205   0.000000
   14       20.109534   0.000000
   15       22.572157   0.000000
   16       24.231311   0.000000
 
  0.1818182E+00  0.1818182E+00  0.1818182E+00  0.1502630E-02
    1       -5.773847   1.000000
    2        2.986141   1.000000
    3        5.118665   1.000000
    4        5.127638   1.000000
    5        7.849951   0.000000
    6        8.887894   0.000000
    7        8.895281   0.000000
    8       11.190066   0.000000
    9       12.683359   0.000000
   10       12.684953   0.000000
   11       14.692862   0.000000
   12       16.296633   0.000000
   13       18.933511   0.000000
   14       18.939240   0.000000
   15       23.082056   0.000000
   16       24.978153   0.000000
 
  0.2727273E+00  0.1818182E+00  0.1818182E+00  0.3005259E-02
    1       -5.531790   1.000000
    2        2.391413   1.000000
    3        4.093458   1.000000
    4        5.206734   1.000000
    5        8.278217   0.000000
    6        8.874637   0.000000
    7        9.216332   0.000000
    8       11.381178   0.000000
    9       12.020159   0.000000
   10       13.766586   0.000000
   11       15.244245   0.000000
   12       16.855929   0.000000
   13       18.648231   0.000000
   14       20.438931   0.000000
   15       22.605428   0.000000
   16       23.868969   0.000000
 
  0.3636364E+00  0.1818182E+00  0.1818182E+00  0.3005259E-02
    1       -5.091781   1.000000
    2        1.583488   1.000000
    3        2.997765   1.000000
    4        4.944620   1.000000
    5        8.562584   0.000000
    6        9.352029   0.000000
    7        9.636467   0.000000
    8       11.233119   0.000000
    9       11.728562   0.000000
   10       15.498821   0.000000
   11       16.174383   0.000000
   12       17.223099   0.000000
   13       19.256946   0.000000
   14       20.528613   0.000000
   15       21.996626   0.000000
   16       24.006045   0.000000
 
  0.4545455E+00  0.1818182E+00  0.1818182E+00  0.3005259E-02
    1       -4.486442   1.000000
    2        0.407551   1.000000
    3        2.520863   1.000000
    4        4.538416   1.000000
    5        8.247074   0.000000
    6        9.839865   0.000000
    7        9.946580   0.000000
    8       11.900789   0.000000
    9       12.153104   0.000000
   10       15.661929   0.000000
   11       17.358551   0.000000
   12       17.630555   0.000000
   13       19.428794   0.000000
   14       21.454723   0.000000
   15       22.117324   0.000000
   16       23.064245   0.000000
 
 -0.4545455E+00  0.1818182E+00  0.1818182E+00  0.3005259E-02
    1       -3.828870   1.000000
    2       -0.689130   1.000000
    3        2.437623   1.000000
    4        4.158216   1.000000
    5        7.890413   0.000000
    6        9.893692   0.000000
    7       10.085086   0.000000
    8       13.282739   0.000000
    9       13.386868   0.000000
   10       14.227722   0.000000
   11       16.934643   0.000000
   12       19.316837   0.000000
   13       20.268062   0.000000
   14       20.483989   0.000000
   15       21.925006   0.000000
   16       24.258830   0.000000
 
 -0.3636364E+00  0.1818182E+00  0.1818182E+00  0.3005259E-02
    1       -3.550957   1.000000
    2       -1.091796   1.000000
    3        2.586986   1.000000
    4        3.885289   1.000000
    5        7.645889   0.000000
    6        9.901110   0.000000
    7       10.307247   0.000000
    8       12.485390   0.000000
    9       14.644782   0.000000
   10       15.095246   0.000000
   11       17.051058   0.000000
   12       18.298315   0.000000
   13       18.961297   0.000000
   14       21.175588   0.000000
   15       24.177257   0.000000
   16       24.431809   0.000000
 
 -0.2727273E+00  0.1818182E+00  0.1818182E+00  0.3005259E-02
    1       -4.021511   1.000000
    2       -0.397851   1.000000
    3        2.917438   1.000000
    4        3.757060   1.000000
    5        7.550093   0.000000
    6       10.026564   0.000000
    7       10.592632   0.000000
    8       10.877000   0.000000
    9       15.485581   0.000000
   10       16.403736   0.000000
   11       17.039498   0.000000
   12       17.199086   0.000000
   13       18.250875   0.000000
   14       21.610357   0.000000
   15       23.213618   0.000000
   16       23.391784   0.000000
 
 -0.1818182E+00  0.1818182E+00  0.1818182E+00  0.3005259E-02
    1       -4.688154   1.000000
    2        0.817751   1.000000
    3        3.388378   1.000000
    4        3.789570   1.000000
    5        7.512676   0.000000
    6        9.669548   0.000000
    7       10.257745   0.000000
    8       10.838236   0.000000
    9       15.086641   0.000000
   10       15.213622   0.000000
   11       16.088736   0.000000
   12       18.809446   0.000000
   13       18.958740   0.000000
   14       20.596003   0.000000
   15       21.533714   0.000000
   16       22.795646   0.000000
 
 -0.9090909E-01  0.1818182E+00  0.1818182E+00  0.3005259E-02
    1       -5.249125   1.000000
    2        2.167361   1.000000
    3        3.915624   1.000000
    4        3.983790   1.000000
    5        7.281619   0.000000
    6        9.309046   0.000000
    7       10.458216   0.000000
    8       10.752087   0.000000
    9       13.496338   0.000000
   10       14.283560   0.000000
   11       16.321293   0.000000
   12       17.735919   0.000000
   13       18.677868   0.000000
   14       19.935106   0.000000
   15       22.493888   0.000000
   16       22.961379   0.000000
 
  0.2727273E+00  0.2727273E+00  0.1818182E+00  0.1502630E-02
    1       -5.361317   1.000000
    2        1.874014   1.000000
    3        4.437991   1.000000
    4        4.549649   1.000000
    5        8.004084   0.000000
    6        8.877342   0.000000
    7        9.771535   0.000000
    8       10.954219   0.000000
    9       13.277234   0.000000
   10       13.640397   0.000000
   11       15.116698   0.000000
   12       17.379241   0.000000
   13       19.339714   0.000000
   14       20.541607   0.000000
   15       22.569563   0.000000
   16       23.105252   0.000000
 
  0.3636364E+00  0.2727273E+00  0.1818182E+00  0.3005259E-02
    1       -4.989748   1.000000
    2        1.315726   1.000000
    3        3.268863   1.000000
    4        4.497813   1.000000
    5        8.262707   0.000000
    6        9.145472   0.000000
    7       10.294823   0.000000
    8       10.498358   0.000000
    9       13.125578   0.000000
   10       15.405673   0.000000
   11       15.923782   0.000000
   12       17.818252   0.000000
   13       19.382787   0.000000
   14       20.818120   0.000000
   15       21.474535   0.000000
   16       23.482753   0.000000
 
  0.4545455E+00  0.2727273E+00  0.1818182E+00  0.3005259E-02
    1       -4.438845   1.000000
    2        0.578447   1.000000
    3        2.315194   1.000000
    4        4.148528   1.000000
    5        8.881194   0.000000
    6        9.009393   0.000000
    7       10.259235   0.000000
    8       11.311276   0.000000
    9       13.129582   0.000000
   10       16.001979   0.000000
   11       17.463734   0.000000
   12       18.040624   0.000000
   13       19.048230   0.000000
   14       21.326780   0.000000
   15       21.649859   0.000000
   16       24.167306   0.000000
 
 -0.4545455E+00  0.2727273E+00  0.1818182E+00  0.3005259E-02
    1       -3.776309   1.000000
    2       -0.389262   1.000000
    3        1.943709   1.000000
    4        3.742009   1.000000
    5        8.455319   0.000000
    6        9.422573   0.000000
    7       11.130867   0.000000
    8       11.768868   0.000000
    9       14.041975   0.000000
   10       14.319323   0.000000
   11       17.944539   0.000000
   12       19.550505   0.000000
   13       20.082031   0.000000
   14       20.602936   0.000000
   15       22.973347   0.000000
   16       23.269604   0.000000
 
 -0.3636364E+00  0.2727273E+00  0.1818182E+00  0.3005259E-02
    1       -3.281848   1.000000
    2       -1.064227   1.000000
    3        1.952369   1.000000
    4        3.452161   1.000000
    5        8.101426   0.000000
    6        9.609645   0.000000
    7       11.837840   0.000000
    8       12.351766   0.000000
    9       12.831271   0.000000
   10       15.554663   0.000000
   11       17.712606   0.000000
   12       18.551178   0.000000
   13       21.097318   0.000000
   14       21.569083   0.000000
   15       22.785630   0.000000
   16       23.742444   0.000000
 
 -0.2727273E+00  0.2727273E+00  0.1818182E+00  0.3005259E-02
    1       -3.541717   1.000000
    2       -0.723557   1.000000
    3        2.178556   1.000000
    4        3.364481   1.000000
    5        7.892707   0.000000
    6        9.872144   0.000000
    7       10.685688   0.000000
    8       11.950685   0.000000
    9       14.580308   0.000000
   10       16.234306   0.000000
   11       17.253513   0.000000
   12       18.511920   0.000000
   13       19.279897   0.000000
   14       21.891546   0.000000
   15       23.263939   0.000000
   16       23.975192   0.000000
 
 -0.1818182E+00  0.2727273E+00  0.1818182E+00  0.3005259E-02
    1       -4.200938   1.000000
    2        0.266386   1.000000
    3        2.559005   1.000000
    4        3.517568   1.000000
    5        7.761887   0.000000
    6        9.340084   0.000000
    7       10.253620   0.000000
    8       11.993377   0.000000
    9       14.885076   0.000000
   10       16.245731   0.000000
   11       17.360569   0.000000
   12       18.053907   0.000000
   13       19.647376   0.000000
   14       20.267432   0.000000
   15       21.870345   0.000000
   16       23.615464   0.000000
 
 -0.9090909E-01  0.2727273E+00  0.1818182E+00  0.3005259E-02
    1       -4.807571   1.000000
    2        1.330489   1.000000
    3        3.123846   1.000000
    4        3.826677   1.000000
    5        7.407621   0.000000
    6        8.926652   0.000000
    7       10.565394   0.000000
    8       11.601495   0.000000
    9       14.034915   0.000000
   10       15.515557   0.000000
   11       17.002729   0.000000
   12       18.051937   0.000000
   13       19.332494   0.000000
   14       20.777916   0.000000
   15       20.859508   0.000000
   16       23.062625   0.000000
 
  0.3636364E+00  0.3636364E+00  0.1818182E+00  0.1502630E-02
    1       -4.687791   1.000000
    2        0.823858   1.000000
    3        3.377706   1.000000
    4        3.793134   1.000000
    5        7.514989   0.000000
    6        9.666390   0.000000
    7       10.247954   0.000000
    8       10.829391   0.000000
    9       15.095400   0.000000
   10       15.222118   0.000000
   11       16.088884   0.000000
   12       18.811796   0.000000
   13       18.965634   0.000000
   14       20.598797   0.000000
   15       21.540582   0.000000
   16       22.811543   0.000000
 
  0.4545455E+00  0.3636364E+00  0.1818182E+00  0.3005259E-02
    1       -4.200404   1.000000
    2        0.270349   1.000000
    3        2.553215   1.000000
    4        3.518799   1.000000
    5        7.764225   0.000000
    6        9.334838   0.000000
    7       10.247931   0.000000
    8       11.983100   0.000000
    9       14.892552   0.000000
   10       16.252645   0.000000
   11       17.369083   0.000000
   12       18.055030   0.000000
   13       19.655863   0.000000
   14       20.263609   0.000000
   15       21.876664   0.000000
   16       23.614298   0.000000
 
 -0.4545455E+00  0.3636364E+00  0.1818182E+00  0.3005259E-02
    1       -3.568106   1.000000
    2       -0.411073   1.000000
    3        1.914140   1.000000
    4        3.062878   1.000000
    5        8.693631   0.000000
    6        9.339320   0.000000
    7        9.878270   0.000000
    8       13.223503   0.000000
    9       14.504883   0.000000
   10       15.058791   0.000000
   11       19.068508   0.000000
   12       19.391229   0.000000
   13       19.722739   0.000000
   14       20.125111   0.000000
   15       22.173822   0.000000
   16       23.520435   0.000000
 
 -0.3636364E+00  0.3636364E+00  0.1818182E+00  0.3005259E-02
    1       -2.946492   1.000000
    2       -1.101499   1.000000
    3        1.640403   1.000000
    4        2.748886   1.000000
    5        9.064851   0.000000
    6        9.411869   0.000000
    7       10.667907   0.000000
    8       12.524281   0.000000
    9       13.680879   0.000000
   10       16.180712   0.000000
   11       18.059510   0.000000
   12       19.528607   0.000000
   13       20.953334   0.000000
   14       21.799802   0.000000
   15       22.446145   0.000000
   16       23.999763   0.000000
 
 -0.2727273E+00  0.3636364E+00  0.1818182E+00  0.3005259E-02
    1       -2.946810   1.000000
    2       -1.101741   1.000000
    3        1.640114   1.000000
    4        2.749740   1.000000
    5        9.059895   0.000000
    6        9.417306   0.000000
    7       10.675826   0.000000
    8       12.515591   0.000000
    9       13.681439   0.000000
   10       16.182856   0.000000
   11       18.057137   0.000000
   12       19.529247   0.000000
   13       20.955362   0.000000
   14       21.789746   0.000000
   15       22.444965   0.000000
   16       24.010919   0.000000
 
 -0.1818182E+00  0.3636364E+00  0.1818182E+00  0.3005259E-02
    1       -3.568667   1.000000
    2       -0.412498   1.000000
    3        1.913847   1.000000
    4        3.065275   1.000000
    5        8.693528   0.000000
    6        9.341972   0.000000
    7        9.883978   0.000000
    8       13.224706   0.000000
    9       14.495822   0.000000
   10       15.061554   0.000000
   11       19.070452   0.000000
   12       19.385488   0.000000
   13       19.720860   0.000000
   14       20.121115   0.000000
   15       22.173189   0.000000
   16       23.518432   0.000000
 
 -0.9090909E-01  0.3636364E+00  0.1818182E+00  0.3005259E-02
    1       -4.200937   1.000000
    2        0.267268   1.000000
    3        2.553411   1.000000
    4        3.522793   1.000000
    5        7.768728   0.000000
    6        9.331349   0.000000
    7       10.254292   0.000000
    8       11.984221   0.000000
    9       14.895921   0.000000
   10       16.247005   0.000000
   11       17.360280   0.000000
   12       18.055409   0.000000
   13       19.656364   0.000000
   14       20.260313   0.000000
   15       21.872110   0.000000
   16       23.613563   0.000000
 
  0.4545455E+00  0.4545455E+00  0.1818182E+00  0.1502630E-02
    1       -3.780308   1.000000
    2       -0.245816   1.000000
    3        2.368926   1.000000
    4        3.325958   1.000000
    5        6.979313   0.000000
    6        8.890088   0.000000
    7       11.827601   0.000000
    8       12.045153   0.000000
    9       16.568721   0.000000
   10       16.828951   0.000000
   11       17.209042   0.000000
   12       17.338073   0.000000
   13       19.202267   0.000000
   14       21.122010   0.000000
   15       22.243772   0.000000
   16       23.849704   0.000000
 
 -0.4545455E+00  0.4545455E+00  0.1818182E+00  0.3005259E-02
    1       -3.203600   1.000000
    2       -0.834850   1.000000
    3        2.024065   1.000000
    4        2.866584   1.000000
    5        7.398079   0.000000
    6        8.709260   0.000000
    7       11.577398   0.000000
    8       13.678118   0.000000
    9       14.866358   0.000000
   10       16.718862   0.000000
   11       17.586299   0.000000
   12       19.315243   0.000000
   13       20.057784   0.000000
   14       20.615694   0.000000
   15       22.538947   0.000000
   16       23.098056   0.000000
 
 -0.3636364E+00  0.4545455E+00  0.1818182E+00  0.3005259E-02
    1       -2.540988   1.000000
    2       -1.453037   1.000000
    3        1.867403   1.000000
    4        2.241656   1.000000
    5        8.614445   0.000000
    6        8.820985   0.000000
    7       11.173733   0.000000
    8       12.758954   0.000000
    9       15.165629   0.000000
   10       16.608218   0.000000
   11       17.939165   0.000000
   12       19.256675   0.000000
   13       21.099155   0.000000
   14       21.860050   0.000000
   15       22.444987   0.000000
   16       23.606069   0.000000
 
 -0.2727273E+00  0.4545455E+00  0.1818182E+00  0.3005259E-02
    1       -2.346850   1.000000
    2       -1.614801   1.000000
    3        1.593756   1.000000
    4        2.278772   1.000000
    5        8.961847   0.000000
    6       10.234500   0.000000
    7       10.946521   0.000000
    8       10.960504   0.000000
    9       15.184243   0.000000
   10       16.263967   0.000000
   11       18.243709   0.000000
   12       19.412415   0.000000
   13       21.175320   0.000000
   14       22.193100   0.000000
   15       23.540215   0.000000
   16       23.692059   0.000000
 
 -0.1818182E+00  0.4545455E+00  0.1818182E+00  0.3005259E-02
    1       -2.946423   1.000000
    2       -1.102437   1.000000
    3        1.636437   1.000000
    4        2.754044   1.000000
    5        9.072964   0.000000
    6        9.411532   0.000000
    7       10.668246   0.000000
    8       12.515219   0.000000
    9       13.671215   0.000000
   10       16.194854   0.000000
   11       18.071918   0.000000
   12       19.523149   0.000000
   13       20.945718   0.000000
   14       21.787199   0.000000
   15       22.443467   0.000000
   16       24.000088   0.000000
 
 -0.9090909E-01  0.4545455E+00  0.1818182E+00  0.3005259E-02
    1       -3.541583   1.000000
    2       -0.723376   1.000000
    3        2.171125   1.000000
    4        3.372405   1.000000
    5        7.901691   0.000000
    6        9.869861   0.000000
    7       10.677172   0.000000
    8       11.939107   0.000000
    9       14.581214   0.000000
   10       16.247402   0.000000
   11       17.266589   0.000000
   12       18.512059   0.000000
   13       19.278594   0.000000
   14       21.885295   0.000000
   15       23.248096   0.000000
   16       23.975155   0.000000
 
 -0.4545455E+00 -0.4545455E+00  0.1818182E+00  0.1502630E-02
    1       -2.705863   1.000000
    2       -1.399496   1.000000
    3        1.830200   1.000000
    4        3.083978   1.000000
    5        6.674044   0.000000
    6        8.493102   0.000000
    7       13.402946   0.000000
    8       13.539716   0.000000
    9       15.279653   0.000000
   10       15.368814   0.000000
   11       18.818480   0.000000
   12       19.148650   0.000000
   13       20.776171   0.000000
   14       20.836046   0.000000
   15       21.449795   0.000000
   16       23.600577   0.000000
 
 -0.3636364E+00 -0.4545455E+00  0.1818182E+00  0.3005259E-02
    1       -2.224404   1.000000
    2       -1.851986   1.000000
    3        1.823203   1.000000
    4        2.659263   1.000000
    5        7.267425   0.000000
    6        8.504492   0.000000
    7       12.999226   0.000000
    8       13.227582   0.000000
    9       15.252693   0.000000
   10       15.888761   0.000000
   11       18.482846   0.000000
   12       19.277836   0.000000
   13       20.985888   0.000000
   14       21.646855   0.000000
   15       22.205520   0.000000
   16       22.610508   0.000000
 
 -0.2727273E+00 -0.4545455E+00  0.1818182E+00  0.3005259E-02
    1       -2.538893   1.000000
    2       -1.456999   1.000000
    3        1.866055   1.000000
    4        2.245091   1.000000
    5        8.612354   0.000000
    6        8.823742   0.000000
    7       11.183925   0.000000
    8       12.747884   0.000000
    9       15.165114   0.000000
   10       16.609659   0.000000
   11       17.938813   0.000000
   12       19.256749   0.000000
   13       21.106733   0.000000
   14       21.844172   0.000000
   15       22.445431   0.000000
   16       23.606450   0.000000
 
 -0.1818182E+00 -0.4545455E+00  0.1818182E+00  0.3005259E-02
    1       -2.945228   1.000000
    2       -1.104762   1.000000
    3        1.636455   1.000000
    4        2.755376   1.000000
    5        9.069041   0.000000
    6        9.415926   0.000000
    7       10.670395   0.000000
    8       12.512471   0.000000
    9       13.671125   0.000000
   10       16.193802   0.000000
   11       18.072084   0.000000
   12       19.524187   0.000000
   13       20.948630   0.000000
   14       21.782681   0.000000
   15       22.441705   0.000000
   16       24.004989   0.000000
 
 -0.9090909E-01 -0.4545455E+00  0.1818182E+00  0.3005259E-02
    1       -3.281208   1.000000
    2       -1.065717   1.000000
    3        1.945643   1.000000
    4        3.460771   1.000000
    5        8.110559   0.000000
    6        9.609076   0.000000
    7       11.825834   0.000000
    8       12.345006   0.000000
    9       12.828708   0.000000
   10       15.570034   0.000000
   11       17.714917   0.000000
   12       18.560430   0.000000
   13       21.092621   0.000000
   14       21.553649   0.000000
   15       22.785270   0.000000
   16       23.737154   0.000000
 
 -0.3636364E+00 -0.3636364E+00  0.1818182E+00  0.1502630E-02
    1       -2.703878   1.000000
    2       -1.403926   1.000000
    3        1.832854   1.000000
    4        3.083950   1.000000
    5        6.673843   0.000000
    6        8.493882   0.000000
    7       13.414054   0.000000
    8       13.548849   0.000000
    9       15.270375   0.000000
   10       15.356991   0.000000
   11       18.802074   0.000000
   12       19.138895   0.000000
   13       20.787437   0.000000
   14       20.852475   0.000000
   15       21.461919   0.000000
   16       23.586600   0.000000
 
 -0.2727273E+00 -0.3636364E+00  0.1818182E+00  0.3005259E-02
    1       -3.202174   1.000000
    2       -0.840900   1.000000
    3        2.028284   1.000000
    4        2.867386   1.000000
    5        7.397532   0.000000
    6        8.710973   0.000000
    7       11.587636   0.000000
    8       13.687522   0.000000
    9       14.854733   0.000000
   10       16.708834   0.000000
   11       17.575818   0.000000
   12       19.305004   0.000000
   13       20.065091   0.000000
   14       20.623648   0.000000
   15       22.550839   0.000000
   16       23.093395   0.000000
 
 -0.1818182E+00 -0.3636364E+00  0.1818182E+00  0.3005259E-02
    1       -3.567149   1.000000
    2       -0.417182   1.000000
    3        1.913981   1.000000
    4        3.068938   1.000000
    5        8.692225   0.000000
    6        9.343673   0.000000
    7        9.886278   0.000000
    8       13.224221   0.000000
    9       14.492763   0.000000
   10       15.060343   0.000000
   11       19.074201   0.000000
   12       19.385926   0.000000
   13       19.718597   0.000000
   14       20.116354   0.000000
   15       22.173535   0.000000
   16       23.521189   0.000000
 
 -0.9090909E-01 -0.3636364E+00  0.1818182E+00  0.3005259E-02
    1       -3.775689   1.000000
    2       -0.392889   1.000000
    3        1.939366   1.000000
    4        3.750646   1.000000
    5        8.464224   0.000000
    6        9.422402   0.000000
    7       11.131686   0.000000
    8       11.760602   0.000000
    9       14.054248   0.000000
   10       14.308323   0.000000
   11       17.942191   0.000000
   12       19.535773   0.000000
   13       20.093283   0.000000
   14       20.602725   0.000000
   15       22.974439   0.000000
   16       23.259588   0.000000
 
 -0.2727273E+00 -0.2727273E+00  0.1818182E+00  0.1502630E-02
    1       -3.779376   1.000000
    2       -0.253985   1.000000
    3        2.376807   1.000000
    4        3.325847   1.000000
    5        6.979068   0.000000
    6        8.891957   0.000000
    7       11.836858   0.000000
    8       12.057015   0.000000
    9       16.563376   0.000000
   10       16.811453   0.000000
   11       17.198426   0.000000
   12       17.324540   0.000000
   13       19.210470   0.000000
   14       21.128217   0.000000
   15       22.243336   0.000000
   16       23.866960   0.000000
 
 -0.1818182E+00 -0.2727273E+00  0.1818182E+00  0.3005259E-02
    1       -4.199803   1.000000
    2        0.261092   1.000000
    3        2.558831   1.000000
    4        3.522712   1.000000
    5        7.764019   0.000000
    6        9.336908   0.000000
    7       10.257609   0.000000
    8       11.992584   0.000000
    9       14.883888   0.000000
   10       16.243673   0.000000
   11       17.354769   0.000000
   12       18.057363   0.000000
   13       19.648895   0.000000
   14       20.264740   0.000000
   15       21.870909   0.000000
   16       23.615459   0.000000
 
 -0.9090909E-01 -0.2727273E+00  0.1818182E+00  0.3005259E-02
    1       -4.438461   1.000000
    2        0.570731   1.000000
    3        2.315553   1.000000
    4        4.157050   1.000000
    5        8.890562   0.000000
    6        9.008325   0.000000
    7       10.261285   0.000000
    8       11.312368   0.000000
    9       13.131778   0.000000
   10       15.991837   0.000000
   11       17.450947   0.000000
   12       18.044491   0.000000
   13       19.041046   0.000000
   14       21.324028   0.000000
   15       21.649746   0.000000
   16       24.161660   0.000000
 
 -0.1818182E+00 -0.1818182E+00  0.1818182E+00  0.1502630E-02
    1       -4.687427   1.000000
    2        0.812994   1.000000
    3        3.389326   1.000000
    4        3.792859   1.000000
    5        7.515990   0.000000
    6        9.665607   0.000000
    7       10.259719   0.000000
    8       10.840181   0.000000
    9       15.082292   0.000000
   10       15.211313   0.000000
   11       16.089571   0.000000
   12       18.812415   0.000000
   13       18.958033   0.000000
   14       20.597570   0.000000
   15       21.528064   0.000000
   16       22.793911   0.000000
 
 -0.9090909E-01 -0.1818182E+00  0.1818182E+00  0.3005259E-02
    1       -4.989532   1.000000
    2        1.304524   1.000000
    3        3.273322   1.000000
    4        4.505872   1.000000
    5        8.265425   0.000000
    6        9.150246   0.000000
    7       10.298696   0.000000
    8       10.506395   0.000000
    9       13.119093   0.000000
   10       15.392267   0.000000
   11       15.922351   0.000000
   12       17.821025   0.000000
   13       19.380971   0.000000
   14       20.804673   0.000000
   15       21.466369   0.000000
   16       23.468146   0.000000
 
 -0.9090909E-01 -0.9090909E-01  0.1818182E+00  0.1502630E-02
    1       -5.361202   1.000000
    2        1.862053   1.000000
    3        4.437443   1.000000
    4        4.563295   1.000000
    5        8.010929   0.000000
    6        8.878423   0.000000
    7        9.780290   0.000000
    8       10.957840   0.000000
    9       13.266630   0.000000
   10       13.630682   0.000000
   11       15.117345   0.000000
   12       17.382325   0.000000
   13       19.340113   0.000000
   14       20.532177   0.000000
   15       22.547678   0.000000
   16       23.094043   0.000000
 
  0.0000000E+00  0.0000000E+00  0.2727273E+00  0.1502630E-02
    1       -5.266467   1.000000
    2        1.336593   1.000000
    3        4.807278   1.000000
    4        4.812888   1.000000
    5        7.511432   0.000000
    6        9.147020   0.000000
    7        9.148227   0.000000
    8       12.751062   0.000000
    9       12.953736   0.000000
   10       12.959240   0.000000
   11       14.484255   0.000000
   12       17.820033   0.000000
   13       20.431438   0.000000
   14       20.434110   0.000000
   15       22.920367   0.000000
   16       22.929005   0.000000
 
  0.9090909E-01  0.0000000E+00  0.2727273E+00  0.3005259E-02
    1       -5.361074   1.000000
    2        1.862128   1.000000
    3        4.441659   1.000000
    4        4.560158   1.000000
    5        8.011371   0.000000
    6        8.874947   0.000000
    7        9.779689   0.000000
    8       10.952494   0.000000
    9       13.270858   0.000000
   10       13.633703   0.000000
   11       15.117565   0.000000
   12       17.382851   0.000000
   13       19.337653   0.000000
   14       20.535840   0.000000
   15       22.555670   0.000000
   16       23.099705   0.000000
 
  0.1818182E+00  0.0000000E+00  0.2727273E+00  0.3005259E-02
    1       -5.248786   1.000000
    2        2.164312   1.000000
    3        3.911809   1.000000
    4        3.991700   1.000000
    5        7.282400   0.000000
    6        9.304660   0.000000
    7       10.456594   0.000000
    8       10.753042   0.000000
    9       13.497697   0.000000
   10       14.282361   0.000000
   11       16.321782   0.000000
   12       17.740825   0.000000
   13       18.672077   0.000000
   14       19.940517   0.000000
   15       22.498566   0.000000
   16       22.962582   0.000000
 
  0.2727273E+00  0.0000000E+00  0.2727273E+00  0.3005259E-02
    1       -4.932881   1.000000
    2        1.704582   1.000000
    3        3.611743   1.000000
    4        3.619598   1.000000
    5        6.648443   0.000000
    6        8.434401   0.000000
    7       11.716250   0.000000
    8       11.716770   0.000000
    9       13.971023   0.000000
   10       14.753941   0.000000
   11       17.404067   0.000000
   12       18.786308   0.000000
   13       18.794682   0.000000
   14       19.599511   0.000000
   15       22.407521   0.000000
   16       22.410034   0.000000
 
  0.3636364E+00  0.0000000E+00  0.2727273E+00  0.3005259E-02
    1       -4.428144   1.000000
    2        0.764475   1.000000
    3        3.082122   1.000000
    4        3.391229   1.000000
    5        6.781837   0.000000
    6        8.147028   0.000000
    7       11.994575   0.000000
    8       12.178053   0.000000
    9       15.421131   0.000000
   10       15.491689   0.000000
   11       17.623702   0.000000
   12       18.847366   0.000000
   13       19.318919   0.000000
   14       20.284765   0.000000
   15       21.354419   0.000000
   16       22.291099   0.000000
 
  0.4545455E+00  0.0000000E+00  0.2727273E+00  0.3005259E-02
    1       -3.780688   1.000000
    2       -0.248114   1.000000
    3        2.368095   1.000000
    4        3.330438   1.000000
    5        6.983838   0.000000
    6        8.884780   0.000000
    7       11.832178   0.000000
    8       12.048185   0.000000
    9       16.569780   0.000000
   10       16.824911   0.000000
   11       17.206152   0.000000
   12       17.334254   0.000000
   13       19.203581   0.000000
   14       21.121735   0.000000
   15       22.240293   0.000000
   16       23.855299   0.000000
 
 -0.4545455E+00  0.0000000E+00  0.2727273E+00  0.3005259E-02
    1       -3.179824   1.000000
    2       -1.034944   1.000000
    3        1.805808   1.000000
    4        3.440877   1.000000
    5        7.116523   0.000000
    6       10.345643   0.000000
    7       11.664914   0.000000
    8       11.726418   0.000000
    9       15.033614   0.000000
   10       15.150575   0.000000
   11       18.667659   0.000000
   12       18.676621   0.000000
   13       19.192285   0.000000
   14       23.060537   0.000000
   15       23.077157   0.000000
   16       23.572842   0.000000
 
 -0.3636364E+00  0.0000000E+00  0.2727273E+00  0.3005259E-02
    1       -3.234732   1.000000
    2       -0.958745   1.000000
    3        1.528343   1.000000
    4        3.710769   1.000000
    5        7.400387   0.000000
    6       11.376814   0.000000
    7       11.396329   0.000000
    8       12.283616   0.000000
    9       13.333536   0.000000
   10       13.414766   0.000000
   11       18.620978   0.000000
   12       20.641029   0.000000
   13       20.654238   0.000000
   14       21.429382   0.000000
   15       22.051942   0.000000
   16       23.259406   0.000000
 
 -0.2727273E+00  0.0000000E+00  0.2727273E+00  0.3005259E-02
    1       -3.856350   1.000000
    2       -0.214818   1.000000
    3        1.690167   1.000000
    4        4.106317   1.000000
    5        7.834998   0.000000
    6       10.784818   0.000000
    7       11.129663   0.000000
    8       11.954765   0.000000
    9       12.336260   0.000000
   10       14.233679   0.000000
   11       18.592493   0.000000
   12       19.250003   0.000000
   13       19.698790   0.000000
   14       22.231422   0.000000
   15       22.433786   0.000000
   16       22.992901   0.000000
 
 -0.1818182E+00  0.0000000E+00  0.2727273E+00  0.3005259E-02
    1       -4.485593   1.000000
    2        0.400254   1.000000
    3        2.519890   1.000000
    4        4.547278   1.000000
    5        8.254915   0.000000
    6        9.836394   0.000000
    7        9.949911   0.000000
    8       11.903549   0.000000
    9       12.156516   0.000000
   10       15.652727   0.000000
   11       17.347513   0.000000
   12       17.623503   0.000000
   13       19.427429   0.000000
   14       21.454708   0.000000
   15       22.121657   0.000000
   16       23.063185   0.000000
 
 -0.9090909E-01  0.0000000E+00  0.2727273E+00  0.3005259E-02
    1       -4.969542   1.000000
    2        0.851507   1.000000
    3        3.801152   1.000000
    4        4.857876   1.000000
    5        7.990059   0.000000
    6        9.157795   0.000000
    7        9.352735   0.000000
    8       12.272491   0.000000
    9       12.431154   0.000000
   10       14.931036   0.000000
   11       15.105443   0.000000
   12       18.287434   0.000000
   13       19.623634   0.000000
   14       21.447749   0.000000
   15       21.456093   0.000000
   16       23.116751   0.000000
 
  0.9090909E-01  0.9090909E-01  0.2727273E+00  0.1502630E-02
    1       -5.531545   1.000000
    2        2.380225   1.000000
    3        4.100501   1.000000
    4        5.213257   1.000000
    5        8.284955   0.000000
    6        8.872886   0.000000
    7        9.219127   0.000000
    8       11.377579   0.000000
    9       12.016709   0.000000
   10       13.762731   0.000000
   11       15.244294   0.000000
   12       16.861825   0.000000
   13       18.643708   0.000000
   14       20.435963   0.000000
   15       22.601529   0.000000
   16       23.869657   0.000000
 
  0.1818182E+00  0.9090909E-01  0.2727273E+00  0.3005259E-02
    1       -5.493774   1.000000
    2        2.609571   1.000000
    3        3.829459   1.000000
    4        4.816409   1.000000
    5        7.959181   0.000000
    6        9.182852   0.000000
    7        9.967447   0.000000
    8       10.386567   0.000000
    9       12.580502   0.000000
   10       13.995015   0.000000
   11       15.754298   0.000000
   12       17.065904   0.000000
   13       18.221830   0.000000
   14       20.114854   0.000000
   15       22.585631   0.000000
   16       24.230800   0.000000
 
  0.2727273E+00  0.9090909E-01  0.2727273E+00  0.3005259E-02
    1       -5.248837   1.000000
    2        2.171235   1.000000
    3        3.912109   1.000000
    4        3.983491   1.000000
    5        7.280597   0.000000
    6        9.306961   0.000000
    7       10.452041   0.000000
    8       10.749977   0.000000
    9       13.502566   0.000000
   10       14.285765   0.000000
   11       16.321994   0.000000
   12       17.732170   0.000000
   13       18.679606   0.000000
   14       19.942268   0.000000
   15       22.507929   0.000000
   16       22.968956   0.000000
 
  0.3636364E+00  0.9090909E-01  0.2727273E+00  0.3005259E-02
    1       -4.807250   1.000000
    2        1.332551   1.000000
    3        3.124198   1.000000
    4        3.824184   1.000000
    5        7.406928   0.000000
    6        8.925077   0.000000
    7       10.559601   0.000000
    8       11.600623   0.000000
    9       14.033662   0.000000
   10       15.523298   0.000000
   11       17.006470   0.000000
   12       18.047842   0.000000
   13       19.334789   0.000000
   14       20.781674   0.000000
   15       20.868552   0.000000
   16       23.065682   0.000000
 
  0.4545455E+00  0.9090909E-01  0.2727273E+00  0.3005259E-02
    1       -4.200610   1.000000
    2        0.267988   1.000000
    3        2.554877   1.000000
    4        3.520452   1.000000
    5        7.767834   0.000000
    6        9.330525   0.000000
    7       10.248291   0.000000
    8       11.988129   0.000000
    9       14.887433   0.000000
   10       16.254791   0.000000
   11       17.370922   0.000000
   12       18.056370   0.000000
   13       19.649026   0.000000
   14       20.262398   0.000000
   15       21.873078   0.000000
   16       23.616410   0.000000
 
 -0.4545455E+00  0.9090909E-01  0.2727273E+00  0.3005259E-02
    1       -3.541319   1.000000
    2       -0.723083   1.000000
    3        2.172233   1.000000
    4        3.370844   1.000000
    5        7.900827   0.000000
    6        9.864154   0.000000
    7       10.676015   0.000000
    8       11.945048   0.000000
    9       14.590657   0.000000
   10       16.237005   0.000000
   11       17.260630   0.000000
   12       18.509488   0.000000
   13       19.291617   0.000000
   14       21.884699   0.000000
   15       23.253352   0.000000
   16       23.976920   0.000000
 
 -0.3636364E+00  0.9090909E-01  0.2727273E+00  0.3005259E-02
    1       -3.281134   1.000000
    2       -1.065416   1.000000
    3        1.946166   1.000000
    4        3.459874   1.000000
    5        8.110036   0.000000
    6        9.602623   0.000000
    7       11.832291   0.000000
    8       12.344484   0.000000
    9       12.837950   0.000000
   10       15.561248   0.000000
   11       17.710018   0.000000
   12       18.554547   0.000000
   13       21.106350   0.000000
   14       21.555134   0.000000
   15       22.787587   0.000000
   16       23.741336   0.000000
 
 -0.2727273E+00  0.9090909E-01  0.2727273E+00  0.3005259E-02
    1       -3.775694   1.000000
    2       -0.392650   1.000000
    3        1.939531   1.000000
    4        3.750174   1.000000
    5        8.464119   0.000000
    6        9.416263   0.000000
    7       11.138650   0.000000
    8       11.766570   0.000000
    9       14.047812   0.000000
   10       14.307525   0.000000
   11       17.942899   0.000000
   12       19.534885   0.000000
   13       20.084992   0.000000
   14       20.603903   0.000000
   15       22.984721   0.000000
   16       23.265407   0.000000
 
 -0.1818182E+00  0.9090909E-01  0.2727273E+00  0.3005259E-02
    1       -4.438441   1.000000
    2        0.570750   1.000000
    3        2.315525   1.000000
    4        4.157092   1.000000
    5        8.890456   0.000000
    6        9.008040   0.000000
    7       10.261176   0.000000
    8       11.312631   0.000000
    9       13.131920   0.000000
   10       15.991826   0.000000
   11       17.450924   0.000000
   12       18.044504   0.000000
   13       19.041102   0.000000
   14       21.324105   0.000000
   15       21.650037   0.000000
   16       24.162165   0.000000
 
 -0.9090909E-01  0.9090909E-01  0.2727273E+00  0.3005259E-02
    1       -4.989461   1.000000
    2        1.304427   1.000000
    3        3.272881   1.000000
    4        4.507032   1.000000
    5        8.267553   0.000000
    6        9.149061   0.000000
    7       10.295100   0.000000
    8       10.502799   0.000000
    9       13.124912   0.000000
   10       15.392079   0.000000
   11       15.921844   0.000000
   12       17.821413   0.000000
   13       19.381373   0.000000
   14       20.804057   0.000000
   15       21.470624   0.000000
   16       23.476662   0.000000
 
  0.1818182E+00  0.1818182E+00  0.2727273E+00  0.1502630E-02
    1       -5.531592   1.000000
    2        2.389008   1.000000
    3        4.090843   1.000000
    4        5.213890   1.000000
    5        8.278309   0.000000
    6        8.868390   0.000000
    7        9.220936   0.000000
    8       11.382502   0.000000
    9       12.020946   0.000000
   10       13.762227   0.000000
   11       15.242921   0.000000
   12       16.857986   0.000000
   13       18.651509   0.000000
   14       20.435866   0.000000
   15       22.601896   0.000000
   16       23.869868   0.000000
 
  0.2727273E+00  0.1818182E+00  0.2727273E+00  0.3005259E-02
    1       -5.361185   1.000000
    2        1.872614   1.000000
    3        4.432781   1.000000
    4        4.557041   1.000000
    5        8.004194   0.000000
    6        8.871661   0.000000
    7        9.776527   0.000000
    8       10.957423   0.000000
    9       13.275693   0.000000
   10       13.637689   0.000000
   11       15.115035   0.000000
   12       17.380740   0.000000
   13       19.344634   0.000000
   14       20.537303   0.000000
   15       22.566257   0.000000
   16       23.105590   0.000000
 
  0.3636364E+00  0.1818182E+00  0.2727273E+00  0.3005259E-02
    1       -4.989677   1.000000
    2        1.314858   1.000000
    3        3.270844   1.000000
    4        4.496663   1.000000
    5        8.262677   0.000000
    6        9.141053   0.000000
    7       10.296400   0.000000
    8       10.504270   0.000000
    9       13.122423   0.000000
   10       15.405535   0.000000
   11       15.922082   0.000000
   12       17.819794   0.000000
   13       19.383498   0.000000
   14       20.820323   0.000000
   15       21.471623   0.000000
   16       23.481076   0.000000
 
  0.4545455E+00  0.1818182E+00  0.2727273E+00  0.3005259E-02
    1       -4.438825   1.000000
    2        0.578470   1.000000
    3        2.315157   1.000000
    4        4.148573   1.000000
    5        8.881171   0.000000
    6        9.009035   0.000000
    7       10.259109   0.000000
    8       11.311541   0.000000
    9       13.129730   0.000000
   10       16.001967   0.000000
   11       17.463713   0.000000
   12       18.040632   0.000000
   13       19.048288   0.000000
   14       21.326839   0.000000
   15       21.650171   0.000000
   16       24.167819   0.000000
 
 -0.4545455E+00  0.1818182E+00  0.2727273E+00  0.3005259E-02
    1       -3.776283   1.000000
    2       -0.388872   1.000000
    3        1.942135   1.000000
    4        3.743430   1.000000
    5        8.454545   0.000000
    6        9.425731   0.000000
    7       11.129660   0.000000
    8       11.763427   0.000000
    9       14.044821   0.000000
   10       14.320529   0.000000
   11       17.945949   0.000000
   12       19.551713   0.000000
   13       20.084061   0.000000
   14       20.598378   0.000000
   15       22.973102   0.000000
   16       23.270991   0.000000
 
 -0.3636364E+00  0.1818182E+00  0.2727273E+00  0.3005259E-02
    1       -3.281546   1.000000
    2       -1.064378   1.000000
    3        1.949823   1.000000
    4        3.455077   1.000000
    5        8.100553   0.000000
    6        9.613124   0.000000
    7       11.834022   0.000000
    8       12.353163   0.000000
    9       12.825717   0.000000
   10       15.559515   0.000000
   11       17.715941   0.000000
   12       18.551772   0.000000
   13       21.092258   0.000000
   14       21.569486   0.000000
   15       22.785144   0.000000
   16       23.740107   0.000000
 
 -0.2727273E+00  0.1818182E+00  0.2727273E+00  0.3005259E-02
    1       -3.541109   1.000000
    2       -0.724625   1.000000
    3        2.175401   1.000000
    4        3.368893   1.000000
    5        7.891485   0.000000
    6        9.875710   0.000000
    7       10.686285   0.000000
    8       11.945879   0.000000
    9       14.577047   0.000000
   10       16.238758   0.000000
   11       17.255954   0.000000
   12       18.513542   0.000000
   13       19.275467   0.000000
   14       21.891056   0.000000
   15       23.262486   0.000000
   16       23.973702   0.000000
 
 -0.1818182E+00  0.1818182E+00  0.2727273E+00  0.3005259E-02
    1       -4.200385   1.000000
    2        0.264194   1.000000
    3        2.556574   1.000000
    4        3.522716   1.000000
    5        7.760273   0.000000
    6        9.340071   0.000000
    7       10.257965   0.000000
    8       11.989363   0.000000
    9       14.887837   0.000000
   10       16.243777   0.000000
   11       17.355646   0.000000
   12       18.054971   0.000000
   13       19.652106   0.000000
   14       20.264449   0.000000
   15       21.871137   0.000000
   16       23.618381   0.000000
 
 -0.9090909E-01  0.1818182E+00  0.2727273E+00  0.3005259E-02
    1       -4.807124   1.000000
    2        1.326218   1.000000
    3        3.124686   1.000000
    4        3.830959   1.000000
    5        7.406379   0.000000
    6        8.925795   0.000000
    7       10.569640   0.000000
    8       11.601405   0.000000
    9       14.034305   0.000000
   10       15.509595   0.000000
   11       17.000356   0.000000
   12       18.056527   0.000000
   13       19.335996   0.000000
   14       20.778015   0.000000
   15       20.854389   0.000000
   16       23.059703   0.000000
 
  0.2727273E+00  0.2727273E+00  0.2727273E+00  0.1502630E-02
    1       -5.266668   1.000000
    2        1.347527   1.000000
    3        4.799739   1.000000
    4        4.808338   1.000000
    5        7.502901   0.000000
    6        9.138295   0.000000
    7        9.147426   0.000000
    8       12.755237   0.000000
    9       12.960573   0.000000
   10       12.963794   0.000000
   11       14.482510   0.000000
   12       17.821083   0.000000
   13       20.435142   0.000000
   14       20.439059   0.000000
   15       22.938243   0.000000
   16       22.941536   0.000000
 
  0.3636364E+00  0.2727273E+00  0.2727273E+00  0.3005259E-02
    1       -4.969892   1.000000
    2        0.862552   1.000000
    3        3.798136   1.000000
    4        4.848110   1.000000
    5        7.981308   0.000000
    6        9.156612   0.000000
    7        9.344576   0.000000
    8       12.274186   0.000000
    9       12.433622   0.000000
   10       14.929861   0.000000
   11       15.118454   0.000000
   12       18.289872   0.000000
   13       19.628791   0.000000
   14       21.457949   0.000000
   15       21.463173   0.000000
   16       23.118348   0.000000
 
  0.4545455E+00  0.2727273E+00  0.2727273E+00  0.3005259E-02
    1       -4.486184   1.000000
    2        0.410917   1.000000
    3        2.516931   1.000000
    4        4.538127   1.000000
    5        8.245712   0.000000
    6        9.836797   0.000000
    7        9.942218   0.000000
    8       11.905891   0.000000
    9       12.156861   0.000000
   10       15.658984   0.000000
   11       17.356646   0.000000
   12       17.627409   0.000000
   13       19.434477   0.000000
   14       21.461141   0.000000
   15       22.124764   0.000000
   16       23.066025   0.000000
 
 -0.4545455E+00  0.2727273E+00  0.2727273E+00  0.3005259E-02
    1       -3.857302   1.000000
    2       -0.207228   1.000000
    3        1.690376   1.000000
    4        4.097853   1.000000
    5        7.825948   0.000000
    6       10.789988   0.000000
    7       11.125410   0.000000
    8       11.954576   0.000000
    9       12.331224   0.000000
   10       14.244584   0.000000
   11       18.585288   0.000000
   12       19.256634   0.000000
   13       19.716024   0.000000
   14       22.226511   0.000000
   15       22.439884   0.000000
   16       22.993881   0.000000
 
 -0.3636364E+00  0.2727273E+00  0.2727273E+00  0.3005259E-02
    1       -3.235966   1.000000
    2       -0.955108   1.000000
    3        1.532708   1.000000
    4        3.702778   1.000000
    5        7.391386   0.000000
    6       11.385685   0.000000
    7       11.403001   0.000000
    8       12.288552   0.000000
    9       13.328153   0.000000
   10       13.405989   0.000000
   11       18.625410   0.000000
   12       20.637020   0.000000
   13       20.642413   0.000000
   14       21.432178   0.000000
   15       22.065818   0.000000
   16       23.269443   0.000000
 
 -0.2727273E+00  0.2727273E+00  0.2727273E+00  0.3005259E-02
    1       -3.180214   1.000000
    2       -1.034611   1.000000
    3        1.812715   1.000000
    4        3.433152   1.000000
    5        7.107508   0.000000
    6       10.359101   0.000000
    7       11.666052   0.000000
    8       11.734222   0.000000
    9       15.025385   0.000000
   10       15.142424   0.000000
   11       18.664634   0.000000
   12       18.674409   0.000000
   13       19.188240   0.000000
   14       23.064710   0.000000
   15       23.088105   0.000000
   16       23.580315   0.000000
 
 -0.1818182E+00  0.2727273E+00  0.2727273E+00  0.3005259E-02
    1       -3.780624   1.000000
    2       -0.249718   1.000000
    3        2.376760   1.000000
    4        3.322816   1.000000
    5        6.975386   0.000000
    6        8.895450   0.000000
    7       11.835768   0.000000
    8       12.055203   0.000000
    9       16.560377   0.000000
   10       16.818711   0.000000
   11       17.196625   0.000000
   12       17.330188   0.000000
   13       19.208795   0.000000
   14       21.124893   0.000000
   15       22.247966   0.000000
   16       23.862006   0.000000
 
 -0.9090909E-01  0.2727273E+00  0.2727273E+00  0.3005259E-02
    1       -4.428090   1.000000
    2        0.762424   1.000000
    3        3.091755   1.000000
    4        3.383565   1.000000
    5        6.778292   0.000000
    6        8.151360   0.000000
    7       11.998718   0.000000
    8       12.182568   0.000000
    9       15.416335   0.000000
   10       15.485821   0.000000
   11       17.618010   0.000000
   12       18.849223   0.000000
   13       19.321794   0.000000
   14       20.285978   0.000000
   15       21.349873   0.000000
   16       22.282055   0.000000
 
  0.3636364E+00  0.3636364E+00  0.2727273E+00  0.1502630E-02
    1       -4.750626   1.000000
    2        0.387345   1.000000
    3        4.173188   1.000000
    4        4.253051   1.000000
    5        7.840109   0.000000
    6        8.930428   0.000000
    7        9.710409   0.000000
    8       11.720376   0.000000
    9       14.458082   0.000000
   10       14.536413   0.000000
   11       15.107107   0.000000
   12       18.956297   0.000000
   13       19.209516   0.000000
   14       20.673654   0.000000
   15       22.379349   0.000000
   16       22.731847   0.000000
 
  0.4545455E+00  0.3636364E+00  0.2727273E+00  0.3005259E-02
    1       -4.343473   1.000000
    2       -0.005624   1.000000
    3        3.010884   1.000000
    4        4.161971   1.000000
    5        8.285170   0.000000
    6        8.963679   0.000000
    7       10.386435   0.000000
    8       11.333614   0.000000
    9       14.204301   0.000000
   10       15.382095   0.000000
   11       17.141875   0.000000
   12       17.463202   0.000000
   13       19.680130   0.000000
   14       20.790331   0.000000
   15       22.322356   0.000000
   16       23.263971   0.000000
 
 -0.4545455E+00  0.3636364E+00  0.2727273E+00  0.3005259E-02
    1       -3.776044   1.000000
    2       -0.386321   1.000000
    3        1.939302   1.000000
    4        3.742897   1.000000
    5        8.453960   0.000000
    6        9.420983   0.000000
    7       11.135202   0.000000
    8       11.758353   0.000000
    9       14.051007   0.000000
   10       14.318547   0.000000
   11       17.939611   0.000000
   12       19.549717   0.000000
   13       20.092361   0.000000
   14       20.604119   0.000000
   15       22.982083   0.000000
   16       23.267285   0.000000
 
 -0.3636364E+00  0.3636364E+00  0.2727273E+00  0.3005259E-02
    1       -3.125282   1.000000
    2       -0.928286   1.000000
    3        1.413714   1.000000
    4        3.294805   1.000000
    5        7.971051   0.000000
    6       10.672916   0.000000
    7       11.393798   0.000000
    8       12.286244   0.000000
    9       13.127047   0.000000
   10       14.325882   0.000000
   11       19.694255   0.000000
   12       20.018584   0.000000
   13       20.180601   0.000000
   14       21.983006   0.000000
   15       22.056142   0.000000
   16       23.148113   0.000000
 
 -0.2727273E+00  0.3636364E+00  0.2727273E+00  0.3005259E-02
    1       -2.746457   1.000000
    2       -1.324024   1.000000
    3        1.518013   1.000000
    4        2.977116   1.000000
    5        7.605928   0.000000
    6       10.269592   0.000000
    7       11.286185   0.000000
    8       12.868255   0.000000
    9       13.641206   0.000000
   10       15.654587   0.000000
   11       18.590773   0.000000
   12       19.819457   0.000000
   13       21.066990   0.000000
   14       21.517712   0.000000
   15       22.714392   0.000000
   16       23.656672   0.000000
 
 -0.1818182E+00  0.3636364E+00  0.2727273E+00  0.3005259E-02
    1       -3.204181   1.000000
    2       -0.836327   1.000000
    3        2.029641   1.000000
    4        2.863096   1.000000
    5        7.394393   0.000000
    6        8.714242   0.000000
    7       11.584423   0.000000
    8       13.688123   0.000000
    9       14.858125   0.000000
   10       16.709404   0.000000
   11       17.574336   0.000000
   12       19.310581   0.000000
   13       20.065280   0.000000
   14       20.621131   0.000000
   15       22.546154   0.000000
   16       23.095711   0.000000
 
 -0.9090909E-01  0.3636364E+00  0.2727273E+00  0.3005259E-02
    1       -3.872124   1.000000
    2       -0.025811   1.000000
    3        2.656237   1.000000
    4        3.041168   1.000000
    5        7.055985   0.000000
    6        7.906898   0.000000
    7       11.931005   0.000000
    8       13.324863   0.000000
    9       15.655494   0.000000
   10       16.789467   0.000000
   11       17.318735   0.000000
   12       18.771904   0.000000
   13       19.627635   0.000000
   14       20.300860   0.000000
   15       21.708037   0.000000
   16       22.304908   0.000000
 
  0.4545455E+00  0.4545455E+00  0.2727273E+00  0.1502630E-02
    1       -4.020897   1.000000
    2       -0.392848   1.000000
    3        2.907434   1.000000
    4        3.760716   1.000000
    5        7.552798   0.000000
    6       10.018783   0.000000
    7       10.582123   0.000000
    8       10.871580   0.000000
    9       15.487502   0.000000
   10       16.412944   0.000000
   11       17.047011   0.000000
   12       17.212595   0.000000
   13       18.253180   0.000000
   14       21.610574   0.000000
   15       23.214572   0.000000
   16       23.389223   0.000000
 
 -0.4545455E+00  0.4545455E+00  0.2727273E+00  0.3005259E-02
    1       -3.540896   1.000000
    2       -0.719892   1.000000
    3        2.170242   1.000000
    4        3.368066   1.000000
    5        7.895731   0.000000
    6        9.863275   0.000000
    7       10.683136   0.000000
    8       11.937958   0.000000
    9       14.588265   0.000000
   10       16.243206   0.000000
   11       17.263280   0.000000
   12       18.510421   0.000000
   13       19.288035   0.000000
   14       21.890639   0.000000
   15       23.257663   0.000000
   16       23.978854   0.000000
 
 -0.3636364E+00  0.4545455E+00  0.2727273E+00  0.3005259E-02
    1       -2.945894   1.000000
    2       -1.100183   1.000000
    3        1.636519   1.000000
    4        2.750630   1.000000
    5        9.065811   0.000000
    6        9.405728   0.000000
    7       10.674306   0.000000
    8       12.522890   0.000000
    9       13.669957   0.000000
   10       16.191423   0.000000
   11       18.068873   0.000000
   12       19.520889   0.000000
   13       20.949185   0.000000
   14       21.798643   0.000000
   15       22.447017   0.000000
   16       24.008119   0.000000
 
 -0.2727273E+00  0.4545455E+00  0.2727273E+00  0.3005259E-02
    1       -2.346837   1.000000
    2       -1.613883   1.000000
    3        1.595145   1.000000
    4        2.276195   1.000000
    5        8.955054   0.000000
    6       10.240238   0.000000
    7       10.951624   0.000000
    8       10.956711   0.000000
    9       15.183648   0.000000
   10       16.261952   0.000000
   11       18.243115   0.000000
   12       19.413831   0.000000
   13       21.172967   0.000000
   14       22.196169   0.000000
   15       23.543495   0.000000
   16       23.694905   0.000000
 
 -0.1818182E+00  0.4545455E+00  0.2727273E+00  0.3005259E-02
    1       -2.541286   1.000000
    2       -1.453344   1.000000
    3        1.866919   1.000000
    4        2.242750   1.000000
    5        8.613395   0.000000
    6        8.822582   0.000000
    7       11.181066   0.000000
    8       12.750811   0.000000
    9       15.166018   0.000000
   10       16.609372   0.000000
   11       17.939417   0.000000
   12       19.255997   0.000000
   13       21.101991   0.000000
   14       21.850451   0.000000
   15       22.445812   0.000000
   16       23.608533   0.000000
 
 -0.9090909E-01  0.4545455E+00  0.2727273E+00  0.3005259E-02
    1       -3.204038   1.000000
    2       -0.836240   1.000000
    3        2.022545   1.000000
    4        2.870357   1.000000
    5        7.403541   0.000000
    6        8.703736   0.000000
    7       11.584861   0.000000
    8       13.678619   0.000000
    9       14.858606   0.000000
   10       16.721003   0.000000
   11       17.588614   0.000000
   12       19.306695   0.000000
   13       20.057654   0.000000
   14       20.615435   0.000000
   15       22.544780   0.000000
   16       23.097268   0.000000
 
 -0.4545455E+00 -0.4545455E+00  0.2727273E+00  0.1502630E-02
    1       -3.179341   1.000000
    2       -1.032030   1.000000
    3        1.805477   1.000000
    4        3.436498   1.000000
    5        7.111410   0.000000
    6       10.352385   0.000000
    7       11.660312   0.000000
    8       11.723077   0.000000
    9       15.034145   0.000000
   10       15.153315   0.000000
   11       18.665833   0.000000
   12       18.678256   0.000000
   13       19.194684   0.000000
   14       23.063071   0.000000
   15       23.075016   0.000000
   16       23.579449   0.000000
 
 -0.3636364E+00 -0.4545455E+00  0.2727273E+00  0.3005259E-02
    1       -2.744493   1.000000
    2       -1.324889   1.000000
    3        1.513048   1.000000
    4        2.980911   1.000000
    5        7.609807   0.000000
    6       10.263313   0.000000
    7       11.281136   0.000000
    8       12.874194   0.000000
    9       13.631343   0.000000
   10       15.665821   0.000000
   11       18.601711   0.000000
   12       19.809399   0.000000
   13       21.062270   0.000000
   14       21.522283   0.000000
   15       22.723912   0.000000
   16       23.651716   0.000000
 
 -0.2727273E+00 -0.4545455E+00  0.2727273E+00  0.3005259E-02
    1       -2.342989   1.000000
    2       -1.618726   1.000000
    3        1.593109   1.000000
    4        2.279297   1.000000
    5        8.959294   0.000000
    6       10.235800   0.000000
    7       10.951071   0.000000
    8       10.957260   0.000000
    9       15.183195   0.000000
   10       16.262336   0.000000
   11       18.242343   0.000000
   12       19.414475   0.000000
   13       21.178483   0.000000
   14       22.192658   0.000000
   15       23.542015   0.000000
   16       23.690561   0.000000
 
 -0.1818182E+00 -0.4545455E+00  0.2727273E+00  0.3005259E-02
    1       -2.343003   1.000000
    2       -1.619568   1.000000
    3        1.591772   1.000000
    4        2.281732   1.000000
    5        8.965804   0.000000
    6       10.229964   0.000000
    7       10.947556   0.000000
    8       10.959862   0.000000
    9       15.183752   0.000000
   10       16.264112   0.000000
   11       18.242982   0.000000
   12       19.413046   0.000000
   13       21.181287   0.000000
   14       22.189420   0.000000
   15       23.539677   0.000000
   16       23.687463   0.000000
 
 -0.9090909E-01 -0.4545455E+00  0.2727273E+00  0.3005259E-02
    1       -2.744829   1.000000
    2       -1.326960   1.000000
    3        1.512435   1.000000
    4        2.984717   1.000000
    5        7.615603   0.000000
    6       10.256453   0.000000
    7       11.288087   0.000000
    8       12.867687   0.000000
    9       13.632212   0.000000
   10       15.668876   0.000000
   11       18.604284   0.000000
   12       19.812545   0.000000
   13       21.055868   0.000000
   14       21.516517   0.000000
   15       22.718223   0.000000
   16       23.660077   0.000000
 
 -0.3636364E+00 -0.3636364E+00  0.2727273E+00  0.1502630E-02
    1       -2.643472   1.000000
    2       -1.432226   1.000000
    3        1.356062   1.000000
    4        3.324383   1.000000
    5        6.947083   0.000000
    6       10.197292   0.000000
    7       12.736508   0.000000
    8       13.264035   0.000000
    9       13.494211   0.000000
   10       13.869750   0.000000
   11       20.248354   0.000000
   12       20.624699   0.000000
   13       20.966242   0.000000
   14       21.141768   0.000000
   15       21.244172   0.000000
   16       22.846884   0.000000
 
 -0.2727273E+00 -0.3636364E+00  0.2727273E+00  0.3005259E-02
    1       -2.741826   1.000000
    2       -1.331344   1.000000
    3        1.516887   1.000000
    4        2.981080   1.000000
    5        7.609769   0.000000
    6       10.266231   0.000000
    7       11.288426   0.000000
    8       12.865142   0.000000
    9       13.640156   0.000000
   10       15.655872   0.000000
   11       18.589618   0.000000
   12       19.823128   0.000000
   13       21.063003   0.000000
   14       21.517058   0.000000
   15       22.712577   0.000000
   16       23.664096   0.000000
 
 -0.1818182E+00 -0.3636364E+00  0.2727273E+00  0.3005259E-02
    1       -2.943072   1.000000
    2       -1.108647   1.000000
    3        1.639050   1.000000
    4        2.754292   1.000000
    5        9.064705   0.000000
    6        9.418545   0.000000
    7       10.672289   0.000000
    8       12.512715   0.000000
    9       13.680243   0.000000
   10       16.183051   0.000000
   11       18.057257   0.000000
   12       19.533386   0.000000
   13       20.955546   0.000000
   14       21.783003   0.000000
   15       22.442526   0.000000
   16       24.008205   0.000000
 
 -0.9090909E-01 -0.3636364E+00  0.2727273E+00  0.3005259E-02
    1       -3.123210   1.000000
    2       -0.935217   1.000000
    3        1.412289   1.000000
    4        3.302084   1.000000
    5        7.980726   0.000000
    6       10.670167   0.000000
    7       11.395995   0.000000
    8       12.274629   0.000000
    9       13.129160   0.000000
   10       14.328763   0.000000
   11       19.701651   0.000000
   12       20.019342   0.000000
   13       20.175131   0.000000
   14       21.966627   0.000000
   15       22.053919   0.000000
   16       23.143730   0.000000
 
 -0.2727273E+00 -0.2727273E+00  0.2727273E+00  0.1502630E-02
    1       -3.176752   1.000000
    2       -1.041642   1.000000
    3        1.813003   1.000000
    4        3.436353   1.000000
    5        7.111581   0.000000
    6       10.355852   0.000000
    7       11.666943   0.000000
    8       11.735025   0.000000
    9       15.025625   0.000000
   10       15.140046   0.000000
   11       18.662291   0.000000
   12       18.674806   0.000000
   13       19.185793   0.000000
   14       23.069408   0.000000
   15       23.088317   0.000000
   16       23.576741   0.000000
 
 -0.1818182E+00 -0.2727273E+00  0.2727273E+00  0.3005259E-02
    1       -3.538917   1.000000
    2       -0.730474   1.000000
    3        2.177957   1.000000
    4        3.369624   1.000000
    5        7.895981   0.000000
    6        9.875531   0.000000
    7       10.682153   0.000000
    8       11.949433   0.000000
    9       14.577402   0.000000
   10       16.233843   0.000000
   11       17.254939   0.000000
   12       18.513934   0.000000
   13       19.273350   0.000000
   14       21.891074   0.000000
   15       23.258905   0.000000
   16       23.976746   0.000000
 
 -0.9090909E-01 -0.2727273E+00  0.2727273E+00  0.3005259E-02
    1       -3.774643   1.000000
    2       -0.396516   1.000000
    3        1.942520   1.000000
    4        3.749696   1.000000
    5        8.464120   0.000000
    6        9.420396   0.000000
    7       11.135070   0.000000
    8       11.769923   0.000000
    9       14.042019   0.000000
   10       14.308989   0.000000
   11       17.945785   0.000000
   12       19.535397   0.000000
   13       20.079056   0.000000
   14       20.601783   0.000000
   15       22.980035   0.000000
   16       23.270577   0.000000
 
 -0.1818182E+00 -0.1818182E+00  0.2727273E+00  0.1502630E-02
    1       -4.019555   1.000000
    2       -0.403953   1.000000
    3        2.918222   1.000000
    4        3.760343   1.000000
    5        7.554057   0.000000
    6       10.028259   0.000000
    7       10.594130   0.000000
    8       10.873094   0.000000
    9       15.488037   0.000000
   10       16.396830   0.000000
   11       17.032982   0.000000
   12       17.200493   0.000000
   13       18.253954   0.000000
   14       21.610827   0.000000
   15       23.208396   0.000000
   16       23.390363   0.000000
 
 -0.9090909E-01 -0.1818182E+00  0.2727273E+00  0.3005259E-02
    1       -4.342579   1.000000
    2       -0.016716   1.000000
    3        3.016561   1.000000
    4        4.167696   1.000000
    5        8.290193   0.000000
    6        8.968530   0.000000
    7       10.396070   0.000000
    8       11.337965   0.000000
    9       14.195609   0.000000
   10       15.378149   0.000000
   11       17.127793   0.000000
   12       17.458743   0.000000
   13       19.670408   0.000000
   14       20.789133   0.000000
   15       22.315451   0.000000
   16       23.264635   0.000000
 
 -0.9090909E-01 -0.9090909E-01  0.2727273E+00  0.1502630E-02
    1       -4.750065   1.000000
    2        0.376270   1.000000
    3        4.185400   1.000000
    4        4.252317   1.000000
    5        7.847804   0.000000
    6        8.931810   0.000000
    7        9.721958   0.000000
    8       11.724710   0.000000
    9       14.457535   0.000000
   10       14.523383   0.000000
   11       15.098873   0.000000
   12       18.951729   0.000000
   13       19.198829   0.000000
   14       20.671226   0.000000
   15       22.369018   0.000000
   16       22.729450   0.000000
 
  0.0000000E+00  0.0000000E+00  0.3636364E+00  0.1502630E-02
    1       -4.617999   1.000000
    2       -0.097482   1.000000
    3        4.578101   1.000000
    4        4.583326   1.000000
    5        7.251777   0.000000
    6        9.096119   0.000000
    7        9.098114   0.000000
    8       13.474649   0.000000
    9       13.989497   0.000000
   10       13.996566   0.000000
   11       14.973597   0.000000
   12       19.451612   0.000000
   13       19.491806   0.000000
   14       19.500494   0.000000
   15       22.055797   0.000000
   16       23.741547   0.000000
 
  0.9090909E-01  0.0000000E+00  0.3636364E+00  0.3005259E-02
    1       -4.749900   1.000000
    2        0.376083   1.000000
    3        4.182589   1.000000
    4        4.256376   1.000000
    5        7.848235   0.000000
    6        8.931037   0.000000
    7        9.720392   0.000000
    8       11.715534   0.000000
    9       14.459276   0.000000
   10       14.528292   0.000000
   11       15.102427   0.000000
   12       18.954848   0.000000
   13       19.203743   0.000000
   14       20.670471   0.000000
   15       22.369029   0.000000
   16       22.726128   0.000000
 
  0.1818182E+00  0.0000000E+00  0.3636364E+00  0.3005259E-02
    1       -4.687190   1.000000
    2        0.812917   1.000000
    3        3.386315   1.000000
    4        3.796998   1.000000
    5        7.518506   0.000000
    6        9.659023   0.000000
    7       10.255685   0.000000
    8       10.838435   0.000000
    9       15.085901   0.000000
   10       15.216133   0.000000
   11       16.089892   0.000000
   12       18.814306   0.000000
   13       18.960856   0.000000
   14       20.599504   0.000000
   15       21.530954   0.000000
   16       22.799116   0.000000
 
  0.2727273E+00  0.0000000E+00  0.3636364E+00  0.3005259E-02
    1       -4.427571   1.000000
    2        0.760336   1.000000
    3        3.086968   1.000000
    4        3.390936   1.000000
    5        6.780995   0.000000
    6        8.146467   0.000000
    7       11.996332   0.000000
    8       12.182785   0.000000
    9       15.418267   0.000000
   10       15.485318   0.000000
   11       17.620198   0.000000
   12       18.847581   0.000000
   13       19.325568   0.000000
   14       20.287277   0.000000
   15       21.349287   0.000000
   16       22.284924   0.000000
 
  0.3636364E+00  0.0000000E+00  0.3636364E+00  0.3005259E-02
    1       -3.978578   1.000000
    2        0.108110   1.000000
    3        3.112855   1.000000
    4        3.120252   1.000000
    5        6.297934   0.000000
    6        7.313673   0.000000
    7       13.358331   0.000000
    8       13.358758   0.000000
    9       15.852310   0.000000
   10       15.885513   0.000000
   11       18.680937   0.000000
   12       18.685832   0.000000
   13       18.984153   0.000000
   14       20.953170   0.000000
   15       21.239267   0.000000
   16       22.151210   0.000000
 
  0.4545455E+00  0.0000000E+00  0.3636364E+00  0.3005259E-02
    1       -3.367382   1.000000
    2       -0.694098   1.000000
    3        2.588898   1.000000
    4        3.016545   1.000000
    5        6.508741   0.000000
    6        7.321265   0.000000
    7       13.677428   0.000000
    8       13.686142   0.000000
    9       16.990931   0.000000
   10       17.019307   0.000000
   11       17.293423   0.000000
   12       17.500012   0.000000
   13       20.039152   0.000000
   14       20.586523   0.000000
   15       21.238016   0.000000
   16       23.291106   0.000000
 
 -0.4545455E+00  0.0000000E+00  0.3636364E+00  0.3005259E-02
    1       -2.705979   1.000000
    2       -1.400533   1.000000
    3        1.827872   1.000000
    4        3.088312   1.000000
    5        6.679145   0.000000
    6        8.486430   0.000000
    7       13.405164   0.000000
    8       13.545229   0.000000
    9       15.277758   0.000000
   10       15.366496   0.000000
   11       18.814524   0.000000
   12       19.144635   0.000000
   13       20.780141   0.000000
   14       20.839965   0.000000
   15       21.453537   0.000000
   16       23.592410   0.000000
 
 -0.3636364E+00  0.0000000E+00  0.3636364E+00  0.3005259E-02
    1       -2.643596   1.000000
    2       -1.433725   1.000000
    3        1.354613   1.000000
    4        3.328572   1.000000
    5        6.952086   0.000000
    6       10.189100   0.000000
    7       12.734980   0.000000
    8       13.266507   0.000000
    9       13.496243   0.000000
   10       13.872785   0.000000
   11       20.248441   0.000000
   12       20.627387   0.000000
   13       20.966834   0.000000
   14       21.138588   0.000000
   15       21.241526   0.000000
   16       22.848157   0.000000
 
 -0.2727273E+00  0.0000000E+00  0.3636364E+00  0.3005259E-02
    1       -3.232836   1.000000
    2       -0.963479   1.000000
    3        1.531444   1.000000
    4        3.710412   1.000000
    5        7.400199   0.000000
    6       11.381640   0.000000
    7       11.401510   0.000000
    8       12.277297   0.000000
    9       13.334002   0.000000
   10       13.410571   0.000000
   11       18.623772   0.000000
   12       20.636705   0.000000
   13       20.649683   0.000000
   14       21.430379   0.000000
   15       22.044966   0.000000
   16       23.264870   0.000000
 
 -0.1818182E+00  0.0000000E+00  0.3636364E+00  0.3005259E-02
    1       -3.826390   1.000000
    2       -0.696831   1.000000
    3        2.435916   1.000000
    4        4.166084   1.000000
    5        7.898196   0.000000
    6        9.894931   0.000000
    7       10.082874   0.000000
    8       13.286999   0.000000
    9       13.390199   0.000000
   10       14.215307   0.000000
   11       16.932899   0.000000
   12       19.296610   0.000000
   13       20.272878   0.000000
   14       20.489092   0.000000
   15       21.926814   0.000000
   16       24.257569   0.000000
 
 -0.9090909E-01  0.0000000E+00  0.3636364E+00  0.3005259E-02
    1       -4.302555   1.000000
    2       -0.455575   1.000000
    3        3.679469   1.000000
    4        4.538170   1.000000
    5        7.774680   0.000000
    6        9.146265   0.000000
    7        9.229762   0.000000
    8       13.336020   0.000000
    9       13.598659   0.000000
   10       14.757033   0.000000
   11       16.742197   0.000000
   12       17.420595   0.000000
   13       19.859409   0.000000
   14       20.031520   0.000000
   15       22.181187   0.000000
   16       23.646606   0.000000
 
  0.9090909E-01  0.9090909E-01  0.3636364E+00  0.1502630E-02
    1       -4.969315   1.000000
    2        0.851576   1.000000
    3        3.805153   1.000000
    4        4.853757   1.000000
    5        7.988438   0.000000
    6        9.158969   0.000000
    7        9.351083   0.000000
    8       12.267400   0.000000
    9       12.426295   0.000000
   10       14.932885   0.000000
   11       15.116285   0.000000
   12       18.290138   0.000000
   13       19.626260   0.000000
   14       21.451475   0.000000
   15       21.454722   0.000000
   16       23.112701   0.000000
 
  0.1818182E+00  0.9090909E-01  0.3636364E+00  0.3005259E-02
    1       -4.989179   1.000000
    2        1.305252   1.000000
    3        3.275719   1.000000
    4        4.503008   1.000000
    5        8.266675   0.000000
    6        9.145384   0.000000
    7       10.295828   0.000000
    8       10.502040   0.000000
    9       13.117580   0.000000
   10       15.402147   0.000000
   11       15.925074   0.000000
   12       17.820786   0.000000
   13       19.382667   0.000000
   14       20.812637   0.000000
   15       21.470008   0.000000
   16       23.470921   0.000000
 
  0.2727273E+00  0.9090909E-01  0.3636364E+00  0.3005259E-02
    1       -4.806795   1.000000
    2        1.328231   1.000000
    3        3.124927   1.000000
    4        3.828575   1.000000
    5        7.405736   0.000000
    6        8.924271   0.000000
    7       10.564404   0.000000
    8       11.599948   0.000000
    9       14.032708   0.000000
   10       15.517921   0.000000
   11       17.004021   0.000000
   12       18.052122   0.000000
   13       19.338326   0.000000
   14       20.781400   0.000000
   15       20.863884   0.000000
   16       23.062527   0.000000
 
  0.3636364E+00  0.9090909E-01  0.3636364E+00  0.3005259E-02
    1       -4.427732   1.000000
    2        0.764032   1.000000
    3        3.090314   1.000000
    4        3.383342   1.000000
    5        6.778007   0.000000
    6        8.149712   0.000000
    7       11.991944   0.000000
    8       12.178720   0.000000
    9       15.423001   0.000000
   10       15.490031   0.000000
   11       17.619363   0.000000
   12       18.854994   0.000000
   13       19.318249   0.000000
   14       20.286660   0.000000
   15       21.358656   0.000000
   16       22.293110   0.000000
 
  0.4545455E+00  0.9090909E-01  0.3636364E+00  0.3005259E-02
    1       -3.871765   1.000000
    2       -0.025033   1.000000
    3        2.656308   1.000000
    4        3.040219   1.000000
    5        7.055857   0.000000
    6        7.905509   0.000000
    7       11.924098   0.000000
    8       13.324465   0.000000
    9       15.654479   0.000000
   10       16.797887   0.000000
   11       17.327302   0.000000
   12       18.770601   0.000000
   13       19.628356   0.000000
   14       20.297494   0.000000
   15       21.710389   0.000000
   16       22.300042   0.000000
 
 -0.4545455E+00  0.9090909E-01  0.3636364E+00  0.3005259E-02
    1       -3.203735   1.000000
    2       -0.835945   1.000000
    3        2.022729   1.000000
    4        2.869771   1.000000
    5        7.402941   0.000000
    6        8.703290   0.000000
    7       11.577424   0.000000
    8       13.684293   0.000000
    9       14.867903   0.000000
   10       16.712427   0.000000
   11       17.580610   0.000000
   12       19.316938   0.000000
   13       20.063444   0.000000
   14       20.616817   0.000000
   15       22.539159   0.000000
   16       23.095309   0.000000
 
 -0.3636364E+00  0.9090909E-01  0.3636364E+00  0.3005259E-02
    1       -2.744703   1.000000
    2       -1.326794   1.000000
    3        1.512474   1.000000
    4        2.984502   1.000000
    5        7.615187   0.000000
    6       10.256249   0.000000
    7       11.280344   0.000000
    8       12.875725   0.000000
    9       13.639770   0.000000
   10       15.660802   0.000000
   11       18.593598   0.000000
   12       19.816263   0.000000
   13       21.066318   0.000000
   14       21.526043   0.000000
   15       22.716496   0.000000
   16       23.649650   0.000000
 
 -0.2727273E+00  0.9090909E-01  0.3636364E+00  0.3005259E-02
    1       -3.123190   1.000000
    2       -0.935207   1.000000
    3        1.412278   1.000000
    4        3.302139   1.000000
    5        7.980615   0.000000
    6       10.669799   0.000000
    7       11.395762   0.000000
    8       12.274578   0.000000
    9       13.129465   0.000000
   10       14.329085   0.000000
   11       19.701705   0.000000
   12       20.019894   0.000000
   13       20.175066   0.000000
   14       21.966280   0.000000
   15       22.054522   0.000000
   16       23.143298   0.000000
 
 -0.1818182E+00  0.9090909E-01  0.3636364E+00  0.3005259E-02
    1       -3.774596   1.000000
    2       -0.396736   1.000000
    3        1.942335   1.000000
    4        3.750256   1.000000
    5        8.463989   0.000000
    6        9.426018   0.000000
    7       11.127654   0.000000
    8       11.764433   0.000000
    9       14.048867   0.000000
   10       14.309816   0.000000
   11       17.945213   0.000000
   12       19.536212   0.000000
   13       20.087858   0.000000
   14       20.600930   0.000000
   15       22.969234   0.000000
   16       23.265226   0.000000
 
 -0.9090909E-01  0.9090909E-01  0.3636364E+00  0.3005259E-02
    1       -4.342476   1.000000
    2       -0.016988   1.000000
    3        3.015646   1.000000
    4        4.169520   1.000000
    5        8.292934   0.000000
    6        8.969750   0.000000
    7       10.391285   0.000000
    8       11.329281   0.000000
    9       14.204682   0.000000
   10       15.378190   0.000000
   11       17.127449   0.000000
   12       17.458748   0.000000
   13       19.680879   0.000000
   14       20.787416   0.000000
   15       22.314330   0.000000
   16       23.255945   0.000000
 
  0.1818182E+00  0.1818182E+00  0.3636364E+00  0.1502630E-02
    1       -5.091191   1.000000
    2        1.577948   1.000000
    3        2.998634   1.000000
    4        4.950680   1.000000
    5        8.566031   0.000000
    6        9.347238   0.000000
    7        9.638782   0.000000
    8       11.232242   0.000000
    9       11.728594   0.000000
   10       15.493640   0.000000
   11       16.172448   0.000000
   12       17.226676   0.000000
   13       19.260856   0.000000
   14       20.523893   0.000000
   15       21.995684   0.000000
   16       24.004347   0.000000
 
  0.2727273E+00  0.1818182E+00  0.3636364E+00  0.3005259E-02
    1       -4.989323   1.000000
    2        1.312518   1.000000
    3        3.268117   1.000000
    4        4.503066   1.000000
    5        8.259753   0.000000
    6        9.146183   0.000000
    7       10.295969   0.000000
    8       10.500981   0.000000
    9       13.124898   0.000000
   10       15.401313   0.000000
   11       15.921240   0.000000
   12       17.820733   0.000000
   13       19.386440   0.000000
   14       20.816409   0.000000
   15       21.472081   0.000000
   16       23.480772   0.000000
 
  0.3636364E+00  0.1818182E+00  0.3636364E+00  0.3005259E-02
    1       -4.687521   1.000000
    2        0.821746   1.000000
    3        3.384355   1.000000
    4        3.789053   1.000000
    5        7.511517   0.000000
    6        9.666682   0.000000
    7       10.249842   0.000000
    8       10.833877   0.000000
    9       15.091700   0.000000
   10       15.220283   0.000000
   11       16.086504   0.000000
   12       18.813942   0.000000
   13       18.966546   0.000000
   14       20.600149   0.000000
   15       21.542210   0.000000
   16       22.806615   0.000000
 
  0.4545455E+00  0.1818182E+00  0.3636364E+00  0.3005259E-02
    1       -4.200278   1.000000
    2        0.269251   1.000000
    3        2.557356   1.000000
    4        3.515699   1.000000
    5        7.761352   0.000000
    6        9.337246   0.000000
    7       10.247126   0.000000
    8       11.987728   0.000000
    9       14.888822   0.000000
   10       16.251376   0.000000
   11       17.368945   0.000000
   12       18.053578   0.000000
   13       19.654764   0.000000
   14       20.268568   0.000000
   15       21.876747   0.000000
   16       23.613541   0.000000
 
 -0.4545455E+00  0.1818182E+00  0.3636364E+00  0.3005259E-02
    1       -3.568063   1.000000
    2       -0.411025   1.000000
    3        1.914081   1.000000
    4        3.062914   1.000000
    5        8.693345   0.000000
    6        9.339182   0.000000
    7        9.878034   0.000000
    8       13.223794   0.000000
    9       14.504761   0.000000
   10       15.059056   0.000000
   11       19.068603   0.000000
   12       19.391305   0.000000
   13       19.722938   0.000000
   14       20.125315   0.000000
   15       22.174106   0.000000
   16       23.520519   0.000000
 
 -0.3636364E+00  0.1818182E+00  0.3636364E+00  0.3005259E-02
    1       -2.946052   1.000000
    2       -1.101742   1.000000
    3        1.637490   1.000000
    4        2.751849   1.000000
    5        9.070511   0.000000
    6        9.407161   0.000000
    7       10.666634   0.000000
    8       12.523861   0.000000
    9       13.676869   0.000000
   10       16.185304   0.000000
   11       18.063485   0.000000
   12       19.528565   0.000000
   13       20.950532   0.000000
   14       21.798459   0.000000
   15       22.445476   0.000000
   16       23.998255   0.000000
 
 -0.2727273E+00  0.1818182E+00  0.3636364E+00  0.3005259E-02
    1       -2.945174   1.000000
    2       -1.104310   1.000000
    3        1.637226   1.000000
    4        2.754029   1.000000
    5        9.061575   0.000000
    6        9.417044   0.000000
    7       10.676715   0.000000
    8       12.512415   0.000000
    9       13.677340   0.000000
   10       16.186395   0.000000
   11       18.061285   0.000000
   12       19.530251   0.000000
   13       20.955459   0.000000
   14       21.783941   0.000000
   15       22.442494   0.000000
   16       24.014266   0.000000
 
 -0.1818182E+00  0.1818182E+00  0.3636364E+00  0.3005259E-02
    1       -3.567105   1.000000
    2       -0.417138   1.000000
    3        1.913935   1.000000
    4        3.068965   1.000000
    5        8.691922   0.000000
    6        9.343535   0.000000
    7        9.886061   0.000000
    8       13.224510   0.000000
    9       14.492638   0.000000
   10       15.060609   0.000000
   11       19.074316   0.000000
   12       19.385924   0.000000
   13       19.718939   0.000000
   14       20.116486   0.000000
   15       22.173809   0.000000
   16       23.521257   0.000000
 
 -0.9090909E-01  0.1818182E+00  0.3636364E+00  0.3005259E-02
    1       -4.199676   1.000000
    2        0.260875   1.000000
    3        2.557389   1.000000
    4        3.524830   1.000000
    5        7.767978   0.000000
    6        9.330582   0.000000
    7       10.257484   0.000000
    8       11.988057   0.000000
    9       14.890999   0.000000
   10       16.243686   0.000000
   11       17.354339   0.000000
   12       18.057400   0.000000
   13       19.656799   0.000000
   14       20.262594   0.000000
   15       21.872732   0.000000
   16       23.612801   0.000000
 
  0.2727273E+00  0.2727273E+00  0.3636364E+00  0.1502630E-02
    1       -4.969627   1.000000
    2        0.861312   1.000000
    3        3.794297   1.000000
    4        4.854776   1.000000
    5        7.981497   0.000000
    6        9.149229   0.000000
    7        9.349733   0.000000
    8       12.275158   0.000000
    9       12.435900   0.000000
   10       14.928679   0.000000
   11       15.114710   0.000000
   12       18.290023   0.000000
   13       19.630574   0.000000
   14       21.460191   0.000000
   15       21.460351   0.000000
   16       23.116385   0.000000
 
  0.3636364E+00  0.2727273E+00  0.3636364E+00  0.3005259E-02
    1       -4.750445   1.000000
    2        0.386434   1.000000
    3        4.179509   1.000000
    4        4.247965   1.000000
    5        7.839963   0.000000
    6        8.924314   0.000000
    7        9.716416   0.000000
    8       11.724167   0.000000
    9       14.455125   0.000000
   10       14.533404   0.000000
   11       15.107372   0.000000
   12       18.956702   0.000000
   13       19.208406   0.000000
   14       20.676344   0.000000
   15       22.381885   0.000000
   16       22.729988   0.000000
 
  0.4545455E+00  0.2727273E+00  0.3636364E+00  0.3005259E-02
    1       -4.343376   1.000000
    2       -0.006349   1.000000
    3        3.014259   1.000000
    4        4.159024   1.000000
    5        8.285486   0.000000
    6        8.958276   0.000000
    7       10.391980   0.000000
    8       11.337509   0.000000
    9       14.199701   0.000000
   10       15.381230   0.000000
   11       17.141890   0.000000
   12       17.463062   0.000000
   13       19.677766   0.000000
   14       20.794699   0.000000
   15       22.321988   0.000000
   16       23.265233   0.000000
 
 -0.4545455E+00  0.2727273E+00  0.3636364E+00  0.3005259E-02
    1       -3.776029   1.000000
    2       -0.386689   1.000000
    3        1.940846   1.000000
    4        3.741572   1.000000
    5        8.454510   0.000000
    6        9.417301   0.000000
    7       11.135921   0.000000
    8       11.764300   0.000000
    9       14.048649   0.000000
   10       14.317304   0.000000
   11       17.938334   0.000000
   12       19.548515   0.000000
   13       20.090751   0.000000
   14       20.609005   0.000000
   15       22.981833   0.000000
   16       23.266349   0.000000
 
 -0.3636364E+00  0.2727273E+00  0.3636364E+00  0.3005259E-02
    1       -3.125262   1.000000
    2       -0.928273   1.000000
    3        1.413698   1.000000
    4        3.294862   1.000000
    5        7.970941   0.000000
    6       10.672576   0.000000
    7       11.393514   0.000000
    8       12.286201   0.000000
    9       13.127372   0.000000
   10       14.326197   0.000000
   11       19.694279   0.000000
   12       20.019066   0.000000
   13       20.180625   0.000000
   14       21.982738   0.000000
   15       22.056665   0.000000
   16       23.147730   0.000000
 
 -0.2727273E+00  0.2727273E+00  0.3636364E+00  0.3005259E-02
    1       -2.745870   1.000000
    2       -1.324794   1.000000
    3        1.517116   1.000000
    4        2.978502   1.000000
    5        7.605524   0.000000
    6       10.269344   0.000000
    7       11.289483   0.000000
    8       12.866542   0.000000
    9       13.635175   0.000000
   10       15.659422   0.000000
   11       18.594158   0.000000
   12       19.819662   0.000000
   13       21.067187   0.000000
   14       21.510652   0.000000
   15       22.713168   0.000000
   16       23.662295   0.000000
 
 -0.1818182E+00  0.2727273E+00  0.3636364E+00  0.3005259E-02
    1       -3.203324   1.000000
    2       -0.838165   1.000000
    3        2.028402   1.000000
    4        2.865869   1.000000
    5        7.393555   0.000000
    6        8.714299   0.000000
    7       11.587857   0.000000
    8       13.685685   0.000000
    9       14.853034   0.000000
   10       16.712842   0.000000
   11       17.578524   0.000000
   12       19.307530   0.000000
   13       20.062444   0.000000
   14       20.621018   0.000000
   15       22.550771   0.000000
   16       23.093551   0.000000
 
 -0.9090909E-01  0.2727273E+00  0.3636364E+00  0.3005259E-02
    1       -3.871408   1.000000
    2       -0.028736   1.000000
    3        2.656701   1.000000
    4        3.043708   1.000000
    5        7.054895   0.000000
    6        7.906902   0.000000
    7       11.934550   0.000000
    8       13.325082   0.000000
    9       15.654485   0.000000
   10       16.785608   0.000000
   11       17.314052   0.000000
   12       18.773724   0.000000
   13       19.627569   0.000000
   14       20.303622   0.000000
   15       21.707465   0.000000
   16       22.308676   0.000000
 
  0.3636364E+00  0.3636364E+00  0.3636364E+00  0.1502630E-02
    1       -4.618850   1.000000
    2       -0.086727   1.000000
    3        4.570857   1.000000
    4        4.579374   1.000000
    5        7.243315   0.000000
    6        9.086052   0.000000
    7        9.095873   0.000000
    8       13.468936   0.000000
    9       13.998667   0.000000
   10       14.002158   0.000000
   11       14.981055   0.000000
   12       19.455322   0.000000
   13       19.501677   0.000000
   14       19.504634   0.000000
   15       22.057123   0.000000
   16       23.753904   0.000000
 
  0.4545455E+00  0.3636364E+00  0.3636364E+00  0.3005259E-02
    1       -4.303862   1.000000
    2       -0.444414   1.000000
    3        3.676669   1.000000
    4        4.529223   1.000000
    5        7.766021   0.000000
    6        9.137440   0.000000
    7        9.227035   0.000000
    8       13.332796   0.000000
    9       13.602831   0.000000
   10       14.762567   0.000000
   11       16.756433   0.000000
   12       17.428111   0.000000
   13       19.864049   0.000000
   14       20.033581   0.000000
   15       22.184524   0.000000
   16       23.655914   0.000000
 
 -0.4545455E+00  0.3636364E+00  0.3636364E+00  0.3005259E-02
    1       -3.828358   1.000000
    2       -0.685316   1.000000
    3        2.432933   1.000000
    4        4.157714   1.000000
    5        7.888764   0.000000
    6        9.887520   0.000000
    7       10.080140   0.000000
    8       13.289287   0.000000
    9       13.393513   0.000000
   10       14.225307   0.000000
   11       16.929254   0.000000
   12       19.312179   0.000000
   13       20.277588   0.000000
   14       20.493650   0.000000
   15       21.932542   0.000000
   16       24.263825   0.000000
 
 -0.3636364E+00  0.3636364E+00  0.3636364E+00  0.3005259E-02
    1       -3.235710   1.000000
    2       -0.953041   1.000000
    3        1.530323   1.000000
    4        3.702559   1.000000
    5        7.390930   0.000000
    6       11.380617   0.000000
    7       11.395290   0.000000
    8       12.289984   0.000000
    9       13.333598   0.000000
   10       13.411980   0.000000
   11       18.616740   0.000000
   12       20.646295   0.000000
   13       20.650974   0.000000
   14       21.436029   0.000000
   15       22.066762   0.000000
   16       23.259639   0.000000
 
 -0.2727273E+00  0.3636364E+00  0.3636364E+00  0.3005259E-02
    1       -2.647363   1.000000
    2       -1.426798   1.000000
    3        1.357990   1.000000
    4        3.321047   1.000000
    5        6.942860   0.000000
    6       10.200819   0.000000
    7       12.740641   0.000000
    8       13.261062   0.000000
    9       13.496085   0.000000
   10       13.867306   0.000000
   11       20.248737   0.000000
   12       20.620472   0.000000
   13       20.966069   0.000000
   14       21.144710   0.000000
   15       21.247974   0.000000
   16       22.839375   0.000000
 
 -0.1818182E+00  0.3636364E+00  0.3636364E+00  0.3005259E-02
    1       -2.706707   1.000000
    2       -1.399633   1.000000
    3        1.834507   1.000000
    4        3.080952   1.000000
    5        6.669862   0.000000
    6        8.497288   0.000000
    7       13.413711   0.000000
    8       13.547885   0.000000
    9       15.269926   0.000000
   10       15.358218   0.000000
   11       18.804820   0.000000
   12       19.144349   0.000000
   13       20.784476   0.000000
   14       20.850441   0.000000
   15       21.455852   0.000000
   16       23.588492   0.000000
 
 -0.9090909E-01  0.3636364E+00  0.3636364E+00  0.3005259E-02
    1       -3.367272   1.000000
    2       -0.694960   1.000000
    3        2.596875   1.000000
    4        3.009225   1.000000
    5        6.502034   0.000000
    6        7.328566   0.000000
    7       13.681605   0.000000
    8       13.691348   0.000000
    9       16.984108   0.000000
   10       17.010706   0.000000
   11       17.288389   0.000000
   12       17.497051   0.000000
   13       20.043594   0.000000
   14       20.594489   0.000000
   15       21.245285   0.000000
   16       23.293598   0.000000
 
  0.4545455E+00  0.4545455E+00  0.3636364E+00  0.1502630E-02
    1       -4.095299   1.000000
    2       -0.785207   1.000000
    3        3.879826   1.000000
    4        4.212384   1.000000
    5        7.696512   0.000000
    6        8.896854   0.000000
    7        9.480179   0.000000
    8       12.949654   0.000000
    9       14.368727   0.000000
   10       15.936445   0.000000
   11       16.624321   0.000000
   12       17.304027   0.000000
   13       18.091266   0.000000
   14       20.367421   0.000000
   15       22.925180   0.000000
   16       24.471367   0.000000
 
 -0.4545455E+00  0.4545455E+00  0.3636364E+00  0.3005259E-02
    1       -3.742753   1.000000
    2       -0.968378   1.000000
    3        2.909767   1.000000
    4        3.957255   1.000000
    5        8.252814   0.000000
    6        8.773176   0.000000
    7       10.321263   0.000000
    8       12.783350   0.000000
    9       14.311994   0.000000
   10       15.443961   0.000000
   11       16.700477   0.000000
   12       18.071108   0.000000
   13       18.991197   0.000000
   14       20.779363   0.000000
   15       23.193746   0.000000
   16       24.972748   0.000000
 
 -0.3636364E+00  0.4545455E+00  0.3636364E+00  0.3005259E-02
    1       -3.281056   1.000000
    2       -1.061302   1.000000
    3        1.946454   1.000000
    4        3.454166   1.000000
    5        8.099814   0.000000
    6        9.607092   0.000000
    7       11.826759   0.000000
    8       12.354696   0.000000
    9       12.830514   0.000000
   10       15.565757   0.000000
   11       17.713209   0.000000
   12       18.555681   0.000000
   13       21.099974   0.000000
   14       21.566806   0.000000
   15       22.791921   0.000000
   16       23.737320   0.000000
 
 -0.2727273E+00  0.4545455E+00  0.3636364E+00  0.3005259E-02
    1       -2.745575   1.000000
    2       -1.323636   1.000000
    3        1.515796   1.000000
    4        2.978151   1.000000
    5        7.605417   0.000000
    6       10.267724   0.000000
    7       11.284099   0.000000
    8       12.873591   0.000000
    9       13.628650   0.000000
   10       15.666099   0.000000
   11       18.600802   0.000000
   12       19.809485   0.000000
   13       21.065780   0.000000
   14       21.515280   0.000000
   15       22.722523   0.000000
   16       23.655568   0.000000
 
 -0.1818182E+00  0.4545455E+00  0.3636364E+00  0.3005259E-02
    1       -2.229200   1.000000
    2       -1.846650   1.000000
    3        1.825864   1.000000
    4        2.656133   1.000000
    5        7.263457   0.000000
    6        8.507937   0.000000
    7       13.000740   0.000000
    8       13.227171   0.000000
    9       15.252510   0.000000
   10       15.887754   0.000000
   11       18.483357   0.000000
   12       19.278565   0.000000
   13       20.986120   0.000000
   14       21.644203   0.000000
   15       22.201470   0.000000
   16       22.614825   0.000000
 
 -0.9090909E-01  0.4545455E+00  0.3636364E+00  0.3005259E-02
    1       -2.721448   1.000000
    2       -1.409577   1.000000
    3        2.468470   1.000000
    4        2.588170   1.000000
    5        6.989332   0.000000
    6        7.260110   0.000000
    7       13.449374   0.000000
    8       14.839458   0.000000
    9       15.452983   0.000000
   10       16.874822   0.000000
   11       17.580204   0.000000
   12       19.064027   0.000000
   13       19.247643   0.000000
   14       20.860137   0.000000
   15       22.103915   0.000000
   16       23.465543   0.000000
 
 -0.4545455E+00 -0.4545455E+00  0.3636364E+00  0.1502630E-02
    1       -3.549989   1.000000
    2       -1.088046   1.000000
    3        2.577727   1.000000
    4        3.889268   1.000000
    5        7.648502   0.000000
    6        9.893463   0.000000
    7       10.296015   0.000000
    8       12.481245   0.000000
    9       14.651253   0.000000
   10       15.105721   0.000000
   11       17.046191   0.000000
   12       18.311182   0.000000
   13       18.969504   0.000000
   14       21.166922   0.000000
   15       24.190643   0.000000
   16       24.438346   0.000000
 
 -0.3636364E+00 -0.4545455E+00  0.3636364E+00  0.3005259E-02
    1       -3.280471   1.000000
    2       -1.062125   1.000000
    3        1.944344   1.000000
    4        3.456575   1.000000
    5        8.104646   0.000000
    6        9.601782   0.000000
    7       11.824807   0.000000
    8       12.353382   0.000000
    9       12.834355   0.000000
   10       15.565796   0.000000
   11       17.711036   0.000000
   12       18.557974   0.000000
   13       21.102787   0.000000
   14       21.564363   0.000000
   15       22.791404   0.000000
   16       23.739663   0.000000
 
 -0.2727273E+00 -0.4545455E+00  0.3636364E+00  0.3005259E-02
    1       -2.944639   1.000000
    2       -1.102536   1.000000
    3        1.636429   1.000000
    4        2.752040   1.000000
    5        9.061659   0.000000
    6        9.410307   0.000000
    7       10.676113   0.000000
    8       12.520584   0.000000
    9       13.669838   0.000000
   10       16.190577   0.000000
   11       18.068729   0.000000
   12       19.521850   0.000000
   13       20.951766   0.000000
   14       21.794645   0.000000
   15       22.445281   0.000000
   16       24.012302   0.000000
 
 -0.1818182E+00 -0.4545455E+00  0.3636364E+00  0.3005259E-02
    1       -2.538488   1.000000
    2       -1.456610   1.000000
    3        1.866326   1.000000
    4        2.243989   1.000000
    5        8.612810   0.000000
    6        8.822090   0.000000
    7       11.176914   0.000000
    8       12.756443   0.000000
    9       15.164566   0.000000
   10       16.608479   0.000000
   11       17.938229   0.000000
   12       19.257134   0.000000
   13       21.104067   0.000000
   14       21.854238   0.000000
   15       22.445158   0.000000
   16       23.604391   0.000000
 
 -0.9090909E-01 -0.4545455E+00  0.3636364E+00  0.3005259E-02
    1       -2.223754   1.000000
    2       -1.853121   1.000000
    3        1.820472   1.000000
    4        2.662938   1.000000
    5        7.273148   0.000000
    6        8.497370   0.000000
    7       12.998583   0.000000
    8       13.229368   0.000000
    9       15.253020   0.000000
   10       15.890692   0.000000
   11       18.483227   0.000000
   12       19.275376   0.000000
   13       20.987163   0.000000
   14       21.646822   0.000000
   15       22.206811   0.000000
   16       22.606849   0.000000
 
 -0.3636364E+00 -0.3636364E+00  0.3636364E+00  0.1502630E-02
    1       -3.234019   1.000000
    2       -0.955854   1.000000
    3        1.527665   1.000000
    4        3.706541   1.000000
    5        7.395391   0.000000
    6       11.375057   0.000000
    7       11.391192   0.000000
    8       12.291696   0.000000
    9       13.333747   0.000000
   10       13.414965   0.000000
   11       18.616681   0.000000
   12       20.649924   0.000000
   13       20.652771   0.000000
   14       21.434122   0.000000
   15       22.063020   0.000000
   16       23.255568   0.000000
 
 -0.2727273E+00 -0.3636364E+00  0.3636364E+00  0.3005259E-02
    1       -3.122598   1.000000
    2       -0.933597   1.000000
    3        1.412807   1.000000
    4        3.298596   1.000000
    5        7.975349   0.000000
    6       10.670312   0.000000
    7       11.393504   0.000000
    8       12.283074   0.000000
    9       13.128011   0.000000
   10       14.325832   0.000000
   11       19.699386   0.000000
   12       20.019000   0.000000
   13       20.177677   0.000000
   14       21.977634   0.000000
   15       22.055419   0.000000
   16       23.143942   0.000000
 
 -0.1818182E+00 -0.3636364E+00  0.3636364E+00  0.3005259E-02
    1       -2.942693   1.000000
    2       -1.108434   1.000000
    3        1.639229   1.000000
    4        2.753517   1.000000
    5        9.069474   0.000000
    6        9.413256   0.000000
    7       10.664027   0.000000
    8       12.521846   0.000000
    9       13.679650   0.000000
   10       16.181111   0.000000
   11       18.059323   0.000000
   12       19.532667   0.000000
   13       20.953219   0.000000
   14       21.793512   0.000000
   15       22.443740   0.000000
   16       23.996369   0.000000
 
 -0.9090909E-01 -0.3636364E+00  0.3636364E+00  0.3005259E-02
    1       -2.741739   1.000000
    2       -1.332093   1.000000
    3        1.514992   1.000000
    4        2.984322   1.000000
    5        7.615043   0.000000
    6       10.257537   0.000000
    7       11.282267   0.000000
    8       12.873678   0.000000
    9       13.642094   0.000000
   10       15.657534   0.000000
   11       18.588140   0.000000
   12       19.819814   0.000000
   13       21.065734   0.000000
   14       21.525361   0.000000
   15       22.714525   0.000000
   16       23.655308   0.000000
 
 -0.2727273E+00 -0.2727273E+00  0.3636364E+00  0.1502630E-02
    1       -3.232378   1.000000
    2       -0.962653   1.000000
    3        1.533149   1.000000
    4        3.706402   1.000000
    5        7.395660   0.000000
    6       11.384779   0.000000
    7       11.404222   0.000000
    8       12.283938   0.000000
    9       13.328874   0.000000
   10       13.404710   0.000000
   11       18.628156   0.000000
   12       20.637350   0.000000
   13       20.638622   0.000000
   14       21.431262   0.000000
   15       22.055085   0.000000
   16       23.270842   0.000000
 
 -0.1818182E+00 -0.2727273E+00  0.3636364E+00  0.3005259E-02
    1       -3.277654   1.000000
    2       -1.072626   1.000000
    3        1.952070   1.000000
    4        3.457031   1.000000
    5        8.105129   0.000000
    6        9.612613   0.000000
    7       11.836404   0.000000
    8       12.346682   0.000000
    9       12.829448   0.000000
   10       15.555594   0.000000
   11       17.713834   0.000000
   12       18.551979   0.000000
   13       21.092836   0.000000
   14       21.561075   0.000000
   15       22.784920   0.000000
   16       23.744092   0.000000
 
 -0.9090909E-01 -0.2727273E+00  0.3636364E+00  0.3005259E-02
    1       -3.277827   1.000000
    2       -1.072840   1.000000
    3        1.950520   1.000000
    4        3.459421   1.000000
    5        8.109778   0.000000
    6        9.607425   0.000000
    7       11.836650   0.000000
    8       12.339391   0.000000
    9       12.837740   0.000000
   10       15.557295   0.000000
   11       17.710066   0.000000
   12       18.552472   0.000000
   13       21.104219   0.000000
   14       21.549062   0.000000
   15       22.787872   0.000000
   16       23.742977   0.000000
 
 -0.1818182E+00 -0.1818182E+00  0.3636364E+00  0.1502630E-02
    1       -3.547045   1.000000
    2       -1.100035   1.000000
    3        2.587759   1.000000
    4        3.888798   1.000000
    5        7.649938   0.000000
    6        9.902910   0.000000
    7       10.308019   0.000000
    8       12.481751   0.000000
    9       14.645061   0.000000
   10       15.092121   0.000000
   11       17.050467   0.000000
   12       18.296174   0.000000
   13       18.959619   0.000000
   14       21.171252   0.000000
   15       24.175703   0.000000
   16       24.435654   0.000000
 
 -0.9090909E-01 -0.1818182E+00  0.3636364E+00  0.3005259E-02
    1       -3.740210   1.000000
    2       -0.980388   1.000000
    3        2.916862   1.000000
    4        3.960661   1.000000
    5        8.259856   0.000000
    6        8.776880   0.000000
    7       10.332111   0.000000
    8       12.786565   0.000000
    9       14.303953   0.000000
   10       15.435681   0.000000
   11       16.694690   0.000000
   12       18.062631   0.000000
   13       18.978515   0.000000
   14       20.784498   0.000000
   15       23.187919   0.000000
   16       24.963756   0.000000
 
 -0.9090909E-01 -0.9090909E-01  0.3636364E+00  0.1502630E-02
    1       -4.093439   1.000000
    2       -0.796793   1.000000
    3        3.891311   1.000000
    4        4.211475   1.000000
    5        7.703880   0.000000
    6        8.899186   0.000000
    7        9.492430   0.000000
    8       12.955563   0.000000
    9       14.368520   0.000000
   10       15.921631   0.000000
   11       16.609440   0.000000
   12       17.290914   0.000000
   13       18.088530   0.000000
   14       20.373179   0.000000
   15       22.920407   0.000000
   16       24.464416   0.000000
 
  0.0000000E+00  0.0000000E+00  0.4545455E+00  0.1502630E-02
    1       -4.020544   1.000000
    2       -1.095024   1.000000
    3        4.461107   1.000000
    4        4.466139   1.000000
    5        7.116537   0.000000
    6        8.993288   0.000000
    7        8.995422   0.000000
    8       13.357629   0.000000
    9       15.504039   0.000000
   10       15.511237   0.000000
   11       16.414276   0.000000
   12       17.517330   0.000000
   13       17.527171   0.000000
   14       18.754240   0.000000
   15       23.701105   0.000000
   16       25.987372   0.000000
 
  0.9090909E-01  0.0000000E+00  0.4545455E+00  0.3005259E-02
    1       -4.093301   1.000000
    2       -0.797011   1.000000
    3        3.888423   1.000000
    4        4.215312   1.000000
    5        7.704561   0.000000
    6        8.899392   0.000000
    7        9.490664   0.000000
    8       12.945943   0.000000
    9       14.368686   0.000000
   10       15.926486   0.000000
   11       16.614997   0.000000
   12       17.298306   0.000000
   13       18.093028   0.000000
   14       20.359747   0.000000
   15       22.920516   0.000000
   16       24.461555   0.000000
 
  0.1818182E+00  0.0000000E+00  0.4545455E+00  0.3005259E-02
    1       -4.019299   1.000000
    2       -0.404389   1.000000
    3        2.915653   1.000000
    4        3.764308   1.000000
    5        7.557653   0.000000
    6       10.025417   0.000000
    7       10.591895   0.000000
    8       10.863871   0.000000
    9       15.489992   0.000000
   10       16.400946   0.000000
   11       17.038119   0.000000
   12       17.207622   0.000000
   13       18.256537   0.000000
   14       21.607833   0.000000
   15       23.206885   0.000000
   16       23.379637   0.000000
 
  0.2727273E+00  0.0000000E+00  0.4545455E+00  0.3005259E-02
    1       -3.779080   1.000000
    2       -0.254252   1.000000
    3        2.373674   1.000000
    4        3.329988   1.000000
    5        6.983294   0.000000
    6        8.884330   0.000000
    7       11.833657   0.000000
    8       12.054175   0.000000
    9       16.568546   0.000000
   10       16.814986   0.000000
   11       17.204359   0.000000
   12       17.329025   0.000000
   13       19.207221   0.000000
   14       21.127240   0.000000
   15       22.240811   0.000000
   16       23.862939   0.000000
 
  0.3636364E+00  0.0000000E+00  0.4545455E+00  0.3005259E-02
    1       -3.366472   1.000000
    2       -0.696568   1.000000
    3        2.591112   1.000000
    4        3.016406   1.000000
    5        6.508114   0.000000
    6        7.321216   0.000000
    7       13.679302   0.000000
    8       13.690300   0.000000
    9       16.984723   0.000000
   10       17.021633   0.000000
   11       17.289671   0.000000
   12       17.492365   0.000000
   13       20.043281   0.000000
   14       20.590521   0.000000
   15       21.242174   0.000000
   16       23.293739   0.000000
 
  0.4545455E+00  0.0000000E+00  0.4545455E+00  0.3005259E-02
    1       -2.792176   1.000000
    2       -1.412118   1.000000
    3        2.857803   1.000000
    4        2.865008   1.000000
    5        6.260503   0.000003
    6        6.587308   0.000000
    7       15.027797   0.000000
    8       15.029586   0.000000
    9       17.089239   0.000000
   10       17.090284   0.000000
   11       17.257523   0.000000
   12       17.675928   0.000000
   13       18.962018   0.000000
   14       19.020704   0.000000
   15       23.300919   0.000000
   16       24.110089   0.000000
 
 -0.4545455E+00  0.0000000E+00  0.4545455E+00  0.3005259E-02
    1       -2.154859   1.000000
    2       -2.049396   1.000000
    3        2.427007   1.000000
    4        2.889700   1.000000
    5        6.445856   0.000000
    6        7.011089   0.000000
    7       14.953943   0.000000
    8       15.190174   0.000000
    9       15.708650   0.000000
   10       15.892784   0.000000
   11       18.706914   0.000000
   12       18.730864   0.000000
   13       18.804966   0.000000
   14       19.390344   0.000000
   15       23.356378   0.000000
   16       23.676434   0.000000
 
 -0.3636364E+00  0.0000000E+00  0.4545455E+00  0.3005259E-02
    1       -2.703553   1.000000
    2       -1.404596   1.000000
    3        1.829861   1.000000
    4        3.088167   1.000000
    5        6.678908   0.000000
    6        8.486351   0.000000
    7       13.409977   0.000000
    8       13.546486   0.000000
    9       15.276366   0.000000
   10       15.362323   0.000000
   11       18.806964   0.000000
   12       19.141748   0.000000
   13       20.781224   0.000000
   14       20.846344   0.000000
   15       21.458805   0.000000
   16       23.590504   0.000000
 
 -0.2727273E+00  0.0000000E+00  0.4545455E+00  0.3005259E-02
    1       -3.176594   1.000000
    2       -1.042337   1.000000
    3        1.810583   1.000000
    4        3.440396   1.000000
    5        7.116161   0.000000
    6       10.346668   0.000000
    7       11.664826   0.000000
    8       11.732143   0.000000
    9       15.031887   0.000000
   10       15.145800   0.000000
   11       18.666084   0.000000
   12       18.672344   0.000000
   13       19.190261   0.000000
   14       23.066724   0.000000
   15       23.081968   0.000000
   16       23.568597   0.000000
 
 -0.1818182E+00  0.0000000E+00  0.4545455E+00  0.3005259E-02
    1       -3.547046   1.000000
    2       -1.100373   1.000000
    3        2.585161   1.000000
    4        3.892662   1.000000
    5        7.653652   0.000000
    6        9.900965   0.000000
    7       10.305818   0.000000
    8       12.471801   0.000000
    9       14.650472   0.000000
   10       15.097865   0.000000
   11       17.048809   0.000000
   12       18.302774   0.000000
   13       18.965526   0.000000
   14       21.156126   0.000000
   15       24.178761   0.000000
   16       24.436972   0.000000
 
 -0.9090909E-01  0.0000000E+00  0.4545455E+00  0.3005259E-02
    1       -3.829920   1.000000
    2       -1.190336   1.000000
    3        3.713742   1.000000
    4        4.314504   1.000000
    5        7.675772   0.000000
    6        8.957631   0.000000
    7        9.308638   0.000000
    8       13.661980   0.000000
    9       14.892336   0.000000
   10       15.222087   0.000000
   11       16.498823   0.000000
   12       17.879280   0.000000
   13       18.199769   0.000000
   14       19.026065   0.000000
   15       24.300948   0.000000
   16       25.450079   0.000000
 
  0.9090909E-01  0.9090909E-01  0.4545455E+00  0.1502630E-02
    1       -4.302334   1.000000
    2       -0.455675   1.000000
    3        3.683155   1.000000
    4        4.534314   1.000000
    5        7.773397   0.000000
    6        9.145150   0.000000
    7        9.231343   0.000000
    8       13.331161   0.000000
    9       13.592955   0.000000
   10       14.758645   0.000000
   11       16.754709   0.000000
   12       17.430691   0.000000
   13       19.852962   0.000000
   14       20.025927   0.000000
   15       22.179823   0.000000
   16       23.644961   0.000000
 
  0.1818182E+00  0.9090909E-01  0.4545455E+00  0.3005259E-02
    1       -4.342188   1.000000
    2       -0.016830   1.000000
    3        3.018717   1.000000
    4        4.165840   1.000000
    5        8.292106   0.000000
    6        8.965677   0.000000
    7       10.394976   0.000000
    8       11.328349   0.000000
    9       14.194082   0.000000
   10       15.382594   0.000000
   11       17.139921   0.000000
   12       17.466395   0.000000
   13       19.670746   0.000000
   14       20.786461   0.000000
   15       22.312004   0.000000
   16       23.258332   0.000000
 
  0.2727273E+00  0.9090909E-01  0.4545455E+00  0.3005259E-02
    1       -4.199339   1.000000
    2        0.261537   1.000000
    3        2.558741   1.000000
    4        3.522568   1.000000
    5        7.767183   0.000000
    6        9.329835   0.000000
    7       10.252102   0.000000
    8       11.991382   0.000000
    9       14.882119   0.000000
   10       16.251869   0.000000
   11       17.365620   0.000000
   12       18.058160   0.000000
   13       19.648839   0.000000
   14       20.264151   0.000000
   15       21.873368   0.000000
   16       23.615282   0.000000
 
  0.3636364E+00  0.9090909E-01  0.4545455E+00  0.3005259E-02
    1       -3.871046   1.000000
    2       -0.027986   1.000000
    3        2.656691   1.000000
    4        3.042797   1.000000
    5        7.054829   0.000000
    6        7.905569   0.000000
    7       11.928378   0.000000
    8       13.323940   0.000000
    9       15.652856   0.000000
   10       16.794763   0.000000
   11       17.323371   0.000000
   12       18.771696   0.000000
   13       19.627886   0.000000
   14       20.299759   0.000000
   15       21.709803   0.000000
   16       22.303482   0.000000
 
  0.4545455E+00  0.9090909E-01  0.4545455E+00  0.3005259E-02
    1       -3.366919   1.000000
    2       -0.694621   1.000000
    3        2.596476   1.000000
    4        3.009107   1.000000
    5        6.502293   0.000000
    6        7.327290   0.000000
    7       13.674865   0.000000
    8       13.685919   0.000000
    9       16.990412   0.000000
   10       17.016208   0.000000
   11       17.296545   0.000000
   12       17.506001   0.000000
   13       20.036486   0.000000
   14       20.586558   0.000000
   15       21.235493   0.000000
   16       23.293775   0.000000
 
 -0.4545455E+00  0.9090909E-01  0.4545455E+00  0.3005259E-02
    1       -2.721162   1.000000
    2       -1.409551   1.000000
    3        2.468412   1.000000
    4        2.588048   1.000000
    5        6.989794   0.000000
    6        7.259069   0.000000
    7       13.441397   0.000000
    8       14.843067   0.000000
    9       15.457943   0.000000
   10       16.874587   0.000000
   11       17.580619   0.000000
   12       19.064527   0.000000
   13       19.257157   0.000000
   14       20.849649   0.000000
   15       22.096814   0.000000
   16       23.465940   0.000000
 
 -0.3636364E+00  0.9090909E-01  0.4545455E+00  0.3005259E-02
    1       -2.223745   1.000000
    2       -1.853117   1.000000
    3        1.820486   1.000000
    4        2.662972   1.000000
    5        7.273083   0.000000
    6        8.497323   0.000000
    7       12.998087   0.000000
    8       13.229076   0.000000
    9       15.253442   0.000000
   10       15.891097   0.000000
   11       18.483701   0.000000
   12       19.275732   0.000000
   13       20.986659   0.000000
   14       21.646426   0.000000
   15       22.206884   0.000000
   16       22.606980   0.000000
 
 -0.2727273E+00  0.9090909E-01  0.4545455E+00  0.3005259E-02
    1       -2.741845   1.000000
    2       -1.332233   1.000000
    3        1.514963   1.000000
    4        2.984620   1.000000
    5        7.615279   0.000000
    6       10.257594   0.000000
    7       11.289348   0.000000
    8       12.864982   0.000000
    9       13.635163   0.000000
   10       15.666401   0.000000
   11       18.599498   0.000000
   12       19.816362   0.000000
   13       21.055418   0.000000
   14       21.515703   0.000000
   15       22.716468   0.000000
   16       23.665034   0.000000
 
 -0.1818182E+00  0.9090909E-01  0.4545455E+00  0.3005259E-02
    1       -3.277876   1.000000
    2       -1.073116   1.000000
    3        1.950030   1.000000
    4        3.460365   1.000000
    5        8.110098   0.000000
    6        9.613320   0.000000
    7       11.830718   0.000000
    8       12.339709   0.000000
    9       12.827968   0.000000
   10       15.566754   0.000000
   11       17.715299   0.000000
   12       18.558880   0.000000
   13       21.089858   0.000000
   14       21.547564   0.000000
   15       22.785864   0.000000
   16       23.739487   0.000000
 
 -0.9090909E-01  0.9090909E-01  0.4545455E+00  0.3005259E-02
    1       -3.740167   1.000000
    2       -0.980663   1.000000
    3        2.915177   1.000000
    4        3.963118   1.000000
    5        8.261649   0.000000
    6        8.779818   0.000000
    7       10.327204   0.000000
    8       12.776640   0.000000
    9       14.304780   0.000000
   10       15.441355   0.000000
   11       16.701008   0.000000
   12       18.071227   0.000000
   13       18.979221   0.000000
   14       20.769964   0.000000
   15       23.188359   0.000000
   16       24.963629   0.000000
 
  0.1818182E+00  0.1818182E+00  0.4545455E+00  0.1502630E-02
    1       -4.485081   1.000000
    2        0.400979   1.000000
    3        2.522253   1.000000
    4        4.543251   1.000000
    5        8.251165   0.000000
    6        9.837830   0.000000
    7        9.949349   0.000000
    8       11.898101   0.000000
    9       12.151506   0.000000
   10       15.660042   0.000000
   11       17.356983   0.000000
   12       17.629854   0.000000
   13       19.427549   0.000000
   14       21.455030   0.000000
   15       22.117741   0.000000
   16       23.061902   0.000000
 
  0.2727273E+00  0.1818182E+00  0.4545455E+00  0.3005259E-02
    1       -4.437832   1.000000
    2        0.573142   1.000000
    3        2.315710   1.000000
    4        4.153525   1.000000
    5        8.885568   0.000000
    6        9.007309   0.000000
    7       10.258705   0.000000
    8       11.310671   0.000000
    9       13.128764   0.000000
   10       16.000051   0.000000
   11       17.460331   0.000000
   12       18.042905   0.000000
   13       19.045899   0.000000
   14       21.328435   0.000000
   15       21.650058   0.000000
   16       24.164046   0.000000
 
  0.3636364E+00  0.1818182E+00  0.4545455E+00  0.3005259E-02
    1       -4.199715   1.000000
    2        0.266999   1.000000
    3        2.554808   1.000000
    4        3.520933   1.000000
    5        7.759835   0.000000
    6        9.337314   0.000000
    7       10.252085   0.000000
    8       11.983136   0.000000
    9       14.891188   0.000000
   10       16.249835   0.000000
   11       17.364664   0.000000
   12       18.054410   0.000000
   13       19.658900   0.000000
   14       20.265074   0.000000
   15       21.877176   0.000000
   16       23.616054   0.000000
 
  0.4545455E+00  0.1818182E+00  0.4545455E+00  0.3005259E-02
    1       -3.779950   1.000000
    2       -0.247685   1.000000
    3        2.374456   1.000000
    4        3.322477   1.000000
    5        6.975089   0.000000
    6        8.893131   0.000000
    7       11.827966   0.000000
    8       12.049350   0.000000
    9       16.564497   0.000000
   10       16.826276   0.000000
   11       17.205459   0.000000
   12       17.338474   0.000000
   13       19.204246   0.000000
   14       21.124176   0.000000
   15       22.248913   0.000000
   16       23.852409   0.000000
 
 -0.4545455E+00  0.1818182E+00  0.4545455E+00  0.3005259E-02
    1       -3.203591   1.000000
    2       -0.835264   1.000000
    3        2.028570   1.000000
    4        2.862583   1.000000
    5        7.394330   0.000000
    6        8.712450   0.000000
    7       11.577149   0.000000
    8       13.682218   0.000000
    9       14.866106   0.000000
   10       16.715014   0.000000
   11       17.582251   0.000000
   12       19.316802   0.000000
   13       20.058405   0.000000
   14       20.618166   0.000000
   15       22.539772   0.000000
   16       23.099105   0.000000
 
 -0.3636364E+00  0.1818182E+00  0.4545455E+00  0.3005259E-02
    1       -2.540928   1.000000
    2       -1.452968   1.000000
    3        1.867332   1.000000
    4        2.241665   1.000000
    5        8.614063   0.000000
    6        8.820862   0.000000
    7       11.173526   0.000000
    8       12.758786   0.000000
    9       15.165946   0.000000
   10       16.608552   0.000000
   11       17.939405   0.000000
   12       19.256949   0.000000
   13       21.099325   0.000000
   14       21.860018   0.000000
   15       22.445305   0.000000
   16       23.606139   0.000000
 
 -0.2727273E+00  0.1818182E+00  0.4545455E+00  0.3005259E-02
    1       -2.342972   1.000000
    2       -1.619545   1.000000
    3        1.591770   1.000000
    4        2.281769   1.000000
    5        8.965674   0.000000
    6       10.229760   0.000000
    7       10.947744   0.000000
    8       10.959095   0.000000
    9       15.184121   0.000000
   10       16.264490   0.000000
   11       18.243351   0.000000
   12       19.413350   0.000000
   13       21.181433   0.000000
   14       22.189706   0.000000
   15       23.539058   0.000000
   16       23.687877   0.000000
 
 -0.1818182E+00  0.1818182E+00  0.4545455E+00  0.3005259E-02
    1       -2.943052   1.000000
    2       -1.109033   1.000000
    3        1.638270   1.000000
    4        2.755670   1.000000
    5        9.071680   0.000000
    6        9.417040   0.000000
    7       10.665388   0.000000
    8       12.512521   0.000000
    9       13.674620   0.000000
   10       16.191147   0.000000
   11       18.068583   0.000000
   12       19.527811   0.000000
   13       20.949179   0.000000
   14       21.781737   0.000000
   15       22.442155   0.000000
   16       23.998257   0.000000
 
 -0.9090909E-01  0.1818182E+00  0.4545455E+00  0.3005259E-02
    1       -3.538796   1.000000
    2       -0.731007   1.000000
    3        2.176006   1.000000
    4        3.372653   1.000000
    5        7.901114   0.000000
    6        9.874983   0.000000
    7       10.674331   0.000000
    8       11.943605   0.000000
    9       14.577779   0.000000
   10       16.242515   0.000000
   11       17.263802   0.000000
   12       18.515157   0.000000
   13       19.272315   0.000000
   14       21.889126   0.000000
   15       23.244516   0.000000
   16       23.977051   0.000000
 
  0.2727273E+00  0.2727273E+00  0.4545455E+00  0.1502630E-02
    1       -4.485433   1.000000
    2        0.407938   1.000000
    3        2.515093   1.000000
    4        4.543665   1.000000
    5        8.249649   0.000000
    6        9.830265   0.000000
    7        9.942860   0.000000
    8       11.905986   0.000000
    9       12.159173   0.000000
   10       15.658364   0.000000
   11       17.354289   0.000000
   12       17.624016   0.000000
   13       19.436005   0.000000
   14       21.463156   0.000000
   15       22.127310   0.000000
   16       23.061782   0.000000
 
  0.3636364E+00  0.2727273E+00  0.4545455E+00  0.3005259E-02
    1       -4.342950   1.000000
    2       -0.007489   1.000000
    3        3.009726   1.000000
    4        4.165590   1.000000
    5        8.282426   0.000000
    6        8.964952   0.000000
    7       10.386112   0.000000
    8       11.337435   0.000000
    9       14.203517   0.000000
   10       15.380848   0.000000
   11       17.138067   0.000000
   12       17.460498   0.000000
   13       19.681988   0.000000
   14       20.793996   0.000000
   15       22.324148   0.000000
   16       23.261803   0.000000
 
  0.4545455E+00  0.2727273E+00  0.4545455E+00  0.3005259E-02
    1       -4.020617   1.000000
    2       -0.394199   1.000000
    3        2.913105   1.000000
    4        3.756434   1.000000
    5        7.548641   0.000000
    6       10.019055   0.000000
    7       10.587327   0.000000
    8       10.873901   0.000000
    9       15.483915   0.000000
   10       16.411041   0.000000
   11       17.047526   0.000000
   12       17.208392   0.000000
   13       18.254408   0.000000
   14       21.614541   0.000000
   15       23.219617   0.000000
   16       23.387890   0.000000
 
 -0.4545455E+00  0.2727273E+00  0.4545455E+00  0.3005259E-02
    1       -3.540911   1.000000
    2       -0.720605   1.000000
    3        2.175719   1.000000
    4        3.363174   1.000000
    5        7.891885   0.000000
    6        9.864987   0.000000
    7       10.683847   0.000000
    8       11.943703   0.000000
    9       14.587733   0.000000
   10       16.238794   0.000000
   11       17.259048   0.000000
   12       18.511541   0.000000
   13       19.288289   0.000000
   14       21.894918   0.000000
   15       23.259144   0.000000
   16       23.979191   0.000000
 
 -0.3636364E+00  0.2727273E+00  0.4545455E+00  0.3005259E-02
    1       -2.946263   1.000000
    2       -1.099869   1.000000
    3        1.639412   1.000000
    4        2.747707   1.000000
    5        9.059709   0.000000
    6        9.409998   0.000000
    7       10.674987   0.000000
    8       12.523071   0.000000
    9       13.674560   0.000000
   10       16.187526   0.000000
   11       18.065409   0.000000
   12       19.521437   0.000000
   13       20.952453   0.000000
   14       21.799889   0.000000
   15       22.448194   0.000000
   16       24.008966   0.000000
 
 -0.2727273E+00  0.2727273E+00  0.4545455E+00  0.3005259E-02
    1       -2.346808   1.000000
    2       -1.613856   1.000000
    3        1.595138   1.000000
    4        2.276235   1.000000
    5        8.954923   0.000000
    6       10.240070   0.000000
    7       10.949286   0.000000
    8       10.958433   0.000000
    9       15.184027   0.000000
   10       16.262326   0.000000
   11       18.243453   0.000000
   12       19.414168   0.000000
   13       21.173075   0.000000
   14       22.196513   0.000000
   15       23.542934   0.000000
   16       23.695226   0.000000
 
 -0.1818182E+00  0.2727273E+00  0.4545455E+00  0.3005259E-02
    1       -2.538833   1.000000
    2       -1.456933   1.000000
    3        1.865999   1.000000
    4        2.245087   1.000000
    5        8.611963   0.000000
    6        8.823626   0.000000
    7       11.183723   0.000000
    8       12.747713   0.000000
    9       15.165427   0.000000
   10       16.609992   0.000000
   11       17.939073   0.000000
   12       19.257008   0.000000
   13       21.106930   0.000000
   14       21.844126   0.000000
   15       22.445728   0.000000
   16       23.606506   0.000000
 
 -0.9090909E-01  0.2727273E+00  0.4545455E+00  0.3005259E-02
    1       -3.202021   1.000000
    2       -0.841231   1.000000
    3        2.025703   1.000000
    4        2.870640   1.000000
    5        7.402927   0.000000
    6        8.703657   0.000000
    7       11.587832   0.000000
    8       13.682111   0.000000
    9       14.854966   0.000000
   10       16.716576   0.000000
   11       17.586064   0.000000
   12       19.302691   0.000000
   13       20.058041   0.000000
   14       20.620457   0.000000
   15       22.550300   0.000000
   16       23.095967   0.000000
 
  0.3636364E+00  0.3636364E+00  0.4545455E+00  0.1502630E-02
    1       -4.303567   1.000000
    2       -0.445110   1.000000
    3        3.672108   1.000000
    4        4.535442   1.000000
    5        7.766359   0.000000
    6        9.142819   0.000000
    7        9.219454   0.000000
    8       13.334310   0.000000
    9       13.605294   0.000000
   10       14.761142   0.000000
   11       16.753534   0.000000
   12       17.424872   0.000000
   13       19.867047   0.000000
   14       20.035433   0.000000
   15       22.184711   0.000000
   16       23.655629   0.000000
 
  0.4545455E+00  0.3636364E+00  0.4545455E+00  0.3005259E-02
    1       -4.095149   1.000000
    2       -0.785694   1.000000
    3        3.885593   1.000000
    4        4.206934   1.000000
    5        7.696099   0.000000
    6        8.891322   0.000000
    7        9.486688   0.000000
    8       12.952733   0.000000
    9       14.366440   0.000000
   10       15.934698   0.000000
   11       16.625171   0.000000
   12       17.300082   0.000000
   13       18.091522   0.000000
   14       20.370913   0.000000
   15       22.924893   0.000000
   16       24.475526   0.000000
 
 -0.4545455E+00  0.3636364E+00  0.4545455E+00  0.3005259E-02
    1       -3.742785   1.000000
    2       -0.968641   1.000000
    3        2.914428   1.000000
    4        3.952358   1.000000
    5        8.254176   0.000000
    6        8.767114   0.000000
    7       10.327733   0.000000
    8       12.786032   0.000000
    9       14.310080   0.000000
   10       15.442511   0.000000
   11       16.697478   0.000000
   12       18.071803   0.000000
   13       18.989597   0.000000
   14       20.782845   0.000000
   15       23.193984   0.000000
   16       24.974428   0.000000
 
 -0.3636364E+00  0.3636364E+00  0.4545455E+00  0.3005259E-02
    1       -3.281333   1.000000
    2       -1.061124   1.000000
    3        1.949026   1.000000
    4        3.451303   1.000000
    5        8.100488   0.000000
    6        9.603049   0.000000
    7       11.831136   0.000000
    8       12.353117   0.000000
    9       12.835476   0.000000
   10       15.561587   0.000000
   11       17.710165   0.000000
   12       18.555667   0.000000
   13       21.104453   0.000000
   14       21.566328   0.000000
   15       22.792672   0.000000
   16       23.740356   0.000000
 
 -0.2727273E+00  0.3636364E+00  0.4545455E+00  0.3005259E-02
    1       -2.746143   1.000000
    2       -1.322838   1.000000
    3        1.516697   1.000000
    4        2.976852   1.000000
    5        7.605642   0.000000
    6       10.267838   0.000000
    7       11.280123   0.000000
    8       12.874609   0.000000
    9       13.635344   0.000000
   10       15.662062   0.000000
   11       18.598080   0.000000
   12       19.809563   0.000000
   13       21.065775   0.000000
   14       21.522147   0.000000
   15       22.723983   0.000000
   16       23.649224   0.000000
 
 -0.1818182E+00  0.3636364E+00  0.4545455E+00  0.3005259E-02
    1       -2.229191   1.000000
    2       -1.846645   1.000000
    3        1.825877   1.000000
    4        2.656168   1.000000
    5        7.263392   0.000000
    6        8.507890   0.000000
    7       13.000254   0.000000
    8       13.226864   0.000000
    9       15.252960   0.000000
   10       15.888137   0.000000
   11       18.483795   0.000000
   12       19.278968   0.000000
   13       20.985594   0.000000
   14       21.643839   0.000000
   15       22.201475   0.000000
   16       22.615020   0.000000
 
 -0.9090909E-01  0.3636364E+00  0.4545455E+00  0.3005259E-02
    1       -2.720309   1.000000
    2       -1.411409   1.000000
    3        2.468327   1.000000
    4        2.589300   1.000000
    5        6.988474   0.000000
    6        7.260571   0.000000
    7       13.452232   0.000000
    8       14.840428   0.000000
    9       15.447799   0.000000
   10       16.876346   0.000000
   11       17.580194   0.000000
   12       19.064633   0.000000
   13       19.241573   0.000000
   14       20.865348   0.000000
   15       22.107906   0.000000
   16       23.462403   0.000000
 
  0.4545455E+00  0.4545455E+00  0.4545455E+00  0.1502630E-02
    1       -4.022983   1.000000
    2       -1.083078   1.000000
    3        4.453963   1.000000
    4        4.462490   1.000000
    5        7.108114   0.000000
    6        8.982845   0.000000
    7        8.992782   0.000000
    8       13.350118   0.000000
    9       15.515848   0.000000
   10       15.518157   0.000000
   11       16.428769   0.000000
   12       17.525991   0.000000
   13       17.531057   0.000000
   14       18.748989   0.000000
   15       23.708211   0.000000
   16       25.999973   0.000000
 
 -0.4545455E+00  0.4545455E+00  0.4545455E+00  0.3005259E-02
    1       -3.832863   1.000000
    2       -1.177925   1.000000
    3        3.710998   1.000000
    4        4.305979   1.000000
    5        7.667203   0.000000
    6        8.949088   0.000000
    7        9.305013   0.000000
    8       13.655140   0.000000
    9       14.907668   0.000000
   10       15.228368   0.000000
   11       16.501854   0.000000
   12       17.882508   0.000000
   13       18.217068   0.000000
   14       19.021321   0.000000
   15       24.309503   0.000000
   16       25.456882   0.000000
 
 -0.3636364E+00  0.4545455E+00  0.4545455E+00  0.3005259E-02
    1       -3.550186   1.000000
    2       -1.088119   1.000000
    3        2.582369   1.000000
    4        3.884669   1.000000
    5        7.644236   0.000000
    6        9.894044   0.000000
    7       10.301799   0.000000
    8       12.482977   0.000000
    9       14.648522   0.000000
   10       15.103660   0.000000
   11       17.048952   0.000000
   12       18.306801   0.000000
   13       18.968621   0.000000
   14       21.170472   0.000000
   15       24.189193   0.000000
   16       24.437907   0.000000
 
 -0.2727273E+00  0.4545455E+00  0.4545455E+00  0.3005259E-02
    1       -3.179575   1.000000
    2       -1.032390   1.000000
    3        1.809964   1.000000
    4        3.432817   1.000000
    5        7.106976   0.000000
    6       10.356676   0.000000
    7       11.659237   0.000000
    8       11.728071   0.000000
    9       15.032227   0.000000
   10       15.150869   0.000000
   11       18.666468   0.000000
   12       18.673705   0.000000
   13       19.195134   0.000000
   14       23.064220   0.000000
   15       23.079872   0.000000
   16       23.578932   0.000000
 
 -0.1818182E+00  0.4545455E+00  0.4545455E+00  0.3005259E-02
    1       -2.706270   1.000000
    2       -1.399262   1.000000
    3        1.833841   1.000000
    4        3.080835   1.000000
    5        6.669827   0.000000
    6        8.496429   0.000000
    7       13.407384   0.000000
    8       13.540030   0.000000
    9       15.277890   0.000000
   10       15.365797   0.000000
   11       18.813672   0.000000
   12       19.151221   0.000000
   13       20.774214   0.000000
   14       20.840483   0.000000
   15       21.448982   0.000000
   16       23.600558   0.000000
 
 -0.9090909E-01  0.4545455E+00  0.4545455E+00  0.3005259E-02
    1       -2.161178   1.000000
    2       -2.042789   1.000000
    3        2.433703   1.000000
    4        2.882486   1.000000
    5        6.436539   0.000000
    6        7.020796   0.000000
    7       14.958754   0.000000
    8       15.188057   0.000000
    9       15.706309   0.000000
   10       15.889160   0.000000
   11       18.697618   0.000000
   12       18.741350   0.000000
   13       18.814904   0.000000
   14       19.381435   0.000000
   15       23.350902   0.000000
   16       23.684145   0.000000
 
 -0.4545455E+00 -0.4545455E+00  0.4545455E+00  0.1502630E-02
    1       -3.832735   1.000000
    2       -1.178065   1.000000
    3        3.705825   1.000000
    4        4.311791   1.000000
    5        7.667654   0.000000
    6        8.954336   0.000000
    7        9.298030   0.000000
    8       13.655247   0.000000
    9       14.908461   0.000000
   10       15.230196   0.000000
   11       16.497341   0.000000
   12       17.886461   0.000000
   13       18.217315   0.000000
   14       19.019589   0.000000
   15       24.310470   0.000000
   16       25.456944   0.000000
 
 -0.3636364E+00 -0.4545455E+00  0.4545455E+00  0.3005259E-02
    1       -3.742409   1.000000
    2       -0.969127   1.000000
    3        2.909222   1.000000
    4        3.958589   1.000000
    5        8.251566   0.000000
    6        8.773974   0.000000
    7       10.321175   0.000000
    8       12.786412   0.000000
    9       14.309257   0.000000
   10       15.445565   0.000000
   11       16.696078   0.000000
   12       18.073950   0.000000
   13       18.987501   0.000000
   14       20.783009   0.000000
   15       23.194555   0.000000
   16       24.973476   0.000000
 
 -0.2727273E+00 -0.4545455E+00  0.4545455E+00  0.3005259E-02
    1       -3.540298   1.000000
    2       -0.721726   1.000000
    3        2.172483   1.000000
    4        3.367605   1.000000
    5        7.890816   0.000000
    6        9.869129   0.000000
    7       10.684580   0.000000
    8       11.938324   0.000000
    9       14.585151   0.000000
   10       16.242852   0.000000
   11       17.260788   0.000000
   12       18.512648   0.000000
   13       19.284506   0.000000
   14       21.893748   0.000000
   15       23.257387   0.000000
   16       23.977237   0.000000
 
 -0.1818182E+00 -0.4545455E+00  0.4545455E+00  0.3005259E-02
    1       -3.202733   1.000000
    2       -0.837140   1.000000
    3        2.027284   1.000000
    4        2.865326   1.000000
    5        7.393612   0.000000
    6        8.712598   0.000000
    7       11.581328   0.000000
    8       13.679042   0.000000
    9       14.861818   0.000000
   10       16.717816   0.000000
   11       17.585583   0.000000
   12       19.314467   0.000000
   13       20.055170   0.000000
   14       20.617275   0.000000
   15       22.544768   0.000000
   16       23.096643   0.000000
 
 -0.9090909E-01 -0.4545455E+00  0.4545455E+00  0.3005259E-02
    1       -2.720024   1.000000
    2       -1.411394   1.000000
    3        2.468216   1.000000
    4        2.589163   1.000000
    5        6.989002   0.000000
    6        7.259595   0.000000
    7       13.445079   0.000000
    8       14.844008   0.000000
    9       15.452786   0.000000
   10       16.875249   0.000000
   11       17.579788   0.000000
   12       19.064196   0.000000
   13       19.251934   0.000000
   14       20.855835   0.000000
   15       22.100620   0.000000
   16       23.462378   0.000000
 
 -0.3636364E+00 -0.3636364E+00  0.4545455E+00  0.1502630E-02
    1       -3.827578   1.000000
    2       -0.686782   1.000000
    3        2.429438   1.000000
    4        4.162736   1.000000
    5        7.892949   0.000000
    6        9.887250   0.000000
    7       10.073685   0.000000
    8       13.290624   0.000000
    9       13.396108   0.000000
   10       14.224053   0.000000
   11       16.927308   0.000000
   12       19.308283   0.000000
   13       20.281357   0.000000
   14       20.495597   0.000000
   15       21.932590   0.000000
   16       24.261637   0.000000
 
 -0.2727273E+00 -0.3636364E+00  0.4545455E+00  0.3005259E-02
    1       -3.774858   1.000000
    2       -0.389550   1.000000
    3        1.938191   1.000000
    4        3.746729   1.000000
    5        8.458735   0.000000
    6        9.415836   0.000000
    7       11.135987   0.000000
    8       11.759256   0.000000
    9       14.051519   0.000000
   10       14.315819   0.000000
   11       17.938941   0.000000
   12       19.545101   0.000000
   13       20.093975   0.000000
   14       20.606709   0.000000
   15       22.983751   0.000000
   16       23.263255   0.000000
 
 -0.1818182E+00 -0.3636364E+00  0.4545455E+00  0.3005259E-02
    1       -3.566490   1.000000
    2       -0.415762   1.000000
    3        1.914037   1.000000
    4        3.066685   1.000000
    5        8.691890   0.000000
    6        9.340937   0.000000
    7        9.880759   0.000000
    8       13.222927   0.000000
    9       14.502282   0.000000
   10       15.057743   0.000000
   11       19.071723   0.000000
   12       19.392067   0.000000
   13       19.720324   0.000000
   14       20.120254   0.000000
   15       22.173954   0.000000
   16       23.523560   0.000000
 
 -0.9090909E-01 -0.3636364E+00  0.4545455E+00  0.3005259E-02
    1       -3.201716   1.000000
    2       -0.840972   1.000000
    3        2.025838   1.000000
    4        2.870025   1.000000
    5        7.402449   0.000000
    6        8.703302   0.000000
    7       11.581138   0.000000
    8       13.687068   0.000000
    9       14.865043   0.000000
   10       16.707374   0.000000
   11       17.577194   0.000000
   12       19.313624   0.000000
   13       20.063479   0.000000
   14       20.621038   0.000000
   15       22.545056   0.000000
   16       23.093719   0.000000
 
 -0.2727273E+00 -0.2727273E+00  0.4545455E+00  0.1502630E-02
    1       -3.855596   1.000000
    2       -0.212665   1.000000
    3        1.690367   1.000000
    4        4.102236   1.000000
    5        7.830424   0.000000
    6       10.785381   0.000000
    7       11.126874   0.000000
    8       11.952175   0.000000
    9       12.332732   0.000000
   10       14.243100   0.000000
   11       18.590375   0.000000
   12       19.253355   0.000000
   13       19.710443   0.000000
   14       22.229697   0.000000
   15       22.433879   0.000000
   16       22.997076   0.000000
 
 -0.1818182E+00 -0.2727273E+00  0.4545455E+00  0.3005259E-02
    1       -3.774046   1.000000
    2       -0.395967   1.000000
    3        1.944015   1.000000
    4        3.746780   1.000000
    5        8.459319   0.000000
    6        9.424714   0.000000
    7       11.126901   0.000000
    8       11.767656   0.000000
    9       14.039595   0.000000
   10       14.319201   0.000000
   11       17.948181   0.000000
   12       19.547640   0.000000
   13       20.079701   0.000000
   14       20.598835   0.000000
   15       22.970103   0.000000
   16       23.272110   0.000000
 
 -0.9090909E-01 -0.2727273E+00  0.4545455E+00  0.3005259E-02
    1       -3.538528   1.000000
    2       -0.730767   1.000000
    3        2.177031   1.000000
    4        3.371112   1.000000
    5        7.900406   0.000000
    6        9.869837   0.000000
    7       10.673329   0.000000
    8       11.948968   0.000000
    9       14.587892   0.000000
   10       16.231726   0.000000
   11       17.257150   0.000000
   12       18.512094   0.000000
   13       19.285959   0.000000
   14       21.887832   0.000000
   15       23.249521   0.000000
   16       23.978266   0.000000
 
 -0.1818182E+00 -0.1818182E+00  0.4545455E+00  0.1502630E-02
    1       -3.825972   1.000000
    2       -0.696706   1.000000
    3        2.438615   1.000000
    4        4.162215   1.000000
    5        7.894514   0.000000
    6        9.895847   0.000000
    7       10.084874   0.000000
    8       13.280591   0.000000
    9       13.384238   0.000000
   10       14.225141   0.000000
   11       16.936662   0.000000
   12       19.310741   0.000000
   13       20.266369   0.000000
   14       20.483156   0.000000
   15       21.923584   0.000000
   16       24.260180   0.000000
 
 -0.9090909E-01 -0.1818182E+00  0.4545455E+00  0.3005259E-02
    1       -3.739981   1.000000
    2       -0.980566   1.000000
    3        2.917721   1.000000
    4        3.959972   1.000000
    5        8.260780   0.000000
    6        8.775734   0.000000
    7       10.331714   0.000000
    8       12.775984   0.000000
    9       14.312977   0.000000
   10       15.434658   0.000000
   11       16.698314   0.000000
   12       18.062420   0.000000
   13       18.991695   0.000000
   14       20.770401   0.000000
   15       23.185843   0.000000
   16       24.963566   0.000000
 
 -0.9090909E-01 -0.9090909E-01  0.4545455E+00  0.1502630E-02
    1       -3.829853   1.000000
    2       -1.190314   1.000000
    3        3.716996   1.000000
    4        4.310730   1.000000
    5        7.674793   0.000000
    6        8.956923   0.000000
    7        9.310356   0.000000
    8       13.663550   0.000000
    9       14.895827   0.000000
   10       15.216404   0.000000
   11       16.500018   0.000000
   12       17.872190   0.000000
   13       18.204044   0.000000
   14       19.029199   0.000000
   15       24.299653   0.000000
   16       25.448985   0.000000
