       N       E                     dE             d eps       ncg     rms          rms(c)
DAV:   1    -0.198492334515E+01   -0.19849E+01   -0.32148E+03 11728   0.387E+02
DAV:   2    -0.109448720207E+02   -0.89599E+01   -0.88292E+01 17088   0.354E+01
DAV:   3    -0.110025268895E+02   -0.57655E-01   -0.57655E-01 13296   0.358E+00
DAV:   4    -0.110026810128E+02   -0.15412E-03   -0.15412E-03 21792   0.200E-01
DAV:   5    -0.110026810218E+02   -0.90081E-08   -0.90000E-08 13056   0.126E-03    0.292E+00
DAV:   6    -0.108936611961E+02    0.10902E+00   -0.70523E-02 15776   0.693E-01    0.173E+00
DAV:   7    -0.108424701306E+02    0.51191E-01   -0.13310E-01 17760   0.102E+00    0.145E-01
DAV:   8    -0.108437632545E+02   -0.12931E-02   -0.31230E-03 14064   0.211E-01    0.254E-02
DAV:   9    -0.108438651131E+02   -0.10186E-03   -0.92822E-05 20912   0.402E-02    0.126E-02
DAV:  10    -0.108438821909E+02   -0.17078E-04   -0.22445E-05 14720   0.190E-02    0.207E-03
DAV:  11    -0.108438814004E+02    0.79058E-06   -0.91367E-07 19984   0.312E-03
   1 F= -.10843881E+02 E0= -.10843881E+02  d E =-.108439E+02
       N       E                     dE             d eps       ncg     rms          rms(c)
DAV:   1    -0.108519878810E+02   -0.81057E-02   -0.35022E-01 13856   0.176E+00    0.295E-01
DAV:   2    -0.108488918284E+02    0.30961E-02   -0.84481E-03 17632   0.405E-01    0.172E-01
DAV:   3    -0.108471447397E+02    0.17471E-02   -0.47748E-03 16352   0.191E-01    0.248E-02
DAV:   4    -0.108471406499E+02    0.40899E-05   -0.13038E-04 15872   0.501E-02    0.122E-02
DAV:   5    -0.108471414319E+02   -0.78200E-06   -0.87550E-06 18272   0.117E-02
   2 F= -.10847141E+02 E0= -.10847141E+02  d E =-.326003E-02
       N       E                     dE             d eps       ncg     rms          rms(c)
DAV:   1    -0.108500697704E+02   -0.29291E-02   -0.50899E-02 13680   0.670E-01    0.112E-01
DAV:   2    -0.108496209950E+02    0.44878E-03   -0.12329E-03 17664   0.155E-01    0.656E-02
DAV:   3    -0.108493567915E+02    0.26420E-03   -0.69490E-04 16288   0.729E-02    0.944E-03
DAV:   4    -0.108493544553E+02    0.23362E-05   -0.18938E-05 15824   0.190E-02    0.471E-03
DAV:   5    -0.108493525822E+02    0.18731E-05   -0.12604E-06 17600   0.443E-03    0.111E-03
DAV:   6    -0.108493523535E+02    0.22871E-06   -0.10183E-07  9616   0.126E-03
   3 F= -.10849352E+02 E0= -.10849352E+02  d E =-.547095E-02
       N       E                     dE             d eps       ncg     rms          rms(c)
DAV:   1    -0.108497186373E+02   -0.36606E-03   -0.54492E-03 18208   0.213E-01    0.471E-02
DAV:   2    -0.108495940815E+02    0.12456E-03   -0.23833E-04 16208   0.602E-02    0.243E-02
DAV:   3    -0.108495512125E+02    0.42869E-04   -0.16418E-04 19072   0.400E-02    0.417E-03
DAV:   4    -0.108495515279E+02   -0.31541E-06   -0.58666E-06 12960   0.124E-02
   4 F= -.10849552E+02 E0= -.10849552E+02  d E =-.199174E-03
       N       E                     dE             d eps       ncg     rms          rms(c)
DAV:   1    -0.108495833141E+02   -0.32102E-04   -0.61480E-04 18320   0.715E-02    0.158E-02
DAV:   2    -0.108495692532E+02    0.14061E-04   -0.27044E-05 15840   0.203E-02    0.814E-03
DAV:   3    -0.108495645075E+02    0.47457E-05   -0.18713E-05 19376   0.135E-02    0.143E-03
DAV:   4    -0.108495645969E+02   -0.89415E-07   -0.66362E-07 10128   0.422E-03
   5 F= -.10849565E+02 E0= -.10849565E+02  d E =-.212243E-03
