<?xml version="1.0" encoding="ISO-8859-1"?>
<modeling>
 <generator>
  <i name="program" type="string">vasp </i>
  <i name="version" type="string">5.4.4.18Apr17-6-g9f103f2a35  </i>
  <i name="subversion" type="string">(build Mar 07 2019 17:46:06) complex            parallel </i>
  <i name="platform" type="string">Magnus_Intel_PSXE_2016U4 </i>
  <i name="date" type="string">2025 10 01 </i>
  <i name="time" type="string">10:15:44 </i>
 </generator>
 <incar>
  <i type="string" name="SYSTEM"> cd Si</i>
  <i type="string" name="PREC">normal</i>
  <i type="int" name="IBRION">     2</i>
  <i name="EDIFF">      0.00000100</i>
  <i name="EDIFFG">     -0.00100000</i>
  <i type="int" name="NSW">     5</i>
  <i type="int" name="ISIF">     3</i>
  <i name="ENCUT">    500.00000000</i>
  <i type="int" name="ISMEAR">     0</i>
  <i name="SIGMA">      0.10000000</i>
  <i type="logical" name="LWAVE"> T  </i>
  <i type="logical" name="LCHARG"> T  </i>
  <v type="int" name="KPOINT_BSE">    -1     0     0     0</v>
 </incar>
 <structure name="primitive_cell" >
  <crystal>
   <varray name="basis" >
    <v>       0.00000000       2.75000000       2.75000000 </v>
    <v>       2.75000000       0.00000000       2.75000000 </v>
    <v>       2.75000000       2.75000000       0.00000000 </v>
   </varray>
   <i name="volume">     41.59375000 </i>
   <varray name="rec_basis" >
    <v>      -0.18181818       0.18181818       0.18181818 </v>
    <v>       0.18181818      -0.18181818       0.18181818 </v>
    <v>       0.18181818       0.18181818      -0.18181818 </v>
   </varray>
  </crystal>
  <varray name="positions" >
   <v>      -0.12500000      -0.12500000      -0.12500000 </v>
   <v>       0.12500000       0.12500000       0.13000000 </v>
  </varray>
 </structure>
 <varray name="primitive_index" >
  <v type="int" >        1 </v>
  <v type="int" >        2 </v>
 </varray>
 <kpoints>
  <generation param="Monkhorst-Pack">
   <v type="int" name="divisions">      11       11       11 </v>
   <v name="usershift">      0.00000000       0.00000000       0.00000000 </v>
   <v name="genvec1">      0.09090909       0.00000000       0.00000000 </v>
   <v name="genvec2">      0.00000000       0.09090909       0.00000000 </v>
   <v name="genvec3">      0.00000000       0.00000000       0.09090909 </v>
   <v name="shift">      0.00000000       0.00000000       0.00000000 </v>
  </generation>
  <varray name="kpointlist" >
   <v>       0.00000000       0.00000000       0.00000000 </v>
   <v>       0.09090909       0.00000000       0.00000000 </v>
   <v>       0.18181818       0.00000000       0.00000000 </v>
   <v>       0.27272727       0.00000000       0.00000000 </v>
   <v>       0.36363636       0.00000000       0.00000000 </v>
   <v>       0.45454545       0.00000000       0.00000000 </v>
   <v>       0.09090909       0.09090909       0.00000000 </v>
   <v>       0.18181818       0.09090909       0.00000000 </v>
   <v>       0.27272727       0.09090909       0.00000000 </v>
   <v>       0.36363636       0.09090909       0.00000000 </v>
   <v>       0.45454545       0.09090909       0.00000000 </v>
   <v>      -0.45454545       0.09090909       0.00000000 </v>
   <v>      -0.36363636       0.09090909       0.00000000 </v>
   <v>      -0.27272727       0.09090909       0.00000000 </v>
   <v>      -0.18181818       0.09090909       0.00000000 </v>
   <v>      -0.09090909       0.09090909       0.00000000 </v>
   <v>       0.18181818       0.18181818       0.00000000 </v>
   <v>       0.27272727       0.18181818       0.00000000 </v>
   <v>       0.36363636       0.18181818       0.00000000 </v>
   <v>       0.45454545       0.18181818       0.00000000 </v>
   <v>      -0.45454545       0.18181818       0.00000000 </v>
   <v>      -0.36363636       0.18181818       0.00000000 </v>
   <v>      -0.27272727       0.18181818       0.00000000 </v>
   <v>      -0.18181818       0.18181818       0.00000000 </v>
   <v>       0.27272727       0.27272727       0.00000000 </v>
   <v>       0.36363636       0.27272727       0.00000000 </v>
   <v>       0.45454545       0.27272727       0.00000000 </v>
   <v>      -0.45454545       0.27272727       0.00000000 </v>
   <v>      -0.36363636       0.27272727       0.00000000 </v>
   <v>      -0.27272727       0.27272727       0.00000000 </v>
   <v>       0.36363636       0.36363636       0.00000000 </v>
   <v>       0.45454545       0.36363636       0.00000000 </v>
   <v>      -0.45454545       0.36363636       0.00000000 </v>
   <v>      -0.36363636       0.36363636       0.00000000 </v>
   <v>       0.45454545       0.45454545       0.00000000 </v>
   <v>      -0.45454545       0.45454545       0.00000000 </v>
   <v>       0.00000000       0.00000000       0.09090909 </v>
   <v>       0.09090909       0.00000000       0.09090909 </v>
   <v>       0.18181818       0.00000000       0.09090909 </v>
   <v>       0.27272727       0.00000000       0.09090909 </v>
   <v>       0.36363636       0.00000000       0.09090909 </v>
   <v>       0.45454545       0.00000000       0.09090909 </v>
   <v>      -0.45454545       0.00000000       0.09090909 </v>
   <v>      -0.36363636       0.00000000       0.09090909 </v>
   <v>      -0.27272727       0.00000000       0.09090909 </v>
   <v>      -0.18181818       0.00000000       0.09090909 </v>
   <v>      -0.09090909       0.00000000       0.09090909 </v>
   <v>       0.09090909       0.09090909       0.09090909 </v>
   <v>       0.18181818       0.09090909       0.09090909 </v>
   <v>       0.27272727       0.09090909       0.09090909 </v>
   <v>       0.36363636       0.09090909       0.09090909 </v>
   <v>       0.45454545       0.09090909       0.09090909 </v>
   <v>      -0.45454545       0.09090909       0.09090909 </v>
   <v>      -0.36363636       0.09090909       0.09090909 </v>
   <v>      -0.27272727       0.09090909       0.09090909 </v>
   <v>      -0.18181818       0.09090909       0.09090909 </v>
   <v>      -0.09090909       0.09090909       0.09090909 </v>
   <v>       0.18181818       0.18181818       0.09090909 </v>
   <v>       0.27272727       0.18181818       0.09090909 </v>
   <v>       0.36363636       0.18181818       0.09090909 </v>
   <v>       0.45454545       0.18181818       0.09090909 </v>
   <v>      -0.45454545       0.18181818       0.09090909 </v>
   <v>      -0.36363636       0.18181818       0.09090909 </v>
   <v>      -0.27272727       0.18181818       0.09090909 </v>
   <v>      -0.18181818       0.18181818       0.09090909 </v>
   <v>      -0.09090909       0.18181818       0.09090909 </v>
   <v>       0.27272727       0.27272727       0.09090909 </v>
   <v>       0.36363636       0.27272727       0.09090909 </v>
   <v>       0.45454545       0.27272727       0.09090909 </v>
   <v>      -0.45454545       0.27272727       0.09090909 </v>
   <v>      -0.36363636       0.27272727       0.09090909 </v>
   <v>      -0.27272727       0.27272727       0.09090909 </v>
   <v>      -0.18181818       0.27272727       0.09090909 </v>
   <v>      -0.09090909       0.27272727       0.09090909 </v>
   <v>       0.36363636       0.36363636       0.09090909 </v>
   <v>       0.45454545       0.36363636       0.09090909 </v>
   <v>      -0.45454545       0.36363636       0.09090909 </v>
   <v>      -0.36363636       0.36363636       0.09090909 </v>
   <v>      -0.27272727       0.36363636       0.09090909 </v>
   <v>      -0.18181818       0.36363636       0.09090909 </v>
   <v>      -0.09090909       0.36363636       0.09090909 </v>
   <v>       0.45454545       0.45454545       0.09090909 </v>
   <v>      -0.45454545       0.45454545       0.09090909 </v>
   <v>      -0.36363636       0.45454545       0.09090909 </v>
   <v>      -0.27272727       0.45454545       0.09090909 </v>
   <v>      -0.18181818       0.45454545       0.09090909 </v>
   <v>      -0.09090909       0.45454545       0.09090909 </v>
   <v>      -0.45454545      -0.45454545       0.09090909 </v>
   <v>      -0.36363636      -0.45454545       0.09090909 </v>
   <v>      -0.27272727      -0.45454545       0.09090909 </v>
   <v>      -0.18181818      -0.45454545       0.09090909 </v>
   <v>      -0.09090909      -0.45454545       0.09090909 </v>
   <v>      -0.36363636      -0.36363636       0.09090909 </v>
   <v>      -0.27272727      -0.36363636       0.09090909 </v>
   <v>      -0.18181818      -0.36363636       0.09090909 </v>
   <v>      -0.09090909      -0.36363636       0.09090909 </v>
   <v>      -0.27272727      -0.27272727       0.09090909 </v>
   <v>      -0.18181818      -0.27272727       0.09090909 </v>
   <v>      -0.09090909      -0.27272727       0.09090909 </v>
   <v>      -0.18181818      -0.18181818       0.09090909 </v>
   <v>      -0.09090909      -0.18181818       0.09090909 </v>
   <v>      -0.09090909      -0.09090909       0.09090909 </v>
   <v>       0.00000000       0.00000000       0.18181818 </v>
   <v>       0.09090909       0.00000000       0.18181818 </v>
   <v>       0.18181818       0.00000000       0.18181818 </v>
   <v>       0.27272727       0.00000000       0.18181818 </v>
   <v>       0.36363636       0.00000000       0.18181818 </v>
   <v>       0.45454545       0.00000000       0.18181818 </v>
   <v>      -0.45454545       0.00000000       0.18181818 </v>
   <v>      -0.36363636       0.00000000       0.18181818 </v>
   <v>      -0.27272727       0.00000000       0.18181818 </v>
   <v>      -0.18181818       0.00000000       0.18181818 </v>
   <v>      -0.09090909       0.00000000       0.18181818 </v>
   <v>       0.09090909       0.09090909       0.18181818 </v>
   <v>       0.18181818       0.09090909       0.18181818 </v>
   <v>       0.27272727       0.09090909       0.18181818 </v>
   <v>       0.36363636       0.09090909       0.18181818 </v>
   <v>       0.45454545       0.09090909       0.18181818 </v>
   <v>      -0.45454545       0.09090909       0.18181818 </v>
   <v>      -0.36363636       0.09090909       0.18181818 </v>
   <v>      -0.27272727       0.09090909       0.18181818 </v>
   <v>      -0.18181818       0.09090909       0.18181818 </v>
   <v>      -0.09090909       0.09090909       0.18181818 </v>
   <v>       0.18181818       0.18181818       0.18181818 </v>
   <v>       0.27272727       0.18181818       0.18181818 </v>
   <v>       0.36363636       0.18181818       0.18181818 </v>
   <v>       0.45454545       0.18181818       0.18181818 </v>
   <v>      -0.45454545       0.18181818       0.18181818 </v>
   <v>      -0.36363636       0.18181818       0.18181818 </v>
   <v>      -0.27272727       0.18181818       0.18181818 </v>
   <v>      -0.18181818       0.18181818       0.18181818 </v>
   <v>      -0.09090909       0.18181818       0.18181818 </v>
   <v>       0.27272727       0.27272727       0.18181818 </v>
   <v>       0.36363636       0.27272727       0.18181818 </v>
   <v>       0.45454545       0.27272727       0.18181818 </v>
   <v>      -0.45454545       0.27272727       0.18181818 </v>
   <v>      -0.36363636       0.27272727       0.18181818 </v>
   <v>      -0.27272727       0.27272727       0.18181818 </v>
   <v>      -0.18181818       0.27272727       0.18181818 </v>
   <v>      -0.09090909       0.27272727       0.18181818 </v>
   <v>       0.36363636       0.36363636       0.18181818 </v>
   <v>       0.45454545       0.36363636       0.18181818 </v>
   <v>      -0.45454545       0.36363636       0.18181818 </v>
   <v>      -0.36363636       0.36363636       0.18181818 </v>
   <v>      -0.27272727       0.36363636       0.18181818 </v>
   <v>      -0.18181818       0.36363636       0.18181818 </v>
   <v>      -0.09090909       0.36363636       0.18181818 </v>
   <v>       0.45454545       0.45454545       0.18181818 </v>
   <v>      -0.45454545       0.45454545       0.18181818 </v>
   <v>      -0.36363636       0.45454545       0.18181818 </v>
   <v>      -0.27272727       0.45454545       0.18181818 </v>
   <v>      -0.18181818       0.45454545       0.18181818 </v>
   <v>      -0.09090909       0.45454545       0.18181818 </v>
   <v>      -0.45454545      -0.45454545       0.18181818 </v>
   <v>      -0.36363636      -0.45454545       0.18181818 </v>
   <v>      -0.27272727      -0.45454545       0.18181818 </v>
   <v>      -0.18181818      -0.45454545       0.18181818 </v>
   <v>      -0.09090909      -0.45454545       0.18181818 </v>
   <v>      -0.36363636      -0.36363636       0.18181818 </v>
   <v>      -0.27272727      -0.36363636       0.18181818 </v>
   <v>      -0.18181818      -0.36363636       0.18181818 </v>
   <v>      -0.09090909      -0.36363636       0.18181818 </v>
   <v>      -0.27272727      -0.27272727       0.18181818 </v>
   <v>      -0.18181818      -0.27272727       0.18181818 </v>
   <v>      -0.09090909      -0.27272727       0.18181818 </v>
   <v>      -0.18181818      -0.18181818       0.18181818 </v>
   <v>      -0.09090909      -0.18181818       0.18181818 </v>
   <v>      -0.09090909      -0.09090909       0.18181818 </v>
   <v>       0.00000000       0.00000000       0.27272727 </v>
   <v>       0.09090909       0.00000000       0.27272727 </v>
   <v>       0.18181818       0.00000000       0.27272727 </v>
   <v>       0.27272727       0.00000000       0.27272727 </v>
   <v>       0.36363636       0.00000000       0.27272727 </v>
   <v>       0.45454545       0.00000000       0.27272727 </v>
   <v>      -0.45454545       0.00000000       0.27272727 </v>
   <v>      -0.36363636       0.00000000       0.27272727 </v>
   <v>      -0.27272727       0.00000000       0.27272727 </v>
   <v>      -0.18181818       0.00000000       0.27272727 </v>
   <v>      -0.09090909       0.00000000       0.27272727 </v>
   <v>       0.09090909       0.09090909       0.27272727 </v>
   <v>       0.18181818       0.09090909       0.27272727 </v>
   <v>       0.27272727       0.09090909       0.27272727 </v>
   <v>       0.36363636       0.09090909       0.27272727 </v>
   <v>       0.45454545       0.09090909       0.27272727 </v>
   <v>      -0.45454545       0.09090909       0.27272727 </v>
   <v>      -0.36363636       0.09090909       0.27272727 </v>
   <v>      -0.27272727       0.09090909       0.27272727 </v>
   <v>      -0.18181818       0.09090909       0.27272727 </v>
   <v>      -0.09090909       0.09090909       0.27272727 </v>
   <v>       0.18181818       0.18181818       0.27272727 </v>
   <v>       0.27272727       0.18181818       0.27272727 </v>
   <v>       0.36363636       0.18181818       0.27272727 </v>
   <v>       0.45454545       0.18181818       0.27272727 </v>
   <v>      -0.45454545       0.18181818       0.27272727 </v>
   <v>      -0.36363636       0.18181818       0.27272727 </v>
   <v>      -0.27272727       0.18181818       0.27272727 </v>
   <v>      -0.18181818       0.18181818       0.27272727 </v>
   <v>      -0.09090909       0.18181818       0.27272727 </v>
   <v>       0.27272727       0.27272727       0.27272727 </v>
   <v>       0.36363636       0.27272727       0.27272727 </v>
   <v>       0.45454545       0.27272727       0.27272727 </v>
   <v>      -0.45454545       0.27272727       0.27272727 </v>
   <v>      -0.36363636       0.27272727       0.27272727 </v>
   <v>      -0.27272727       0.27272727       0.27272727 </v>
   <v>      -0.18181818       0.27272727       0.27272727 </v>
   <v>      -0.09090909       0.27272727       0.27272727 </v>
   <v>       0.36363636       0.36363636       0.27272727 </v>
   <v>       0.45454545       0.36363636       0.27272727 </v>
   <v>      -0.45454545       0.36363636       0.27272727 </v>
   <v>      -0.36363636       0.36363636       0.27272727 </v>
   <v>      -0.27272727       0.36363636       0.27272727 </v>
   <v>      -0.18181818       0.36363636       0.27272727 </v>
   <v>      -0.09090909       0.36363636       0.27272727 </v>
   <v>       0.45454545       0.45454545       0.27272727 </v>
   <v>      -0.45454545       0.45454545       0.27272727 </v>
   <v>      -0.36363636       0.45454545       0.27272727 </v>
   <v>      -0.27272727       0.45454545       0.27272727 </v>
   <v>      -0.18181818       0.45454545       0.27272727 </v>
   <v>      -0.09090909       0.45454545       0.27272727 </v>
   <v>      -0.45454545      -0.45454545       0.27272727 </v>
   <v>      -0.36363636      -0.45454545       0.27272727 </v>
   <v>      -0.27272727      -0.45454545       0.27272727 </v>
   <v>      -0.18181818      -0.45454545       0.27272727 </v>
   <v>      -0.09090909      -0.45454545       0.27272727 </v>
   <v>      -0.36363636      -0.36363636       0.27272727 </v>
   <v>      -0.27272727      -0.36363636       0.27272727 </v>
   <v>      -0.18181818      -0.36363636       0.27272727 </v>
   <v>      -0.09090909      -0.36363636       0.27272727 </v>
   <v>      -0.27272727      -0.27272727       0.27272727 </v>
   <v>      -0.18181818      -0.27272727       0.27272727 </v>
   <v>      -0.09090909      -0.27272727       0.27272727 </v>
   <v>      -0.18181818      -0.18181818       0.27272727 </v>
   <v>      -0.09090909      -0.18181818       0.27272727 </v>
   <v>      -0.09090909      -0.09090909       0.27272727 </v>
   <v>       0.00000000       0.00000000       0.36363636 </v>
   <v>       0.09090909       0.00000000       0.36363636 </v>
   <v>       0.18181818       0.00000000       0.36363636 </v>
   <v>       0.27272727       0.00000000       0.36363636 </v>
   <v>       0.36363636       0.00000000       0.36363636 </v>
   <v>       0.45454545       0.00000000       0.36363636 </v>
   <v>      -0.45454545       0.00000000       0.36363636 </v>
   <v>      -0.36363636       0.00000000       0.36363636 </v>
   <v>      -0.27272727       0.00000000       0.36363636 </v>
   <v>      -0.18181818       0.00000000       0.36363636 </v>
   <v>      -0.09090909       0.00000000       0.36363636 </v>
   <v>       0.09090909       0.09090909       0.36363636 </v>
   <v>       0.18181818       0.09090909       0.36363636 </v>
   <v>       0.27272727       0.09090909       0.36363636 </v>
   <v>       0.36363636       0.09090909       0.36363636 </v>
   <v>       0.45454545       0.09090909       0.36363636 </v>
   <v>      -0.45454545       0.09090909       0.36363636 </v>
   <v>      -0.36363636       0.09090909       0.36363636 </v>
   <v>      -0.27272727       0.09090909       0.36363636 </v>
   <v>      -0.18181818       0.09090909       0.36363636 </v>
   <v>      -0.09090909       0.09090909       0.36363636 </v>
   <v>       0.18181818       0.18181818       0.36363636 </v>
   <v>       0.27272727       0.18181818       0.36363636 </v>
   <v>       0.36363636       0.18181818       0.36363636 </v>
   <v>       0.45454545       0.18181818       0.36363636 </v>
   <v>      -0.45454545       0.18181818       0.36363636 </v>
   <v>      -0.36363636       0.18181818       0.36363636 </v>
   <v>      -0.27272727       0.18181818       0.36363636 </v>
   <v>      -0.18181818       0.18181818       0.36363636 </v>
   <v>      -0.09090909       0.18181818       0.36363636 </v>
   <v>       0.27272727       0.27272727       0.36363636 </v>
   <v>       0.36363636       0.27272727       0.36363636 </v>
   <v>       0.45454545       0.27272727       0.36363636 </v>
   <v>      -0.45454545       0.27272727       0.36363636 </v>
   <v>      -0.36363636       0.27272727       0.36363636 </v>
   <v>      -0.27272727       0.27272727       0.36363636 </v>
   <v>      -0.18181818       0.27272727       0.36363636 </v>
   <v>      -0.09090909       0.27272727       0.36363636 </v>
   <v>       0.36363636       0.36363636       0.36363636 </v>
   <v>       0.45454545       0.36363636       0.36363636 </v>
   <v>      -0.45454545       0.36363636       0.36363636 </v>
   <v>      -0.36363636       0.36363636       0.36363636 </v>
   <v>      -0.27272727       0.36363636       0.36363636 </v>
   <v>      -0.18181818       0.36363636       0.36363636 </v>
   <v>      -0.09090909       0.36363636       0.36363636 </v>
   <v>       0.45454545       0.45454545       0.36363636 </v>
   <v>      -0.45454545       0.45454545       0.36363636 </v>
   <v>      -0.36363636       0.45454545       0.36363636 </v>
   <v>      -0.27272727       0.45454545       0.36363636 </v>
   <v>      -0.18181818       0.45454545       0.36363636 </v>
   <v>      -0.09090909       0.45454545       0.36363636 </v>
   <v>      -0.45454545      -0.45454545       0.36363636 </v>
   <v>      -0.36363636      -0.45454545       0.36363636 </v>
   <v>      -0.27272727      -0.45454545       0.36363636 </v>
   <v>      -0.18181818      -0.45454545       0.36363636 </v>
   <v>      -0.09090909      -0.45454545       0.36363636 </v>
   <v>      -0.36363636      -0.36363636       0.36363636 </v>
   <v>      -0.27272727      -0.36363636       0.36363636 </v>
   <v>      -0.18181818      -0.36363636       0.36363636 </v>
   <v>      -0.09090909      -0.36363636       0.36363636 </v>
   <v>      -0.27272727      -0.27272727       0.36363636 </v>
   <v>      -0.18181818      -0.27272727       0.36363636 </v>
   <v>      -0.09090909      -0.27272727       0.36363636 </v>
   <v>      -0.18181818      -0.18181818       0.36363636 </v>
   <v>      -0.09090909      -0.18181818       0.36363636 </v>
   <v>      -0.09090909      -0.09090909       0.36363636 </v>
   <v>       0.00000000       0.00000000       0.45454545 </v>
   <v>       0.09090909       0.00000000       0.45454545 </v>
   <v>       0.18181818       0.00000000       0.45454545 </v>
   <v>       0.27272727       0.00000000       0.45454545 </v>
   <v>       0.36363636       0.00000000       0.45454545 </v>
   <v>       0.45454545       0.00000000       0.45454545 </v>
   <v>      -0.45454545       0.00000000       0.45454545 </v>
   <v>      -0.36363636       0.00000000       0.45454545 </v>
   <v>      -0.27272727       0.00000000       0.45454545 </v>
   <v>      -0.18181818       0.00000000       0.45454545 </v>
   <v>      -0.09090909       0.00000000       0.45454545 </v>
   <v>       0.09090909       0.09090909       0.45454545 </v>
   <v>       0.18181818       0.09090909       0.45454545 </v>
   <v>       0.27272727       0.09090909       0.45454545 </v>
   <v>       0.36363636       0.09090909       0.45454545 </v>
   <v>       0.45454545       0.09090909       0.45454545 </v>
   <v>      -0.45454545       0.09090909       0.45454545 </v>
   <v>      -0.36363636       0.09090909       0.45454545 </v>
   <v>      -0.27272727       0.09090909       0.45454545 </v>
   <v>      -0.18181818       0.09090909       0.45454545 </v>
   <v>      -0.09090909       0.09090909       0.45454545 </v>
   <v>       0.18181818       0.18181818       0.45454545 </v>
   <v>       0.27272727       0.18181818       0.45454545 </v>
   <v>       0.36363636       0.18181818       0.45454545 </v>
   <v>       0.45454545       0.18181818       0.45454545 </v>
   <v>      -0.45454545       0.18181818       0.45454545 </v>
   <v>      -0.36363636       0.18181818       0.45454545 </v>
   <v>      -0.27272727       0.18181818       0.45454545 </v>
   <v>      -0.18181818       0.18181818       0.45454545 </v>
   <v>      -0.09090909       0.18181818       0.45454545 </v>
   <v>       0.27272727       0.27272727       0.45454545 </v>
   <v>       0.36363636       0.27272727       0.45454545 </v>
   <v>       0.45454545       0.27272727       0.45454545 </v>
   <v>      -0.45454545       0.27272727       0.45454545 </v>
   <v>      -0.36363636       0.27272727       0.45454545 </v>
   <v>      -0.27272727       0.27272727       0.45454545 </v>
   <v>      -0.18181818       0.27272727       0.45454545 </v>
   <v>      -0.09090909       0.27272727       0.45454545 </v>
   <v>       0.36363636       0.36363636       0.45454545 </v>
   <v>       0.45454545       0.36363636       0.45454545 </v>
   <v>      -0.45454545       0.36363636       0.45454545 </v>
   <v>      -0.36363636       0.36363636       0.45454545 </v>
   <v>      -0.27272727       0.36363636       0.45454545 </v>
   <v>      -0.18181818       0.36363636       0.45454545 </v>
   <v>      -0.09090909       0.36363636       0.45454545 </v>
   <v>       0.45454545       0.45454545       0.45454545 </v>
   <v>      -0.45454545       0.45454545       0.45454545 </v>
   <v>      -0.36363636       0.45454545       0.45454545 </v>
   <v>      -0.27272727       0.45454545       0.45454545 </v>
   <v>      -0.18181818       0.45454545       0.45454545 </v>
   <v>      -0.09090909       0.45454545       0.45454545 </v>
   <v>      -0.45454545      -0.45454545       0.45454545 </v>
   <v>      -0.36363636      -0.45454545       0.45454545 </v>
   <v>      -0.27272727      -0.45454545       0.45454545 </v>
   <v>      -0.18181818      -0.45454545       0.45454545 </v>
   <v>      -0.09090909      -0.45454545       0.45454545 </v>
   <v>      -0.36363636      -0.36363636       0.45454545 </v>
   <v>      -0.27272727      -0.36363636       0.45454545 </v>
   <v>      -0.18181818      -0.36363636       0.45454545 </v>
   <v>      -0.09090909      -0.36363636       0.45454545 </v>
   <v>      -0.27272727      -0.27272727       0.45454545 </v>
   <v>      -0.18181818      -0.27272727       0.45454545 </v>
   <v>      -0.09090909      -0.27272727       0.45454545 </v>
   <v>      -0.18181818      -0.18181818       0.45454545 </v>
   <v>      -0.09090909      -0.18181818       0.45454545 </v>
   <v>      -0.09090909      -0.09090909       0.45454545 </v>
  </varray>
  <varray name="weights" >
   <v>       0.00075131 </v>
   <v>       0.00300526 </v>
   <v>       0.00300526 </v>
   <v>       0.00300526 </v>
   <v>       0.00300526 </v>
   <v>       0.00300526 </v>
   <v>       0.00150263 </v>
   <v>       0.00300526 </v>
   <v>       0.00300526 </v>
   <v>       0.00300526 </v>
   <v>       0.00300526 </v>
   <v>       0.00300526 </v>
   <v>       0.00300526 </v>
   <v>       0.00300526 </v>
   <v>       0.00300526 </v>
   <v>       0.00150263 </v>
   <v>       0.00150263 </v>
   <v>       0.00300526 </v>
   <v>       0.00300526 </v>
   <v>       0.00300526 </v>
   <v>       0.00300526 </v>
   <v>       0.00300526 </v>
   <v>       0.00300526 </v>
   <v>       0.00150263 </v>
   <v>       0.00150263 </v>
   <v>       0.00300526 </v>
   <v>       0.00300526 </v>
   <v>       0.00300526 </v>
   <v>       0.00300526 </v>
   <v>       0.00150263 </v>
   <v>       0.00150263 </v>
   <v>       0.00300526 </v>
   <v>       0.00300526 </v>
   <v>       0.00150263 </v>
   <v>       0.00150263 </v>
   <v>       0.00150263 </v>
   <v>       0.00150263 </v>
   <v>       0.00300526 </v>
   <v>       0.00300526 </v>
   <v>       0.00300526 </v>
   <v>       0.00300526 </v>
   <v>       0.00300526 </v>
   <v>       0.00300526 </v>
   <v>       0.00300526 </v>
   <v>       0.00300526 </v>
   <v>       0.00300526 </v>
   <v>       0.00300526 </v>
   <v>       0.00150263 </v>
   <v>       0.00300526 </v>
   <v>       0.00300526 </v>
   <v>       0.00300526 </v>
   <v>       0.00300526 </v>
   <v>       0.00300526 </v>
   <v>       0.00300526 </v>
   <v>       0.00300526 </v>
   <v>       0.00300526 </v>
   <v>       0.00300526 </v>
   <v>       0.00150263 </v>
   <v>       0.00300526 </v>
   <v>       0.00300526 </v>
   <v>       0.00300526 </v>
   <v>       0.00300526 </v>
   <v>       0.00300526 </v>
   <v>       0.00300526 </v>
   <v>       0.00300526 </v>
   <v>       0.00300526 </v>
   <v>       0.00150263 </v>
   <v>       0.00300526 </v>
   <v>       0.00300526 </v>
   <v>       0.00300526 </v>
   <v>       0.00300526 </v>
   <v>       0.00300526 </v>
   <v>       0.00300526 </v>
   <v>       0.00300526 </v>
   <v>       0.00150263 </v>
   <v>       0.00300526 </v>
   <v>       0.00300526 </v>
   <v>       0.00300526 </v>
   <v>       0.00300526 </v>
   <v>       0.00300526 </v>
   <v>       0.00300526 </v>
   <v>       0.00150263 </v>
   <v>       0.00300526 </v>
   <v>       0.00300526 </v>
   <v>       0.00300526 </v>
   <v>       0.00300526 </v>
   <v>       0.00300526 </v>
   <v>       0.00150263 </v>
   <v>       0.00300526 </v>
   <v>       0.00300526 </v>
   <v>       0.00300526 </v>
   <v>       0.00300526 </v>
   <v>       0.00150263 </v>
   <v>       0.00300526 </v>
   <v>       0.00300526 </v>
   <v>       0.00300526 </v>
   <v>       0.00150263 </v>
   <v>       0.00300526 </v>
   <v>       0.00300526 </v>
   <v>       0.00150263 </v>
   <v>       0.00300526 </v>
   <v>       0.00150263 </v>
   <v>       0.00150263 </v>
   <v>       0.00300526 </v>
   <v>       0.00300526 </v>
   <v>       0.00300526 </v>
   <v>       0.00300526 </v>
   <v>       0.00300526 </v>
   <v>       0.00300526 </v>
   <v>       0.00300526 </v>
   <v>       0.00300526 </v>
   <v>       0.00300526 </v>
   <v>       0.00300526 </v>
   <v>       0.00150263 </v>
   <v>       0.00300526 </v>
   <v>       0.00300526 </v>
   <v>       0.00300526 </v>
   <v>       0.00300526 </v>
   <v>       0.00300526 </v>
   <v>       0.00300526 </v>
   <v>       0.00300526 </v>
   <v>       0.00300526 </v>
   <v>       0.00300526 </v>
   <v>       0.00150263 </v>
   <v>       0.00300526 </v>
   <v>       0.00300526 </v>
   <v>       0.00300526 </v>
   <v>       0.00300526 </v>
   <v>       0.00300526 </v>
   <v>       0.00300526 </v>
   <v>       0.00300526 </v>
   <v>       0.00300526 </v>
   <v>       0.00150263 </v>
   <v>       0.00300526 </v>
   <v>       0.00300526 </v>
   <v>       0.00300526 </v>
   <v>       0.00300526 </v>
   <v>       0.00300526 </v>
   <v>       0.00300526 </v>
   <v>       0.00300526 </v>
   <v>       0.00150263 </v>
   <v>       0.00300526 </v>
   <v>       0.00300526 </v>
   <v>       0.00300526 </v>
   <v>       0.00300526 </v>
   <v>       0.00300526 </v>
   <v>       0.00300526 </v>
   <v>       0.00150263 </v>
   <v>       0.00300526 </v>
   <v>       0.00300526 </v>
   <v>       0.00300526 </v>
   <v>       0.00300526 </v>
   <v>       0.00300526 </v>
   <v>       0.00150263 </v>
   <v>       0.00300526 </v>
   <v>       0.00300526 </v>
   <v>       0.00300526 </v>
   <v>       0.00300526 </v>
   <v>       0.00150263 </v>
   <v>       0.00300526 </v>
   <v>       0.00300526 </v>
   <v>       0.00300526 </v>
   <v>       0.00150263 </v>
   <v>       0.00300526 </v>
   <v>       0.00300526 </v>
   <v>       0.00150263 </v>
   <v>       0.00300526 </v>
   <v>       0.00150263 </v>
   <v>       0.00150263 </v>
   <v>       0.00300526 </v>
   <v>       0.00300526 </v>
   <v>       0.00300526 </v>
   <v>       0.00300526 </v>
   <v>       0.00300526 </v>
   <v>       0.00300526 </v>
   <v>       0.00300526 </v>
   <v>       0.00300526 </v>
   <v>       0.00300526 </v>
   <v>       0.00300526 </v>
   <v>       0.00150263 </v>
   <v>       0.00300526 </v>
   <v>       0.00300526 </v>
   <v>       0.00300526 </v>
   <v>       0.00300526 </v>
   <v>       0.00300526 </v>
   <v>       0.00300526 </v>
   <v>       0.00300526 </v>
   <v>       0.00300526 </v>
   <v>       0.00300526 </v>
   <v>       0.00150263 </v>
   <v>       0.00300526 </v>
   <v>       0.00300526 </v>
   <v>       0.00300526 </v>
   <v>       0.00300526 </v>
   <v>       0.00300526 </v>
   <v>       0.00300526 </v>
   <v>       0.00300526 </v>
   <v>       0.00300526 </v>
   <v>       0.00150263 </v>
   <v>       0.00300526 </v>
   <v>       0.00300526 </v>
   <v>       0.00300526 </v>
   <v>       0.00300526 </v>
   <v>       0.00300526 </v>
   <v>       0.00300526 </v>
   <v>       0.00300526 </v>
   <v>       0.00150263 </v>
   <v>       0.00300526 </v>
   <v>       0.00300526 </v>
   <v>       0.00300526 </v>
   <v>       0.00300526 </v>
   <v>       0.00300526 </v>
   <v>       0.00300526 </v>
   <v>       0.00150263 </v>
   <v>       0.00300526 </v>
   <v>       0.00300526 </v>
   <v>       0.00300526 </v>
   <v>       0.00300526 </v>
   <v>       0.00300526 </v>
   <v>       0.00150263 </v>
   <v>       0.00300526 </v>
   <v>       0.00300526 </v>
   <v>       0.00300526 </v>
   <v>       0.00300526 </v>
   <v>       0.00150263 </v>
   <v>       0.00300526 </v>
   <v>       0.00300526 </v>
   <v>       0.00300526 </v>
   <v>       0.00150263 </v>
   <v>       0.00300526 </v>
   <v>       0.00300526 </v>
   <v>       0.00150263 </v>
   <v>       0.00300526 </v>
   <v>       0.00150263 </v>
   <v>       0.00150263 </v>
   <v>       0.00300526 </v>
   <v>       0.00300526 </v>
   <v>       0.00300526 </v>
   <v>       0.00300526 </v>
   <v>       0.00300526 </v>
   <v>       0.00300526 </v>
   <v>       0.00300526 </v>
   <v>       0.00300526 </v>
   <v>       0.00300526 </v>
   <v>       0.00300526 </v>
   <v>       0.00150263 </v>
   <v>       0.00300526 </v>
   <v>       0.00300526 </v>
   <v>       0.00300526 </v>
   <v>       0.00300526 </v>
   <v>       0.00300526 </v>
   <v>       0.00300526 </v>
   <v>       0.00300526 </v>
   <v>       0.00300526 </v>
   <v>       0.00300526 </v>
   <v>       0.00150263 </v>
   <v>       0.00300526 </v>
   <v>       0.00300526 </v>
   <v>       0.00300526 </v>
   <v>       0.00300526 </v>
   <v>       0.00300526 </v>
   <v>       0.00300526 </v>
   <v>       0.00300526 </v>
   <v>       0.00300526 </v>
   <v>       0.00150263 </v>
   <v>       0.00300526 </v>
   <v>       0.00300526 </v>
   <v>       0.00300526 </v>
   <v>       0.00300526 </v>
   <v>       0.00300526 </v>
   <v>       0.00300526 </v>
   <v>       0.00300526 </v>
   <v>       0.00150263 </v>
   <v>       0.00300526 </v>
   <v>       0.00300526 </v>
   <v>       0.00300526 </v>
   <v>       0.00300526 </v>
   <v>       0.00300526 </v>
   <v>       0.00300526 </v>
   <v>       0.00150263 </v>
   <v>       0.00300526 </v>
   <v>       0.00300526 </v>
   <v>       0.00300526 </v>
   <v>       0.00300526 </v>
   <v>       0.00300526 </v>
   <v>       0.00150263 </v>
   <v>       0.00300526 </v>
   <v>       0.00300526 </v>
   <v>       0.00300526 </v>
   <v>       0.00300526 </v>
   <v>       0.00150263 </v>
   <v>       0.00300526 </v>
   <v>       0.00300526 </v>
   <v>       0.00300526 </v>
   <v>       0.00150263 </v>
   <v>       0.00300526 </v>
   <v>       0.00300526 </v>
   <v>       0.00150263 </v>
   <v>       0.00300526 </v>
   <v>       0.00150263 </v>
   <v>       0.00150263 </v>
   <v>       0.00300526 </v>
   <v>       0.00300526 </v>
   <v>       0.00300526 </v>
   <v>       0.00300526 </v>
   <v>       0.00300526 </v>
   <v>       0.00300526 </v>
   <v>       0.00300526 </v>
   <v>       0.00300526 </v>
   <v>       0.00300526 </v>
   <v>       0.00300526 </v>
   <v>       0.00150263 </v>
   <v>       0.00300526 </v>
   <v>       0.00300526 </v>
   <v>       0.00300526 </v>
   <v>       0.00300526 </v>
   <v>       0.00300526 </v>
   <v>       0.00300526 </v>
   <v>       0.00300526 </v>
   <v>       0.00300526 </v>
   <v>       0.00300526 </v>
   <v>       0.00150263 </v>
   <v>       0.00300526 </v>
   <v>       0.00300526 </v>
   <v>       0.00300526 </v>
   <v>       0.00300526 </v>
   <v>       0.00300526 </v>
   <v>       0.00300526 </v>
   <v>       0.00300526 </v>
   <v>       0.00300526 </v>
   <v>       0.00150263 </v>
   <v>       0.00300526 </v>
   <v>       0.00300526 </v>
   <v>       0.00300526 </v>
   <v>       0.00300526 </v>
   <v>       0.00300526 </v>
   <v>       0.00300526 </v>
   <v>       0.00300526 </v>
   <v>       0.00150263 </v>
   <v>       0.00300526 </v>
   <v>       0.00300526 </v>
   <v>       0.00300526 </v>
   <v>       0.00300526 </v>
   <v>       0.00300526 </v>
   <v>       0.00300526 </v>
   <v>       0.00150263 </v>
   <v>       0.00300526 </v>
   <v>       0.00300526 </v>
   <v>       0.00300526 </v>
   <v>       0.00300526 </v>
   <v>       0.00300526 </v>
   <v>       0.00150263 </v>
   <v>       0.00300526 </v>
   <v>       0.00300526 </v>
   <v>       0.00300526 </v>
   <v>       0.00300526 </v>
   <v>       0.00150263 </v>
   <v>       0.00300526 </v>
   <v>       0.00300526 </v>
   <v>       0.00300526 </v>
   <v>       0.00150263 </v>
   <v>       0.00300526 </v>
   <v>       0.00300526 </v>
   <v>       0.00150263 </v>
   <v>       0.00300526 </v>
   <v>       0.00150263 </v>
  </varray>
 </kpoints>
 <parameters>
  <separator name="general" >
   <i type="string" name="SYSTEM">cd Si</i>
   <i type="logical" name="LCOMPAT"> F  </i>
  </separator>
  <separator name="electronic" >
   <i type="string" name="PREC">normal</i>
   <i name="ENMAX">    500.00000000</i>
   <i name="ENAUG">    322.06900000</i>
   <i name="EDIFF">      0.00000100</i>
   <i type="int" name="IALGO">    38</i>
   <i type="int" name="IWAVPR">    11</i>
   <i type="int" name="NBANDS">    16</i>
   <i name="NELECT">      8.00000000</i>
   <i type="int" name="TURBO">     0</i>
   <i type="int" name="IRESTART">     0</i>
   <i type="int" name="NREBOOT">     0</i>
   <i type="int" name="NMIN">     0</i>
   <i name="EREF">      0.00000000</i>
   <separator name="electronic smearing" >
    <i type="int" name="ISMEAR">     0</i>
    <i name="SIGMA">      0.10000000</i>
    <i name="KSPACING">      0.50000000</i>
    <i type="logical" name="KGAMMA"> T  </i>
   </separator>
   <separator name="electronic projectors" >
    <i type="logical" name="LREAL"> F  </i>
    <v name="ROPT">      0.00000000</v>
    <i type="int" name="LMAXPAW">  -100</i>
    <i type="int" name="LMAXMIX">     2</i>
    <i type="logical" name="NLSPLINE"> F  </i>
   </separator>
   <separator name="electronic startup" >
    <i type="int" name="ISTART">     0</i>
    <i type="int" name="ICHARG">     2</i>
    <i type="int" name="INIWAV">     1</i>
   </separator>
   <separator name="electronic spin" >
    <i type="int" name="ISPIN">     1</i>
    <i type="logical" name="LNONCOLLINEAR"> F  </i>
    <v name="MAGMOM">      1.00000000      1.00000000</v>
    <i name="NUPDOWN">     -1.00000000</i>
    <i type="logical" name="LSORBIT"> F  </i>
    <v name="SAXIS">      0.00000000      0.00000000      1.00000000</v>
    <i type="logical" name="LSPIRAL"> F  </i>
    <v name="QSPIRAL">      0.00000000      0.00000000      0.00000000</v>
    <i type="logical" name="LZEROZ"> F  </i>
   </separator>
   <separator name="electronic exchange-correlation" >
    <i type="logical" name="LASPH"> F  </i>
    <i type="logical" name="LMETAGGA"> F  </i>
   </separator>
   <separator name="electronic convergence" >
    <i type="int" name="NELM">    60</i>
    <i type="int" name="NELMDL">    -5</i>
    <i type="int" name="NELMIN">     2</i>
    <i name="ENINI">    500.00000000</i>
    <separator name="electronic convergence detail" >
     <i type="logical" name="LDIAG"> T  </i>
     <i type="logical" name="LSUBROT"> F  </i>
     <i name="WEIMIN">      0.00100000</i>
     <i name="EBREAK">      0.00000002</i>
     <i name="DEPER">      0.30000000</i>
     <i type="int" name="NRMM">     4</i>
     <i name="TIME">      0.40000000</i>
    </separator>
   </separator>
   <separator name="electronic mixer" >
    <i name="AMIX">      0.40000000</i>
    <i name="BMIX">      1.00000000</i>
    <i name="AMIN">      0.10000000</i>
    <i name="AMIX_MAG">      1.60000000</i>
    <i name="BMIX_MAG">      1.00000000</i>
    <separator name="electronic mixer details" >
     <i type="int" name="IMIX">     4</i>
     <i type="logical" name="MIXFIRST"> F  </i>
     <i type="int" name="MAXMIX">   -45</i>
     <i name="WC">    100.00000000</i>
     <i type="int" name="INIMIX">     1</i>
     <i type="int" name="MIXPRE">     1</i>
     <i type="int" name="MREMOVE">     5</i>
    </separator>
   </separator>
   <separator name="electronic dipolcorrection" >
    <i type="logical" name="LDIPOL"> F  </i>
    <i type="logical" name="LMONO"> F  </i>
    <i type="int" name="IDIPOL">     0</i>
    <i name="EPSILON">      1.00000000</i>
    <v name="DIPOL">   -100.00000000   -100.00000000   -100.00000000</v>
    <i name="EFIELD">      0.00000000</i>
   </separator>
  </separator>
  <separator name="grids" >
   <i type="int" name="NGX">    24</i>
   <i type="int" name="NGY">    24</i>
   <i type="int" name="NGZ">    24</i>
   <i type="int" name="NGXF">    48</i>
   <i type="int" name="NGYF">    48</i>
   <i type="int" name="NGZF">    48</i>
   <i type="logical" name="ADDGRID"> F  </i>
  </separator>
  <separator name="ionic" >
   <i type="int" name="NSW">     5</i>
   <i type="int" name="IBRION">     2</i>
   <i type="int" name="MDALGO">     0</i>
   <i type="int" name="ISIF">     3</i>
   <i name="PSTRESS">      0.00000000</i>
   <i name="EDIFFG">     -0.00100000</i>
   <i type="int" name="NFREE">     1</i>
   <i name="POTIM">      0.50000000</i>
   <i name="SMASS">     -3.00000000</i>
   <i name="SCALEE">      1.00000000</i>
  </separator>
  <separator name="ionic md" >
   <i name="TEBEG">      0.00010000</i>
   <i name="TEEND">      0.00010000</i>
   <i type="int" name="NBLOCK">     1</i>
   <i type="int" name="KBLOCK">     5</i>
   <i type="int" name="NPACO">   256</i>
   <i name="APACO">     16.00000000</i>
  </separator>
  <separator name="symmetry" >
   <i type="int" name="ISYM">     2</i>
   <i name="SYMPREC">      0.00001000</i>
  </separator>
  <separator name="dos" >
   <i type="int" name="LORBIT">     0</i>
   <v name="RWIGS">     -1.00000000</v>
   <i type="int" name="NEDOS">   301</i>
   <i name="EMIN">     10.00000000</i>
   <i name="EMAX">    -10.00000000</i>
   <i name="EFERMI">      0.00000000</i>
  </separator>
  <separator name="writing" >
   <i type="int" name="NWRITE">     2</i>
   <i type="logical" name="LWAVE"> T  </i>
   <i type="logical" name="LDOWNSAMPLE"> F  </i>
   <i type="logical" name="LCHARG"> T  </i>
   <i type="logical" name="LPARD"> F  </i>
   <i type="logical" name="LVTOT"> F  </i>
   <i type="logical" name="LVHAR"> F  </i>
   <i type="logical" name="LELF"> F  </i>
   <i type="logical" name="LOPTICS"> F  </i>
   <v name="STM">      0.00000000      0.00000000      0.00000000      0.00000000      0.00000000      0.00000000      0.00000000</v>
  </separator>
  <separator name="performance" >
   <i type="int" name="NPAR">    16</i>
   <i type="int" name="NSIM">     4</i>
   <i type="int" name="NBLK">    -1</i>
   <i type="logical" name="LPLANE"> T  </i>
   <i type="logical" name="LSCALAPACK"> T  </i>
   <i type="logical" name="LSCAAWARE"> F  </i>
   <i type="logical" name="LSCALU"> F  </i>
   <i type="logical" name="LASYNC"> F  </i>
   <i type="logical" name="LORBITALREAL"> F  </i>
  </separator>
  <separator name="miscellaneous" >
   <i type="int" name="IDIOT">     3</i>
   <i type="int" name="ISPECIAL">     0</i>
   <i type="logical" name="LMUSIC"> F  </i>
   <v name="POMASS">     28.08500000</v>
   <v name="DARWINR">      0.00000000</v>
   <v name="DARWINV">      1.00000000</v>
   <i type="logical" name="LCORR"> T  </i>
  </separator>
  <i type="logical" name="GGA_COMPAT"> T  </i>
  <i type="logical" name="LBERRY"> F  </i>
  <i type="int" name="ICORELEVEL">     0</i>
  <i type="logical" name="LDAU"> F  </i>
  <i type="int" name="I_CONSTRAINED_M">     0</i>
  <separator name="electronic exchange-correlation" >
   <i type="string" name="GGA">--</i>
   <i type="int" name="VOSKOWN">     0</i>
   <i type="logical" name="LHFCALC"> F  </i>
   <i type="string" name="PRECFOCK"></i>
   <i type="logical" name="LSYMGRAD"> F  </i>
   <i type="logical" name="LHFONE"> F  </i>
   <i type="logical" name="LRHFCALC"> F  </i>
   <i type="logical" name="LTHOMAS"> F  </i>
   <i type="logical" name="LMODELHF"> F  </i>
   <i name="ENCUT4O">     -1.00000000</i>
   <i type="int" name="EXXOEP">     0</i>
   <i type="int" name="FOURORBIT">     0</i>
   <i name="AEXX">      0.00000000</i>
   <i name="HFALPHA">      0.00000000</i>
   <i name="MCALPHA">      0.00000000</i>
   <i name="ALDAX">      1.00000000</i>
   <i name="AGGAX">      1.00000000</i>
   <i name="ALDAC">      1.00000000</i>
   <i name="AGGAC">      1.00000000</i>
   <i type="int" name="NKREDX">     1</i>
   <i type="int" name="NKREDY">     1</i>
   <i type="int" name="NKREDZ">     1</i>
   <i type="logical" name="SHIFTRED"> F  </i>
   <i type="logical" name="ODDONLY"> F  </i>
   <i type="logical" name="EVENONLY"> F  </i>
   <i type="int" name="LMAXFOCK">     0</i>
   <i type="int" name="NMAXFOCKAE">     0</i>
   <i type="logical" name="LFOCKAEDFT"> F  </i>
   <i name="HFSCREEN">      0.00000000</i>
   <i name="HFSCREENC">      0.00000000</i>
   <i type="int" name="NBANDSGWLOW">     0</i>
  </separator>
  <separator name="vdW DFT" >
   <i type="logical" name="LUSE_VDW"> F  </i>
   <i name="Zab_VDW">     -0.84910000</i>
   <i name="PARAM1">      0.12340000</i>
   <i name="PARAM2">      1.00000000</i>
   <i name="PARAM3">      0.00000000</i>
  </separator>
  <separator name="model GW" >
   <i type="int" name="MODEL_GW">     0</i>
   <i name="MODEL_EPS0">     12.47812500</i>
   <i name="MODEL_ALPHA">      1.00000000</i>
  </separator>
  <separator name="linear response parameters" >
   <i type="logical" name="LEPSILON"> F  </i>
   <i type="logical" name="LRPA"> F  </i>
   <i type="logical" name="LNABLA"> F  </i>
   <i type="logical" name="LVEL"> F  </i>
   <i type="int" name="KINTER">     0</i>
   <i name="CSHIFT">      0.10000000</i>
   <i name="OMEGAMAX">     -1.00000000</i>
   <i name="DEG_THRESHOLD">      0.00200000</i>
   <i name="RTIME">     -0.10000000</i>
   <i name="WPLASMAI">      0.00000000</i>
   <v name="DFIELD">      0.00000000      0.00000000      0.00000000</v>
   <v name="WPLASMA">      0.00000000      0.00000000      0.00000000      0.00000000      0.00000000      0.00000000      0.00000000      0.00000000      0.00000000</v>
  </separator>
  <separator name="orbital magnetization" >
   <i type="logical" name="NUCIND"> F  </i>
   <v name="MAGPOS">      0.00000000      0.00000000      0.00000000</v>
   <i type="logical" name="LNICSALL"> T  </i>
   <i type="logical" name="ORBITALMAG"> F  </i>
   <i type="logical" name="LMAGBLOCH"> F  </i>
   <i type="logical" name="LCHIMAG"> F  </i>
   <i type="logical" name="LGAUGE"> T  </i>
   <i type="int" name="MAGATOM">     0</i>
   <v name="MAGDIPOL">      0.00000000      0.00000000      0.00000000</v>
   <v name="AVECCONST">      0.00000000      0.00000000      0.00000000</v>
  </separator>
  <separator name="response functions" >
   <i type="logical" name="LADDER"> F  </i>
   <i type="logical" name="LRPAFORCE"> F  </i>
   <i type="logical" name="LFXC"> F  </i>
   <i type="logical" name="LHARTREE"> T  </i>
   <i type="int" name="IBSE">     0</i>
   <v type="int" name="KPOINT">    -1     0     0     0</v>
   <i type="logical" name="LTCTE"> F  </i>
   <i type="logical" name="LTETE"> F  </i>
   <i type="logical" name="LTRIPLET"> F  </i>
   <i type="logical" name="LFXCEPS"> F  </i>
   <i type="logical" name="LFXHEG"> F  </i>
   <i type="int" name="NATURALO">     2</i>
   <i type="logical" name="L2ORDER"> F  </i>
   <i type="logical" name="LMP2LT"> F  </i>
   <i type="logical" name="LUSEW"> F  </i>
   <i name="ENCUTGW">     -2.00000000</i>
   <i name="ENCUTGWSOFT">     -2.00000000</i>
   <i name="ENCUTLF">     -1.00000000</i>
   <i type="int" name="LMAXMP2">    -1</i>
   <i name="SCISSOR">      0.00000000</i>
   <i type="int" name="NOMEGA">     0</i>
   <i type="int" name="NOMEGAR">     0</i>
   <i type="int" name="NBANDSGW">    -1</i>
   <i type="int" name="NBANDSO">    -1</i>
   <i type="int" name="NBANDSV">    -1</i>
   <i type="int" name="NELM">     1</i>
   <i type="int" name="NELMHF">     1</i>
   <i type="int" name="DIM">     3</i>
   <i type="int" name="ANTIRES">     0</i>
   <i name="OMEGAMAX">    -30.00000000</i>
   <i name="OMEGAMIN">    -30.00000000</i>
   <i name="OMEGATL">   -200.00000000</i>
   <i type="int" name="OMEGAGRID">   140</i>
   <i name="CSHIFT">     -0.10000000</i>
   <i type="logical" name="SELFENERGY"> F  </i>
   <i type="logical" name="LSPECTRAL"> F  </i>
   <i type="logical" name="LSPECTRALGW"> F  </i>
   <i type="logical" name="LSINGLES"> F  </i>
   <i type="logical" name="LFERMIGW"> F  </i>
   <i type="logical" name="ODDONLYGW"> F  </i>
   <i type="logical" name="EVENONLYGW"> F  </i>
   <i type="int" name="NKREDLFX">     1</i>
   <i type="int" name="NKREDLFY">     1</i>
   <i type="int" name="NKREDLFZ">     1</i>
   <i type="int" name="MAXMEM">  2800</i>
   <i type="int" name="TELESCOPE">     0</i>
   <i type="int" name="TAUPAR">     1</i>
   <i type="int" name="OMEGAPAR">    -1</i>
   <i name="LAMBDA">      1.00000000</i>
  </separator>
  <separator name="External order field" >
   <i name="OFIELD_KAPPA">      0.00000000</i>
   <v name="OFIELD_K">      0.00000000      0.00000000      0.00000000</v>
   <i name="OFIELD_Q6_NEAR">      0.00000000</i>
   <i name="OFIELD_Q6_FAR">      0.00000000</i>
   <i name="OFIELD_A">      0.00000000</i>
  </separator>
 </parameters>
 <atominfo>
  <atoms>       2 </atoms>
  <types>       1 </types>
  <array name="atoms" >
   <dimension dim="1">ion</dimension>
   <field type="string">element</field>
   <field type="int">atomtype</field>
   <set>
    <rc><c>Si</c><c>   1</c></rc>
    <rc><c>Si</c><c>   1</c></rc>
   </set>
  </array>
  <array name="atomtypes" >
   <dimension dim="1">type</dimension>
   <field type="int">atomspertype</field>
   <field type="string">element</field>
   <field>mass</field>
   <field>valence</field>
   <field type="string">pseudopotential</field>
   <set>
    <rc><c>   2</c><c>Si</c><c>     28.08500000</c><c>      4.00000000</c><c> PAW_PBE Si 05Jan2001                   </c></rc>
   </set>
  </array>
 </atominfo>
 <structure name="initialpos" >
  <crystal>
   <varray name="basis" >
    <v>       0.00000000       2.75000000       2.75000000 </v>
    <v>       2.75000000       0.00000000       2.75000000 </v>
    <v>       2.75000000       2.75000000       0.00000000 </v>
   </varray>
   <i name="volume">     41.59375000 </i>
   <varray name="rec_basis" >
    <v>      -0.18181818       0.18181818       0.18181818 </v>
    <v>       0.18181818      -0.18181818       0.18181818 </v>
    <v>       0.18181818       0.18181818      -0.18181818 </v>
   </varray>
  </crystal>
  <varray name="positions" >
   <v>       0.87500000       0.87500000       0.87500000 </v>
   <v>       0.12500000       0.12500000       0.13000000 </v>
  </varray>
 </structure>
 <calculation>
  <scstep>
   <time name="dav">    1.19    1.19</time>
   <time name="total">    1.20    1.21</time>
   <energy>
    <i name="alphaZ">      3.23732084 </i>
    <i name="ewald">   -225.65014771 </i>
    <i name="hartreedc">    -11.58626601 </i>
    <i name="XCdc">    -18.75117622 </i>
    <i name="pawpsdc">     65.95520812 </i>
    <i name="pawaedc">    -30.76852678 </i>
    <i name="eentropy">     -0.00160632 </i>
    <i name="bandstr">      9.44775731 </i>
    <i name="atom">    206.13251344 </i>
    <i name="e_fr_energy">     -1.98492335 </i>
    <i name="e_wo_entrp">     -1.98331703 </i>
    <i name="e_0_energy">     -1.98412019 </i>
   </energy>
  </scstep>
  <scstep>
   <time name="dav">    1.83    1.83</time>
   <time name="total">    1.83    1.83</time>
   <energy>
    <i name="e_fr_energy">    -10.94487202 </i>
    <i name="e_wo_entrp">    -10.94487202 </i>
    <i name="e_0_energy">    -10.94487202 </i>
   </energy>
  </scstep>
  <scstep>
   <time name="dav">    1.37    1.37</time>
   <time name="total">    1.37    1.37</time>
   <energy>
    <i name="e_fr_energy">    -11.00252689 </i>
    <i name="e_wo_entrp">    -11.00252689 </i>
    <i name="e_0_energy">    -11.00252689 </i>
   </energy>
  </scstep>
  <scstep>
   <time name="dav">    2.59    2.59</time>
   <time name="total">    2.59    2.59</time>
   <energy>
    <i name="e_fr_energy">    -11.00268101 </i>
    <i name="e_wo_entrp">    -11.00268101 </i>
    <i name="e_0_energy">    -11.00268101 </i>
   </energy>
  </scstep>
  <scstep>
   <time name="dav">    1.34    1.34</time>
   <time name="total">    1.42    1.42</time>
   <energy>
    <i name="e_fr_energy">    -11.00268102 </i>
    <i name="e_wo_entrp">    -11.00268102 </i>
    <i name="e_0_energy">    -11.00268102 </i>
   </energy>
  </scstep>
  <scstep>
   <time name="dav">    1.71    1.71</time>
   <time name="total">    1.79    1.79</time>
   <energy>
    <i name="e_fr_energy">    -10.89366120 </i>
    <i name="e_wo_entrp">    -10.89366120 </i>
    <i name="e_0_energy">    -10.89366120 </i>
   </energy>
  </scstep>
  <scstep>
   <time name="dav">    1.98    1.98</time>
   <time name="total">    2.06    2.06</time>
   <energy>
    <i name="e_fr_energy">    -10.84247013 </i>
    <i name="e_wo_entrp">    -10.84247001 </i>
    <i name="e_0_energy">    -10.84247007 </i>
   </energy>
  </scstep>
  <scstep>
   <time name="dav">    1.47    1.47</time>
   <time name="total">    1.55    1.55</time>
   <energy>
    <i name="e_fr_energy">    -10.84376325 </i>
    <i name="e_wo_entrp">    -10.84376319 </i>
    <i name="e_0_energy">    -10.84376322 </i>
   </energy>
  </scstep>
  <scstep>
   <time name="dav">    2.42    2.43</time>
   <time name="total">    2.51    2.51</time>
   <energy>
    <i name="e_fr_energy">    -10.84386511 </i>
    <i name="e_wo_entrp">    -10.84386505 </i>
    <i name="e_0_energy">    -10.84386508 </i>
   </energy>
  </scstep>
  <scstep>
   <time name="dav">    1.56    1.56</time>
   <time name="total">    1.64    1.64</time>
   <energy>
    <i name="e_fr_energy">    -10.84388219 </i>
    <i name="e_wo_entrp">    -10.84388213 </i>
    <i name="e_0_energy">    -10.84388216 </i>
   </energy>
  </scstep>
  <scstep>
   <time name="dav">    2.35    2.35</time>
   <time name="total">    2.36    2.36</time>
   <energy>
    <i name="alphaZ">      3.23732084 </i>
    <i name="ewald">   -225.65014771 </i>
    <i name="hartreedc">    -15.37782967 </i>
    <i name="XCdc">    -18.13791019 </i>
    <i name="pawpsdc">     73.09054347 </i>
    <i name="pawaedc">    -38.09502295 </i>
    <i name="eentropy">     -0.00000006 </i>
    <i name="bandstr">      3.95665144 </i>
    <i name="atom">    206.13251344 </i>
    <i name="e_fr_energy">    -10.84388140 </i>
    <i name="e_wo_entrp">    -10.84388134 </i>
    <i name="e_0_energy">    -10.84388137 </i>
   </energy>
  </scstep>
  <structure>
   <crystal>
    <varray name="basis" >
     <v>       0.00000000       2.75000000       2.75000000 </v>
     <v>       2.75000000       0.00000000       2.75000000 </v>
     <v>       2.75000000       2.75000000       0.00000000 </v>
    </varray>
    <i name="volume">     41.59375000 </i>
    <varray name="rec_basis" >
     <v>      -0.18181818       0.18181818       0.18181818 </v>
     <v>       0.18181818      -0.18181818       0.18181818 </v>
     <v>       0.18181818       0.18181818      -0.18181818 </v>
    </varray>
   </crystal>
   <varray name="positions" >
    <v>       0.87500000       0.87500000       0.87500000 </v>
    <v>       0.12500000       0.12500000       0.13000000 </v>
   </varray>
  </structure>
  <varray name="forces" >
   <v>       0.17326578       0.17326578      -0.00603707 </v>
   <v>      -0.17326578      -0.17326578       0.00603707 </v>
  </varray>
  <varray name="stress" >
   <v>     -14.63938759       0.14037590      -4.41349033 </v>
   <v>       0.14037590     -14.63938759      -4.41349033 </v>
   <v>      -4.41349031      -4.41349031     -14.53439039 </v>
  </varray>
  <energy>
   <i name="e_fr_energy">    -10.84388140 </i>
   <i name="e_wo_entrp">    -10.84388137 </i>
   <i name="e_0_energy">     -0.00000006 </i>
  </energy>
  <time name="totalsc">   21.97   22.01</time>
 </calculation>
 <calculation>
  <scstep>
   <time name="dav">    1.46    1.46</time>
   <time name="total">    1.54    1.55</time>
   <energy>
    <i name="alphaZ">      3.32784198 </i>
    <i name="ewald">   -227.73302483 </i>
    <i name="hartreedc">    -15.52215171 </i>
    <i name="XCdc">    -18.00413149 </i>
    <i name="pawpsdc">     73.09106189 </i>
    <i name="pawaedc">    -38.09552712 </i>
    <i name="eentropy">     -0.00000022 </i>
    <i name="bandstr">      5.95143019 </i>
    <i name="atom">    206.13251344 </i>
    <i name="e_fr_energy">    -10.85198788 </i>
    <i name="e_wo_entrp">    -10.85198766 </i>
    <i name="e_0_energy">    -10.85198777 </i>
   </energy>
  </scstep>
  <scstep>
   <time name="dav">    2.04    2.04</time>
   <time name="total">    2.12    2.12</time>
   <energy>
    <i name="e_fr_energy">    -10.84889183 </i>
    <i name="e_wo_entrp">    -10.84889174 </i>
    <i name="e_0_energy">    -10.84889179 </i>
   </energy>
  </scstep>
  <scstep>
   <time name="dav">    1.83    1.83</time>
   <time name="total">    1.91    1.91</time>
   <energy>
    <i name="e_fr_energy">    -10.84714474 </i>
    <i name="e_wo_entrp">    -10.84714471 </i>
    <i name="e_0_energy">    -10.84714473 </i>
   </energy>
  </scstep>
  <scstep>
   <time name="dav">    1.78    1.78</time>
   <time name="total">    1.86    1.86</time>
   <energy>
    <i name="e_fr_energy">    -10.84714065 </i>
    <i name="e_wo_entrp">    -10.84714062 </i>
    <i name="e_0_energy">    -10.84714063 </i>
   </energy>
  </scstep>
  <scstep>
   <time name="dav">    2.12    2.12</time>
   <time name="total">    2.12    2.12</time>
   <energy>
    <i name="alphaZ">      3.32784198 </i>
    <i name="ewald">   -227.73302483 </i>
    <i name="hartreedc">    -15.05017285 </i>
    <i name="XCdc">    -18.01262290 </i>
    <i name="pawpsdc">     73.93991127 </i>
    <i name="pawaedc">    -38.96730595 </i>
    <i name="eentropy">     -0.00000003 </i>
    <i name="bandstr">      5.51571843 </i>
    <i name="atom">    206.13251344 </i>
    <i name="e_fr_energy">    -10.84714143 </i>
    <i name="e_wo_entrp">    -10.84714140 </i>
    <i name="e_0_energy">    -10.84714142 </i>
   </energy>
  </scstep>
  <structure>
   <crystal>
    <varray name="basis" >
     <v>      -0.00735861       2.71718957       2.71737038 </v>
     <v>       2.71718957      -0.00735861       2.71737038 </v>
     <v>       2.72503165       2.72503165      -0.01520070 </v>
    </varray>
    <i name="volume">     40.46235196 </i>
    <varray name="rec_basis" >
     <v>      -0.18300489       0.18402844       0.18349106 </v>
     <v>       0.18402844      -0.18300489       0.18349106 </v>
     <v>       0.18297519       0.18297519      -0.18246752 </v>
    </varray>
   </crystal>
   <varray name="positions" >
    <v>       0.87494705       0.87494705       0.87809252 </v>
    <v>       0.12505295       0.12505295       0.12690748 </v>
   </varray>
  </structure>
  <varray name="forces" >
   <v>      -0.09161901      -0.09161901       0.00667733 </v>
   <v>       0.09161901       0.09161901      -0.00667733 </v>
  </varray>
  <varray name="stress" >
   <v>       9.60474026      -0.28178533       6.79226476 </v>
   <v>      -0.28178533       9.60474026       6.79226476 </v>
   <v>       6.79226474       6.79226474       9.55809027 </v>
  </varray>
  <energy>
   <i name="e_fr_energy">    -10.84714143 </i>
   <i name="e_wo_entrp">    -10.84714142 </i>
   <i name="e_0_energy">     -0.00000003 </i>
  </energy>
  <time name="totalsc">   11.11   11.13</time>
 </calculation>
 <calculation>
  <scstep>
   <time name="dav">    1.44    1.44</time>
   <time name="total">    1.53    1.53</time>
   <energy>
    <i name="alphaZ">      3.29275612 </i>
    <i name="ewald">   -226.93582932 </i>
    <i name="hartreedc">    -14.99498330 </i>
    <i name="XCdc">    -18.06419218 </i>
    <i name="pawpsdc">     73.95071907 </i>
    <i name="pawaedc">    -38.97874961 </i>
    <i name="eentropy">     -0.00000002 </i>
    <i name="bandstr">      4.74769603 </i>
    <i name="atom">    206.13251344 </i>
    <i name="e_fr_energy">    -10.85006977 </i>
    <i name="e_wo_entrp">    -10.85006975 </i>
    <i name="e_0_energy">    -10.85006976 </i>
   </energy>
  </scstep>
  <scstep>
   <time name="dav">    2.00    2.00</time>
   <time name="total">    2.08    2.08</time>
   <energy>
    <i name="e_fr_energy">    -10.84962100 </i>
    <i name="e_wo_entrp">    -10.84962097 </i>
    <i name="e_0_energy">    -10.84962098 </i>
   </energy>
  </scstep>
  <scstep>
   <time name="dav">    1.78    1.78</time>
   <time name="total">    1.86    1.86</time>
   <energy>
    <i name="e_fr_energy">    -10.84935679 </i>
    <i name="e_wo_entrp">    -10.84935677 </i>
    <i name="e_0_energy">    -10.84935678 </i>
   </energy>
  </scstep>
  <scstep>
   <time name="dav">    1.74    1.74</time>
   <time name="total">    1.82    1.82</time>
   <energy>
    <i name="e_fr_energy">    -10.84935446 </i>
    <i name="e_wo_entrp">    -10.84935443 </i>
    <i name="e_0_energy">    -10.84935444 </i>
   </energy>
  </scstep>
  <scstep>
   <time name="dav">    1.97    1.97</time>
   <time name="total">    2.06    2.06</time>
   <energy>
    <i name="e_fr_energy">    -10.84935258 </i>
    <i name="e_wo_entrp">    -10.84935256 </i>
    <i name="e_0_energy">    -10.84935257 </i>
   </energy>
  </scstep>
  <scstep>
   <time name="dav">    1.10    1.10</time>
   <time name="total">    1.10    1.10</time>
   <energy>
    <i name="alphaZ">      3.29275612 </i>
    <i name="ewald">   -226.93582932 </i>
    <i name="hartreedc">    -15.17332195 </i>
    <i name="XCdc">    -18.06101606 </i>
    <i name="pawpsdc">     73.60631627 </i>
    <i name="pawaedc">    -38.62494085 </i>
    <i name="eentropy">     -0.00000002 </i>
    <i name="bandstr">      4.91417002 </i>
    <i name="atom">    206.13251344 </i>
    <i name="e_fr_energy">    -10.84935235 </i>
    <i name="e_wo_entrp">    -10.84935233 </i>
    <i name="e_0_energy">    -10.84935234 </i>
   </energy>
  </scstep>
  <structure>
   <crystal>
    <varray name="basis" >
     <v>      -0.00453944       2.72975962       2.72987116 </v>
     <v>       2.72975962      -0.00453944       2.72987116 </v>
     <v>       2.73459732       2.73459732      -0.00937714 </v>
    </varray>
    <i name="volume">     40.89349727 </i>
    <varray name="rec_basis" >
     <v>      -0.18254873       0.18317572       0.18284587 </v>
     <v>       0.18317572      -0.18254873       0.18284587 </v>
     <v>       0.18252986       0.18252986      -0.18221887 </v>
    </varray>
   </crystal>
   <varray name="positions" >
    <v>       0.87496424       0.87496424       0.87690026 </v>
    <v>       0.12503576       0.12503576       0.12809974 </v>
   </varray>
  </structure>
  <varray name="forces" >
   <v>       0.01433825       0.01433825       0.00575241 </v>
   <v>      -0.01433825      -0.01433825      -0.00575241 </v>
  </varray>
  <varray name="stress" >
   <v>      -0.18844002      -0.24813507       2.18086411 </v>
   <v>      -0.24813507      -0.18844002       2.18086411 </v>
   <v>       2.18086409       2.18086409      -0.21633100 </v>
  </varray>
  <energy>
   <i name="e_fr_energy">    -10.84935235 </i>
   <i name="e_wo_entrp">    -10.84935234 </i>
   <i name="e_0_energy">     -0.00000002 </i>
  </energy>
  <time name="totalsc">   11.98   12.01</time>
 </calculation>
 <calculation>
  <scstep>
   <time name="dav">    2.09    2.09</time>
   <time name="total">    2.17    2.17</time>
   <energy>
    <i name="alphaZ">      3.29553761 </i>
    <i name="ewald">   -226.99928193 </i>
    <i name="hartreedc">    -15.17771408 </i>
    <i name="XCdc">    -18.05687856 </i>
    <i name="pawpsdc">     73.60713291 </i>
    <i name="pawaedc">    -38.62576953 </i>
    <i name="eentropy">     -0.00000002 </i>
    <i name="bandstr">      4.97474153 </i>
    <i name="atom">    206.13251344 </i>
    <i name="e_fr_energy">    -10.84971864 </i>
    <i name="e_wo_entrp">    -10.84971861 </i>
    <i name="e_0_energy">    -10.84971863 </i>
   </energy>
  </scstep>
  <scstep>
   <time name="dav">    1.77    1.77</time>
   <time name="total">    1.85    1.85</time>
   <energy>
    <i name="e_fr_energy">    -10.84959408 </i>
    <i name="e_wo_entrp">    -10.84959406 </i>
    <i name="e_0_energy">    -10.84959407 </i>
   </energy>
  </scstep>
  <scstep>
   <time name="dav">    2.17    2.17</time>
   <time name="total">    2.26    2.26</time>
   <energy>
    <i name="e_fr_energy">    -10.84955121 </i>
    <i name="e_wo_entrp">    -10.84955119 </i>
    <i name="e_0_energy">    -10.84955120 </i>
   </energy>
  </scstep>
  <scstep>
   <time name="dav">    1.33    1.33</time>
   <time name="total">    1.34    1.34</time>
   <energy>
    <i name="alphaZ">      3.29553761 </i>
    <i name="ewald">   -226.99928193 </i>
    <i name="hartreedc">    -15.16377207 </i>
    <i name="XCdc">    -18.05710293 </i>
    <i name="pawpsdc">     73.63327826 </i>
    <i name="pawaedc">    -38.65258853 </i>
    <i name="eentropy">     -0.00000002 </i>
    <i name="bandstr">      4.96186464 </i>
    <i name="atom">    206.13251344 </i>
    <i name="e_fr_energy">    -10.84955153 </i>
    <i name="e_wo_entrp">    -10.84955151 </i>
    <i name="e_0_energy">    -10.84955152 </i>
   </energy>
  </scstep>
  <structure>
   <crystal>
    <varray name="basis" >
     <v>      -0.00167299       2.73225384       2.73231920 </v>
     <v>       2.73225384      -0.00167299       2.73231920 </v>
     <v>       2.73345122       2.73345122      -0.00287145 </v>
    </varray>
    <i name="volume">     40.85898257 </i>
    <varray name="rec_basis" >
     <v>      -0.18279105       0.18298319       0.18289872 </v>
     <v>       0.18298319      -0.18279105       0.18289872 </v>
     <v>       0.18282297       0.18282297      -0.18270666 </v>
    </varray>
   </crystal>
   <varray name="positions" >
    <v>       0.87501061       0.87501061       0.87714378 </v>
    <v>       0.12498939       0.12498939       0.12785622 </v>
   </varray>
  </structure>
  <varray name="forces" >
   <v>       0.01510543       0.01510543      -0.00312120 </v>
   <v>      -0.01510543      -0.01510543       0.00312120 </v>
  </varray>
  <varray name="stress" >
   <v>       0.55934485       0.21192983       0.39217612 </v>
   <v>       0.21192983       0.55934485       0.39217612 </v>
   <v>       0.39217614       0.39217614       0.53856417 </v>
  </varray>
  <energy>
   <i name="e_fr_energy">    -10.84955153 </i>
   <i name="e_wo_entrp">    -10.84955152 </i>
   <i name="e_0_energy">     -0.00000002 </i>
  </energy>
  <time name="totalsc">    9.16    9.18</time>
 </calculation>
 <calculation>
  <scstep>
   <time name="dav">    2.07    2.07</time>
   <time name="total">    2.15    2.15</time>
   <energy>
    <i name="alphaZ">      3.29648131 </i>
    <i name="ewald">   -227.02081454 </i>
    <i name="hartreedc">    -15.16494242 </i>
    <i name="XCdc">    -18.05569150 </i>
    <i name="pawpsdc">     73.63492443 </i>
    <i name="pawaedc">    -38.65430725 </i>
    <i name="eentropy">     -0.00000002 </i>
    <i name="bandstr">      4.98225324 </i>
    <i name="atom">    206.13251344 </i>
    <i name="e_fr_energy">    -10.84958331 </i>
    <i name="e_wo_entrp">    -10.84958330 </i>
    <i name="e_0_energy">    -10.84958331 </i>
   </energy>
  </scstep>
  <scstep>
   <time name="dav">    1.72    1.72</time>
   <time name="total">    1.80    1.80</time>
   <energy>
    <i name="e_fr_energy">    -10.84956925 </i>
    <i name="e_wo_entrp">    -10.84956924 </i>
    <i name="e_0_energy">    -10.84956924 </i>
   </energy>
  </scstep>
  <scstep>
   <time name="dav">    2.22    2.22</time>
   <time name="total">    2.30    2.30</time>
   <energy>
    <i name="e_fr_energy">    -10.84956451 </i>
    <i name="e_wo_entrp">    -10.84956449 </i>
    <i name="e_0_energy">    -10.84956450 </i>
   </energy>
  </scstep>
  <scstep>
   <time name="dav">    1.06    1.06</time>
   <time name="total">    1.06    1.06</time>
   <energy>
    <i name="alphaZ">      3.29648131 </i>
    <i name="ewald">   -227.02081454 </i>
    <i name="hartreedc">    -15.16027033 </i>
    <i name="XCdc">    -18.05578395 </i>
    <i name="pawpsdc">     73.64327469 </i>
    <i name="pawaedc">    -38.66288909 </i>
    <i name="eentropy">     -0.00000002 </i>
    <i name="bandstr">      4.97792388 </i>
    <i name="atom">    206.13251344 </i>
    <i name="e_fr_energy">    -10.84956460 </i>
    <i name="e_wo_entrp">    -10.84956458 </i>
    <i name="e_0_energy">    -10.84956459 </i>
   </energy>
  </scstep>
  <structure>
   <crystal>
    <varray name="basis" >
     <v>      -0.00070555       2.73309564       2.73314542 </v>
     <v>       2.73309564      -0.00070555       2.73314542 </v>
     <v>       2.73306441       2.73306441      -0.00067576 </v>
    </varray>
    <i name="volume">     40.84728556 </i>
    <varray name="rec_basis" >
     <v>      -0.18287291       0.18291814       0.18291680 </v>
     <v>       0.18291814      -0.18287291       0.18291680 </v>
     <v>       0.18292222       0.18292222      -0.18287167 </v>
    </varray>
   </crystal>
   <varray name="positions" >
    <v>       0.87502615       0.87502615       0.87722609 </v>
    <v>       0.12497385       0.12497385       0.12777391 </v>
   </varray>
  </structure>
  <varray name="forces" >
   <v>       0.01544778       0.01544778      -0.00622119 </v>
   <v>      -0.01544778      -0.01544778       0.00622119 </v>
  </varray>
  <varray name="stress" >
   <v>       0.82039883       0.36986999      -0.23059250 </v>
   <v>       0.36986999       0.82039883      -0.23059250 </v>
   <v>      -0.23059250      -0.23059250       0.80356027 </v>
  </varray>
  <energy>
   <i name="e_fr_energy">    -10.84956460 </i>
   <i name="e_wo_entrp">    -10.84956459 </i>
   <i name="e_0_energy">     -0.00000002 </i>
  </energy>
  <time name="totalsc">    8.89    9.39</time>
  <eigenvalues>
   <array>
    <dimension dim="1">band</dimension>
    <dimension dim="2">kpoint</dimension>
    <dimension dim="3">spin</dimension>
    <field>eigene</field>
    <field>occ</field>
    <set>
     <set comment="spin 1">
      <set comment="kpoint 1">
       <r>   -6.1955    1.0000 </r>
       <r>    5.6158    1.0000 </r>
       <r>    5.6271    1.0000 </r>
       <r>    5.6349    1.0000 </r>
       <r>    8.1805    0.0000 </r>
       <r>    8.1816    0.0000 </r>
       <r>    8.1879    0.0000 </r>
       <r>    8.7713    0.0000 </r>
       <r>   13.3355    0.0000 </r>
       <r>   13.3359    0.0000 </r>
       <r>   13.5078    0.0000 </r>
       <r>   16.8068    0.0000 </r>
       <r>   16.8105    0.0000 </r>
       <r>   16.8181    0.0000 </r>
       <r>   20.9067    0.0000 </r>
       <r>   28.4891    0.0000 </r>
      </set>
      <set comment="kpoint 2">
       <r>   -6.0891    1.0000 </r>
       <r>    4.6411    1.0000 </r>
       <r>    5.4544    1.0000 </r>
       <r>    5.4690    1.0000 </r>
       <r>    8.1755    0.0000 </r>
       <r>    8.4230    0.0000 </r>
       <r>    8.4288    0.0000 </r>
       <r>    9.5898    0.0000 </r>
       <r>   13.0325    0.0000 </r>
       <r>   13.0334    0.0000 </r>
       <r>   13.9533    0.0000 </r>
       <r>   16.4471    0.0000 </r>
       <r>   17.4610    0.0000 </r>
       <r>   17.4701    0.0000 </r>
       <r>   21.6026    0.0000 </r>
       <r>   27.3304    0.0000 </r>
      </set>
      <set comment="kpoint 3">
       <r>   -5.7741    1.0000 </r>
       <r>    2.9798    1.0000 </r>
       <r>    5.1202    1.0000 </r>
       <r>    5.1334    1.0000 </r>
       <r>    7.8554    0.0000 </r>
       <r>    8.8893    0.0000 </r>
       <r>    8.8965    0.0000 </r>
       <r>   11.1859    0.0000 </r>
       <r>   12.6823    0.0000 </r>
       <r>   12.6860    0.0000 </r>
       <r>   14.6919    0.0000 </r>
       <r>   16.2975    0.0000 </r>
       <r>   18.9284    0.0000 </r>
       <r>   18.9375    0.0000 </r>
       <r>   23.0809    0.0000 </r>
       <r>   24.9634    0.0000 </r>
      </set>
      <set comment="kpoint 4">
       <r>   -5.2672    1.0000 </r>
       <r>    1.3421    1.0000 </r>
       <r>    4.8015    1.0000 </r>
       <r>    4.8138    1.0000 </r>
       <r>    7.5088    0.0000 </r>
       <r>    9.1403    0.0000 </r>
       <r>    9.1501    0.0000 </r>
       <r>   12.7529    0.0000 </r>
       <r>   12.9573    0.0000 </r>
       <r>   12.9650    0.0000 </r>
       <r>   14.4842    0.0000 </r>
       <r>   17.8156    0.0000 </r>
       <r>   20.4294    0.0000 </r>
       <r>   20.4352    0.0000 </r>
       <r>   22.9260    0.0000 </r>
       <r>   22.9366    0.0000 </r>
      </set>
      <set comment="kpoint 5">
       <r>   -4.6197    1.0000 </r>
       <r>   -0.0915    1.0000 </r>
       <r>    4.5727    1.0000 </r>
       <r>    4.5847    1.0000 </r>
       <r>    7.2495    0.0000 </r>
       <r>    9.0886    0.0000 </r>
       <r>    9.0997    0.0000 </r>
       <r>   13.4725    0.0000 </r>
       <r>   13.9933    0.0000 </r>
       <r>   14.0026    0.0000 </r>
       <r>   14.9781    0.0000 </r>
       <r>   19.4476    0.0000 </r>
       <r>   19.4925    0.0000 </r>
       <r>   19.5028    0.0000 </r>
       <r>   22.0544    0.0000 </r>
       <r>   23.7451    0.0000 </r>
      </set>
      <set comment="kpoint 6">
       <r>   -4.0239    1.0000 </r>
       <r>   -1.0874    1.0000 </r>
       <r>    4.4559    1.0000 </r>
       <r>    4.4678    1.0000 </r>
       <r>    7.1144    0.0000 </r>
       <r>    8.9858    0.0000 </r>
       <r>    8.9970    0.0000 </r>
       <r>   13.3550    0.0000 </r>
       <r>   15.5086    0.0000 </r>
       <r>   15.5171    0.0000 </r>
       <r>   16.4230    0.0000 </r>
       <r>   17.5176    0.0000 </r>
       <r>   17.5307    0.0000 </r>
       <r>   18.7476    0.0000 </r>
       <r>   23.6994    0.0000 </r>
       <r>   25.9895    0.0000 </r>
      </set>
      <set comment="kpoint 7">
       <r>   -6.0534    1.0000 </r>
       <r>    4.8076    1.0000 </r>
       <r>    5.1429    1.0000 </r>
       <r>    5.1434    1.0000 </r>
       <r>    7.8687    0.0000 </r>
       <r>    8.8388    0.0000 </r>
       <r>    8.8429    0.0000 </r>
       <r>    9.5200    0.0000 </r>
       <r>   12.4791    0.0000 </r>
       <r>   13.4938    0.0000 </r>
       <r>   14.1039    0.0000 </r>
       <r>   17.0584    0.0000 </r>
       <r>   17.0613    0.0000 </r>
       <r>   17.4101    0.0000 </r>
       <r>   21.8992    0.0000 </r>
       <r>   26.9017    0.0000 </r>
      </set>
      <set comment="kpoint 8">
       <r>   -5.8071    1.0000 </r>
       <r>    3.4664    1.0000 </r>
       <r>    4.7526    1.0000 </r>
       <r>    4.9274    1.0000 </r>
       <r>    7.9017    0.0000 </r>
       <r>    8.8676    0.0000 </r>
       <r>    9.4269    0.0000 </r>
       <r>   10.4986    0.0000 </r>
       <r>   12.2244    0.0000 </r>
       <r>   13.4533    0.0000 </r>
       <r>   14.9102    0.0000 </r>
       <r>   16.6582    0.0000 </r>
       <r>   17.8994    0.0000 </r>
       <r>   18.7925    0.0000 </r>
       <r>   23.1977    0.0000 </r>
       <r>   24.8477    0.0000 </r>
      </set>
      <set comment="kpoint 9">
       <r>   -5.3615    1.0000 </r>
       <r>    1.8672    1.0000 </r>
       <r>    4.4377    1.0000 </r>
       <r>    4.5592    1.0000 </r>
       <r>    8.0088    0.0000 </r>
       <r>    8.8730    0.0000 </r>
       <r>    9.7787    0.0000 </r>
       <r>   10.9552    0.0000 </r>
       <r>   13.2736    0.0000 </r>
       <r>   13.6378    0.0000 </r>
       <r>   15.1168    0.0000 </r>
       <r>   17.3784    0.0000 </r>
       <r>   19.3399    0.0000 </r>
       <r>   20.5340    0.0000 </r>
       <r>   22.5598    0.0000 </r>
       <r>   23.1022    0.0000 </r>
      </set>
      <set comment="kpoint 10">
       <r>   -4.7511    1.0000 </r>
       <r>    0.3816    1.0000 </r>
       <r>    4.1816    1.0000 </r>
       <r>    4.2532    1.0000 </r>
       <r>    7.8457    0.0000 </r>
       <r>    8.9270    0.0000 </r>
       <r>    9.7192    0.0000 </r>
       <r>   11.7199    0.0000 </r>
       <r>   14.4575    0.0000 </r>
       <r>   14.5329    0.0000 </r>
       <r>   15.1062    0.0000 </r>
       <r>   18.9512    0.0000 </r>
       <r>   19.2039    0.0000 </r>
       <r>   20.6707    0.0000 </r>
       <r>   22.3751    0.0000 </r>
       <r>   22.7259    0.0000 </r>
      </set>
      <set comment="kpoint 11">
       <r>   -4.0960    1.0000 </r>
       <r>   -0.7901    1.0000 </r>
       <r>    3.8879    1.0000 </r>
       <r>    4.2120    1.0000 </r>
       <r>    7.7023    0.0000 </r>
       <r>    8.8949    0.0000 </r>
       <r>    9.4899    0.0000 </r>
       <r>   12.9488    0.0000 </r>
       <r>   14.3685    0.0000 </r>
       <r>   15.9319    0.0000 </r>
       <r>   16.6220    0.0000 </r>
       <r>   17.2978    0.0000 </r>
       <r>   18.0900    0.0000 </r>
       <r>   20.3616    0.0000 </r>
       <r>   22.9188    0.0000 </r>
       <r>   24.4669    0.0000 </r>
      </set>
      <set comment="kpoint 12">
       <r>   -3.8338    1.0000 </r>
       <r>   -1.1822    1.0000 </r>
       <r>    3.7132    1.0000 </r>
       <r>    4.3109    1.0000 </r>
       <r>    7.6736    0.0000 </r>
       <r>    8.9529    0.0000 </r>
       <r>    9.3084    0.0000 </r>
       <r>   13.6589    0.0000 </r>
       <r>   14.9004    0.0000 </r>
       <r>   15.2258    0.0000 </r>
       <r>   16.4996    0.0000 </r>
       <r>   17.8804    0.0000 </r>
       <r>   18.2096    0.0000 </r>
       <r>   19.0196    0.0000 </r>
       <r>   24.3001    0.0000 </r>
       <r>   25.4480    0.0000 </r>
      </set>
      <set comment="kpoint 13">
       <r>   -4.3048    1.0000 </r>
       <r>   -0.4489    1.0000 </r>
       <r>    3.6788    1.0000 </r>
       <r>    4.5341    1.0000 </r>
       <r>    7.7725    0.0000 </r>
       <r>    9.1410    0.0000 </r>
       <r>    9.2302    0.0000 </r>
       <r>   13.3352    0.0000 </r>
       <r>   13.6021    0.0000 </r>
       <r>   14.7610    0.0000 </r>
       <r>   16.7489    0.0000 </r>
       <r>   17.4210    0.0000 </r>
       <r>   19.8602    0.0000 </r>
       <r>   20.0292    0.0000 </r>
       <r>   22.1803    0.0000 </r>
       <r>   23.6483    0.0000 </r>
      </set>
      <set comment="kpoint 14">
       <r>   -4.9705    1.0000 </r>
       <r>    0.8575    1.0000 </r>
       <r>    3.8000    1.0000 </r>
       <r>    4.8531    1.0000 </r>
       <r>    7.9877    0.0000 </r>
       <r>    9.1586    0.0000 </r>
       <r>    9.3479    0.0000 </r>
       <r>   12.2744    0.0000 </r>
       <r>   12.4344    0.0000 </r>
       <r>   14.9312    0.0000 </r>
       <r>   15.1118    0.0000 </r>
       <r>   18.2836    0.0000 </r>
       <r>   19.6221    0.0000 </r>
       <r>   21.4496    0.0000 </r>
       <r>   21.4583    0.0000 </r>
       <r>   23.1171    0.0000 </r>
      </set>
      <set comment="kpoint 15">
       <r>   -5.5321    1.0000 </r>
       <r>    2.3857    1.0000 </r>
       <r>    4.0950    1.0000 </r>
       <r>    5.2119    1.0000 </r>
       <r>    8.2843    0.0000 </r>
       <r>    8.8757    0.0000 </r>
       <r>    9.2185    0.0000 </r>
       <r>   11.3801    0.0000 </r>
       <r>   12.0218    0.0000 </r>
       <r>   13.7613    0.0000 </r>
       <r>   15.2432    0.0000 </r>
       <r>   16.8560    0.0000 </r>
       <r>   18.6449    0.0000 </r>
       <r>   20.4341    0.0000 </r>
       <r>   22.5929    0.0000 </r>
       <r>   23.8679    0.0000 </r>
      </set>
      <set comment="kpoint 16">
       <r>   -5.9129    1.0000 </r>
       <r>    3.8387    1.0000 </r>
       <r>    4.6534    1.0000 </r>
       <r>    5.4830    1.0000 </r>
       <r>    8.4787    0.0000 </r>
       <r>    8.5182    0.0000 </r>
       <r>    8.6364    0.0000 </r>
       <r>   10.4786    0.0000 </r>
       <r>   12.3564    0.0000 </r>
       <r>   13.1961    0.0000 </r>
       <r>   14.5912    0.0000 </r>
       <r>   16.6445    0.0000 </r>
       <r>   17.3517    0.0000 </r>
       <r>   18.7651    0.0000 </r>
       <r>   22.5778    0.0000 </r>
       <r>   24.9927    0.0000 </r>
      </set>
      <set comment="kpoint 17">
       <r>   -5.6297    1.0000 </r>
       <r>    3.3101    1.0000 </r>
       <r>    4.3259    1.0000 </r>
       <r>    4.3265    1.0000 </r>
       <r>    7.2307    0.0000 </r>
       <r>    9.7029    0.0000 </r>
       <r>   10.1708    0.0000 </r>
       <r>   10.1731    0.0000 </r>
       <r>   12.3050    0.0000 </r>
       <r>   13.9670    0.0000 </r>
       <r>   15.5647    0.0000 </r>
       <r>   17.7825    0.0000 </r>
       <r>   17.7857    0.0000 </r>
       <r>   18.3795    0.0000 </r>
       <r>   24.3208    0.0000 </r>
       <r>   24.4974    0.0000 </r>
      </set>
      <set comment="kpoint 18">
       <r>   -5.2490    1.0000 </r>
       <r>    2.1679    1.0000 </r>
       <r>    3.9112    1.0000 </r>
       <r>    3.9885    1.0000 </r>
       <r>    7.2819    0.0000 </r>
       <r>    9.3066    0.0000 </r>
       <r>   10.4543    0.0000 </r>
       <r>   10.7519    0.0000 </r>
       <r>   13.4995    0.0000 </r>
       <r>   14.2854    0.0000 </r>
       <r>   16.3217    0.0000 </r>
       <r>   17.7354    0.0000 </r>
       <r>   18.6760    0.0000 </r>
       <r>   19.9391    0.0000 </r>
       <r>   22.5015    0.0000 </r>
       <r>   22.9652    0.0000 </r>
      </set>
      <set comment="kpoint 19">
       <r>   -4.6880    1.0000 </r>
       <r>    0.8176    1.0000 </r>
       <r>    3.3852    1.0000 </r>
       <r>    3.7940    1.0000 </r>
       <r>    7.5155    0.0000 </r>
       <r>    9.6632    0.0000 </r>
       <r>   10.2535    0.0000 </r>
       <r>   10.8366    0.0000 </r>
       <r>   15.0901    0.0000 </r>
       <r>   15.2183    0.0000 </r>
       <r>   16.0890    0.0000 </r>
       <r>   18.8112    0.0000 </r>
       <r>   18.9615    0.0000 </r>
       <r>   20.5977    0.0000 </r>
       <r>   21.5368    0.0000 </r>
       <r>   22.8009    0.0000 </r>
      </set>
      <set comment="kpoint 20">
       <r>   -4.0213    1.0000 </r>
       <r>   -0.3983    1.0000 </r>
       <r>    2.9147    1.0000 </r>
       <r>    3.7613    1.0000 </r>
       <r>    7.5539    0.0000 </r>
       <r>   10.0234    0.0000 </r>
       <r>   10.5906    0.0000 </r>
       <r>   10.8682    0.0000 </r>
       <r>   15.4874    0.0000 </r>
       <r>   16.4076    0.0000 </r>
       <r>   17.0443    0.0000 </r>
       <r>   17.2061    0.0000 </r>
       <r>   18.2533    0.0000 </r>
       <r>   21.6074    0.0000 </r>
       <r>   23.2125    0.0000 </r>
       <r>   23.3816    0.0000 </r>
      </set>
      <set comment="kpoint 21">
       <r>   -3.5510    1.0000 </r>
       <r>   -1.0922    1.0000 </r>
       <r>    2.5841    1.0000 </r>
       <r>    3.8894    1.0000 </r>
       <r>    7.6499    0.0000 </r>
       <r>    9.8988    0.0000 </r>
       <r>   10.3053    0.0000 </r>
       <r>   12.4759    0.0000 </r>
       <r>   14.6500    0.0000 </r>
       <r>   15.1009    0.0000 </r>
       <r>   17.0491    0.0000 </r>
       <r>   18.3045    0.0000 </r>
       <r>   18.9668    0.0000 </r>
       <r>   21.1611    0.0000 </r>
       <r>   24.1797    0.0000 </r>
       <r>   24.4328    0.0000 </r>
      </set>
      <set comment="kpoint 22">
       <r>   -3.8293    1.0000 </r>
       <r>   -0.6893    1.0000 </r>
       <r>    2.4347    1.0000 </r>
       <r>    4.1624    1.0000 </r>
       <r>    7.8944    0.0000 </r>
       <r>    9.8924    0.0000 </r>
       <r>   10.0833    0.0000 </r>
       <r>   13.2889    0.0000 </r>
       <r>   13.3929    0.0000 </r>
       <r>   14.2183    0.0000 </r>
       <r>   16.9306    0.0000 </r>
       <r>   19.3033    0.0000 </r>
       <r>   20.2740    0.0000 </r>
       <r>   20.4896    0.0000 </r>
       <r>   21.9275    0.0000 </r>
       <r>   24.2562    0.0000 </r>
      </set>
      <set comment="kpoint 23">
       <r>   -4.4869    1.0000 </r>
       <r>    0.4067    1.0000 </r>
       <r>    2.5183    1.0000 </r>
       <r>    4.5427    1.0000 </r>
       <r>    8.2512    0.0000 </r>
       <r>    9.8384    0.0000 </r>
       <r>    9.9469    0.0000 </r>
       <r>   11.9061    0.0000 </r>
       <r>   12.1582    0.0000 </r>
       <r>   15.6547    0.0000 </r>
       <r>   17.3497    0.0000 </r>
       <r>   17.6239    0.0000 </r>
       <r>   19.4284    0.0000 </r>
       <r>   21.4541    0.0000 </r>
       <r>   22.1209    0.0000 </r>
       <r>   23.0651    0.0000 </r>
      </set>
      <set comment="kpoint 24">
       <r>   -5.0922    1.0000 </r>
       <r>    1.5803    1.0000 </r>
       <r>    2.9972    1.0000 </r>
       <r>    4.9493    1.0000 </r>
       <r>    8.5673    0.0000 </r>
       <r>    9.3522    0.0000 </r>
       <r>    9.6391    0.0000 </r>
       <r>   11.2350    0.0000 </r>
       <r>   11.7317    0.0000 </r>
       <r>   15.4901    0.0000 </r>
       <r>   16.1699    0.0000 </r>
       <r>   17.2249    0.0000 </r>
       <r>   19.2541    0.0000 </r>
       <r>   20.5181    0.0000 </r>
       <r>   21.9922    0.0000 </r>
       <r>   24.0063    0.0000 </r>
      </set>
      <set comment="kpoint 25">
       <r>   -4.9329    1.0000 </r>
       <r>    1.7044    1.0000 </r>
       <r>    3.6151    1.0000 </r>
       <r>    3.6164    1.0000 </r>
       <r>    6.6486    0.0000 </r>
       <r>    8.4344    0.0000 </r>
       <r>   11.7159    0.0000 </r>
       <r>   11.7170    0.0000 </r>
       <r>   13.9709    0.0000 </r>
       <r>   14.7541    0.0000 </r>
       <r>   17.4039    0.0000 </r>
       <r>   18.7890    0.0000 </r>
       <r>   18.7920    0.0000 </r>
       <r>   19.5996    0.0000 </r>
       <r>   22.4086    0.0000 </r>
       <r>   22.4087    0.0000 </r>
      </set>
      <set comment="kpoint 26">
       <r>   -4.4280    1.0000 </r>
       <r>    0.7626    1.0000 </r>
       <r>    3.0877    1.0000 </r>
       <r>    3.3881    1.0000 </r>
       <r>    6.7799    0.0000 </r>
       <r>    8.1483    0.0000 </r>
       <r>   11.9951    0.0000 </r>
       <r>   12.1810    0.0000 </r>
       <r>   15.4194    0.0000 </r>
       <r>   15.4888    0.0000 </r>
       <r>   17.6198    0.0000 </r>
       <r>   18.8500    0.0000 </r>
       <r>   19.3211    0.0000 </r>
       <r>   20.2857    0.0000 </r>
       <r>   21.3545    0.0000 </r>
       <r>   22.2870    0.0000 </r>
      </set>
      <set comment="kpoint 27">
       <r>   -3.7804    1.0000 </r>
       <r>   -0.2501    1.0000 </r>
       <r>    2.3736    1.0000 </r>
       <r>    3.3272    1.0000 </r>
       <r>    6.9799    0.0000 </r>
       <r>    8.8882    0.0000 </r>
       <r>   11.8324    0.0000 </r>
       <r>   12.0526    0.0000 </r>
       <r>   16.5653    0.0000 </r>
       <r>   16.8221    0.0000 </r>
       <r>   17.2025    0.0000 </r>
       <r>   17.3344    0.0000 </r>
       <r>   19.2053    0.0000 </r>
       <r>   21.1236    0.0000 </r>
       <r>   22.2455    0.0000 </r>
       <r>   23.8579    0.0000 </r>
      </set>
      <set comment="kpoint 28">
       <r>   -3.1801    1.0000 </r>
       <r>   -1.0354    1.0000 </r>
       <r>    1.8102    1.0000 </r>
       <r>    3.4375    1.0000 </r>
       <r>    7.1124    0.0000 </r>
       <r>   10.3504    0.0000 </r>
       <r>   11.6635    0.0000 </r>
       <r>   11.7317    0.0000 </r>
       <r>   15.0313    0.0000 </r>
       <r>   15.1483    0.0000 </r>
       <r>   18.6654    0.0000 </r>
       <r>   18.6742    0.0000 </r>
       <r>   19.1924    0.0000 </r>
       <r>   23.0614    0.0000 </r>
       <r>   23.0821    0.0000 </r>
       <r>   23.5723    0.0000 </r>
      </set>
      <set comment="kpoint 29">
       <r>   -3.2364    1.0000 </r>
       <r>   -0.9561    1.0000 </r>
       <r>    1.5308    1.0000 </r>
       <r>    3.7071    1.0000 </r>
       <r>    7.3962    0.0000 </r>
       <r>   11.3821    0.0000 </r>
       <r>   11.4007    0.0000 </r>
       <r>   12.2823    0.0000 </r>
       <r>   13.3329    0.0000 </r>
       <r>   13.4121    0.0000 </r>
       <r>   18.6204    0.0000 </r>
       <r>   20.6357    0.0000 </r>
       <r>   20.6532    0.0000 </r>
       <r>   21.4308    0.0000 </r>
       <r>   22.0561    0.0000 </r>
       <r>   23.2631    0.0000 </r>
      </set>
      <set comment="kpoint 30">
       <r>   -3.8580    1.0000 </r>
       <r>   -0.2095    1.0000 </r>
       <r>    1.6900    1.0000 </r>
       <r>    4.1022    1.0000 </r>
       <r>    7.8309    0.0000 </r>
       <r>   10.7894    0.0000 </r>
       <r>   11.1279    0.0000 </r>
       <r>   11.9571    0.0000 </r>
       <r>   12.3349    0.0000 </r>
       <r>   14.2357    0.0000 </r>
       <r>   18.5866    0.0000 </r>
       <r>   19.2528    0.0000 </r>
       <r>   19.7049    0.0000 </r>
       <r>   22.2278    0.0000 </r>
       <r>   22.4392    0.0000 </r>
       <r>   22.9896    0.0000 </r>
      </set>
      <set comment="kpoint 31">
       <r>   -3.9786    1.0000 </r>
       <r>    0.1080    1.0000 </r>
       <r>    3.1159    1.0000 </r>
       <r>    3.1175    1.0000 </r>
       <r>    6.2981    0.0000 </r>
       <r>    7.3137    0.0000 </r>
       <r>   13.3585    0.0000 </r>
       <r>   13.3586    0.0000 </r>
       <r>   15.8525    0.0000 </r>
       <r>   15.8854    0.0000 </r>
       <r>   18.6832    0.0000 </r>
       <r>   18.6833    0.0000 </r>
       <r>   18.9840    0.0000 </r>
       <r>   20.9531    0.0000 </r>
       <r>   21.2392    0.0000 </r>
       <r>   22.1495    0.0000 </r>
      </set>
      <set comment="kpoint 32">
       <r>   -3.3672    1.0000 </r>
       <r>   -0.6952    1.0000 </r>
       <r>    2.5930    1.0000 </r>
       <r>    3.0138    1.0000 </r>
       <r>    6.5058    0.0000 </r>
       <r>    7.3239    0.0000 </r>
       <r>   13.6773    0.0000 </r>
       <r>   13.6898    0.0000 </r>
       <r>   16.9875    0.0000 </r>
       <r>   17.0159    0.0000 </r>
       <r>   17.2920    0.0000 </r>
       <r>   17.5006    0.0000 </r>
       <r>   20.0397    0.0000 </r>
       <r>   20.5895    0.0000 </r>
       <r>   21.2392    0.0000 </r>
       <r>   23.2949    0.0000 </r>
      </set>
      <set comment="kpoint 33">
       <r>   -2.7065    1.0000 </r>
       <r>   -1.4005    1.0000 </r>
       <r>    1.8316    1.0000 </r>
       <r>    3.0855    1.0000 </r>
       <r>    6.6752    0.0000 </r>
       <r>    8.4902    0.0000 </r>
       <r>   13.4096    0.0000 </r>
       <r>   13.5455    0.0000 </r>
       <r>   15.2756    0.0000 </r>
       <r>   15.3638    0.0000 </r>
       <r>   18.8096    0.0000 </r>
       <r>   19.1470    0.0000 </r>
       <r>   20.7774    0.0000 </r>
       <r>   20.8447    0.0000 </r>
       <r>   21.4525    0.0000 </r>
       <r>   23.5917    0.0000 </r>
      </set>
      <set comment="kpoint 34">
       <r>   -2.6475    1.0000 </r>
       <r>   -1.4285    1.0000 </r>
       <r>    1.3565    1.0000 </r>
       <r>    3.3255    1.0000 </r>
       <r>    6.9482    0.0000 </r>
       <r>   10.1931    0.0000 </r>
       <r>   12.7392    0.0000 </r>
       <r>   13.2632    0.0000 </r>
       <r>   13.4981    0.0000 </r>
       <r>   13.8705    0.0000 </r>
       <r>   20.2483    0.0000 </r>
       <r>   20.6227    0.0000 </r>
       <r>   20.9660    0.0000 </r>
       <r>   21.1410    0.0000 </r>
       <r>   21.2452    0.0000 </r>
       <r>   22.8405    0.0000 </r>
      </set>
      <set comment="kpoint 35">
       <r>   -2.7923    1.0000 </r>
       <r>   -1.4122    1.0000 </r>
       <r>    2.8607    1.0000 </r>
       <r>    2.8624    1.0000 </r>
       <r>    6.2607    0.0000 </r>
       <r>    6.5874    0.0000 </r>
       <r>   15.0284    0.0000 </r>
       <r>   15.0290    0.0000 </r>
       <r>   17.0894    0.0000 </r>
       <r>   17.0899    0.0000 </r>
       <r>   17.2577    0.0000 </r>
       <r>   17.6759    0.0000 </r>
       <r>   18.9621    0.0000 </r>
       <r>   19.0206    0.0000 </r>
       <r>   23.3007    0.0000 </r>
       <r>   24.1110    0.0000 </r>
      </set>
      <set comment="kpoint 36">
       <r>   -2.1602    1.0000 </r>
       <r>   -2.0442    1.0000 </r>
       <r>    2.4299    1.0000 </r>
       <r>    2.8871    1.0000 </r>
       <r>    6.4421    0.0000 </r>
       <r>    7.0150    0.0000 </r>
       <r>   14.9565    0.0000 </r>
       <r>   15.1901    0.0000 </r>
       <r>   15.7067    0.0000 </r>
       <r>   15.8910    0.0000 </r>
       <r>   18.7011    0.0000 </r>
       <r>   18.7368    0.0000 </r>
       <r>   18.8128    0.0000 </r>
       <r>   19.3830    0.0000 </r>
       <r>   23.3507    0.0000 </r>
       <r>   23.6804    0.0000 </r>
      </set>
      <set comment="kpoint 37">
       <r>   -6.0890    1.0000 </r>
       <r>    4.6336    1.0000 </r>
       <r>    5.4626    1.0000 </r>
       <r>    5.4696    1.0000 </r>
       <r>    8.1797    0.0000 </r>
       <r>    8.4233    0.0000 </r>
       <r>    8.4245    0.0000 </r>
       <r>    9.5887    0.0000 </r>
       <r>   13.0316    0.0000 </r>
       <r>   13.0321    0.0000 </r>
       <r>   13.9531    0.0000 </r>
       <r>   16.4540    0.0000 </r>
       <r>   17.4607    0.0000 </r>
       <r>   17.4647    0.0000 </r>
       <r>   21.6036    0.0000 </r>
       <r>   27.3288    0.0000 </r>
      </set>
      <set comment="kpoint 38">
       <r>   -6.0534    1.0000 </r>
       <r>    4.8078    1.0000 </r>
       <r>    5.1376    1.0000 </r>
       <r>    5.1485    1.0000 </r>
       <r>    7.8686    0.0000 </r>
       <r>    8.8401    0.0000 </r>
       <r>    8.8417    0.0000 </r>
       <r>    9.5200    0.0000 </r>
       <r>   12.4794    0.0000 </r>
       <r>   13.4935    0.0000 </r>
       <r>   14.1039    0.0000 </r>
       <r>   17.0557    0.0000 </r>
       <r>   17.0636    0.0000 </r>
       <r>   17.4103    0.0000 </r>
       <r>   21.8994    0.0000 </r>
       <r>   26.9026    0.0000 </r>
      </set>
      <set comment="kpoint 39">
       <r>   -5.8071    1.0000 </r>
       <r>    3.4687    1.0000 </r>
       <r>    4.7578    1.0000 </r>
       <r>    4.9190    1.0000 </r>
       <r>    7.9021    0.0000 </r>
       <r>    8.8707    0.0000 </r>
       <r>    9.4236    0.0000 </r>
       <r>   10.4980    0.0000 </r>
       <r>   12.2257    0.0000 </r>
       <r>   13.4543    0.0000 </r>
       <r>   14.9110    0.0000 </r>
       <r>   16.6578    0.0000 </r>
       <r>   17.8935    0.0000 </r>
       <r>   18.7974    0.0000 </r>
       <r>   23.1974    0.0000 </r>
       <r>   24.8519    0.0000 </r>
      </set>
      <set comment="kpoint 40">
       <r>   -5.3617    1.0000 </r>
       <r>    1.8686    1.0000 </r>
       <r>    4.4428    1.0000 </r>
       <r>    4.5519    1.0000 </r>
       <r>    8.0084    0.0000 </r>
       <r>    8.8789    0.0000 </r>
       <r>    9.7736    0.0000 </r>
       <r>   10.9520    0.0000 </r>
       <r>   13.2755    0.0000 </r>
       <r>   13.6403    0.0000 </r>
       <r>   15.1184    0.0000 </r>
       <r>   17.3769    0.0000 </r>
       <r>   19.3346    0.0000 </r>
       <r>   20.5385    0.0000 </r>
       <r>   22.5634    0.0000 </r>
       <r>   23.1022    0.0000 </r>
      </set>
      <set comment="kpoint 41">
       <r>   -4.7512    1.0000 </r>
       <r>    0.3825    1.0000 </r>
       <r>    4.1756    1.0000 </r>
       <r>    4.2579    1.0000 </r>
       <r>    7.8457    0.0000 </r>
       <r>    8.9335    0.0000 </r>
       <r>    9.7130    0.0000 </r>
       <r>   11.7158    0.0000 </r>
       <r>   14.4607    0.0000 </r>
       <r>   14.5358    0.0000 </r>
       <r>   15.1061    0.0000 </r>
       <r>   18.9510    0.0000 </r>
       <r>   19.2052    0.0000 </r>
       <r>   20.6681    0.0000 </r>
       <r>   22.3721    0.0000 </r>
       <r>   22.7276    0.0000 </r>
      </set>
      <set comment="kpoint 42">
       <r>   -4.0961    1.0000 </r>
       <r>   -0.7896    1.0000 </r>
       <r>    3.8824    1.0000 </r>
       <r>    4.2171    1.0000 </r>
       <r>    7.7025    0.0000 </r>
       <r>    8.9008    0.0000 </r>
       <r>    9.4832    0.0000 </r>
       <r>   12.9454    0.0000 </r>
       <r>   14.3707    0.0000 </r>
       <r>   15.9340    0.0000 </r>
       <r>   16.6215    0.0000 </r>
       <r>   17.3020    0.0000 </r>
       <r>   18.0900    0.0000 </r>
       <r>   20.3575    0.0000 </r>
       <r>   22.9190    0.0000 </r>
       <r>   24.4622    0.0000 </r>
      </set>
      <set comment="kpoint 43">
       <r>   -3.8337    1.0000 </r>
       <r>   -1.1823    1.0000 </r>
       <r>    3.7083    1.0000 </r>
       <r>    4.3165    1.0000 </r>
       <r>    7.6739    0.0000 </r>
       <r>    8.9585    0.0000 </r>
       <r>    9.3012    0.0000 </r>
       <r>   13.6590    0.0000 </r>
       <r>   14.9009    0.0000 </r>
       <r>   15.2278    0.0000 </r>
       <r>   16.4952    0.0000 </r>
       <r>   17.8848    0.0000 </r>
       <r>   18.2097    0.0000 </r>
       <r>   19.0177    0.0000 </r>
       <r>   24.3015    0.0000 </r>
       <r>   25.4482    0.0000 </r>
      </set>
      <set comment="kpoint 44">
       <r>   -4.3045    1.0000 </r>
       <r>   -0.4495    1.0000 </r>
       <r>    3.6745    1.0000 </r>
       <r>    4.5401    1.0000 </r>
       <r>    7.7727    0.0000 </r>
       <r>    9.1468    0.0000 </r>
       <r>    9.2223    0.0000 </r>
       <r>   13.3370    0.0000 </r>
       <r>   13.6045    0.0000 </r>
       <r>   14.7598    0.0000 </r>
       <r>   16.7454    0.0000 </r>
       <r>   17.4173    0.0000 </r>
       <r>   19.8637    0.0000 </r>
       <r>   20.0312    0.0000 </r>
       <r>   22.1809    0.0000 </r>
       <r>   23.6485    0.0000 </r>
      </set>
      <set comment="kpoint 45">
       <r>   -4.9703    1.0000 </r>
       <r>    0.8563    1.0000 </r>
       <r>    3.7964    1.0000 </r>
       <r>    4.8595    1.0000 </r>
       <r>    7.9878    0.0000 </r>
       <r>    9.1512    0.0000 </r>
       <r>    9.3531    0.0000 </r>
       <r>   12.2756    0.0000 </r>
       <r>   12.4365    0.0000 </r>
       <r>   14.9303    0.0000 </r>
       <r>   15.1076    0.0000 </r>
       <r>   18.2838    0.0000 </r>
       <r>   19.6237    0.0000 </r>
       <r>   21.4518    0.0000 </r>
       <r>   21.4558    0.0000 </r>
       <r>   23.1156    0.0000 </r>
      </set>
      <set comment="kpoint 46">
       <r>   -5.5320    1.0000 </r>
       <r>    2.3833    1.0000 </r>
       <r>    4.0925    1.0000 </r>
       <r>    5.2188    1.0000 </r>
       <r>    8.2844    0.0000 </r>
       <r>    8.8695    0.0000 </r>
       <r>    9.2232    0.0000 </r>
       <r>   11.3816    0.0000 </r>
       <r>   12.0223    0.0000 </r>
       <r>   13.7567    0.0000 </r>
       <r>   15.2422    0.0000 </r>
       <r>   16.8583    0.0000 </r>
       <r>   18.6488    0.0000 </r>
       <r>   20.4304    0.0000 </r>
       <r>   22.5886    0.0000 </r>
       <r>   23.8688    0.0000 </r>
      </set>
      <set comment="kpoint 47">
       <r>   -5.9128    1.0000 </r>
       <r>    3.8327    1.0000 </r>
       <r>    4.6545    1.0000 </r>
       <r>    5.4902    1.0000 </r>
       <r>    8.4739    0.0000 </r>
       <r>    8.5190    0.0000 </r>
       <r>    8.6400    0.0000 </r>
       <r>   10.4784    0.0000 </r>
       <r>   12.3553    0.0000 </r>
       <r>   13.1933    0.0000 </r>
       <r>   14.5908    0.0000 </r>
       <r>   16.6491    0.0000 </r>
       <r>   17.3532    0.0000 </r>
       <r>   18.7609    0.0000 </r>
       <r>   22.5792    0.0000 </r>
       <r>   24.9881    0.0000 </r>
      </set>
      <set comment="kpoint 48">
       <r>   -6.0890    1.0000 </r>
       <r>    4.6482    1.0000 </r>
       <r>    5.4531    1.0000 </r>
       <r>    5.4629    1.0000 </r>
       <r>    8.1713    0.0000 </r>
       <r>    8.4220    0.0000 </r>
       <r>    8.4283    0.0000 </r>
       <r>    9.5945    0.0000 </r>
       <r>   13.0326    0.0000 </r>
       <r>   13.0329    0.0000 </r>
       <r>   13.9545    0.0000 </r>
       <r>   16.4435    0.0000 </r>
       <r>   17.4646    0.0000 </r>
       <r>   17.4709    0.0000 </r>
       <r>   21.6032    0.0000 </r>
       <r>   27.3436    0.0000 </r>
      </set>
      <set comment="kpoint 49">
       <r>   -5.9128    1.0000 </r>
       <r>    3.8431    1.0000 </r>
       <r>    4.6543    1.0000 </r>
       <r>    5.4776    1.0000 </r>
       <r>    8.4778    0.0000 </r>
       <r>    8.5138    0.0000 </r>
       <r>    8.6351    0.0000 </r>
       <r>   10.4825    0.0000 </r>
       <r>   12.3549    0.0000 </r>
       <r>   13.1981    0.0000 </r>
       <r>   14.5931    0.0000 </r>
       <r>   16.6419    0.0000 </r>
       <r>   17.3525    0.0000 </r>
       <r>   18.7687    0.0000 </r>
       <r>   22.5784    0.0000 </r>
       <r>   25.0062    0.0000 </r>
      </set>
      <set comment="kpoint 50">
       <r>   -5.5320    1.0000 </r>
       <r>    2.3866    1.0000 </r>
       <r>    4.0989    1.0000 </r>
       <r>    5.2071    1.0000 </r>
       <r>    8.2822    0.0000 </r>
       <r>    8.8758    0.0000 </r>
       <r>    9.2159    0.0000 </r>
       <r>   11.3784    0.0000 </r>
       <r>   12.0187    0.0000 </r>
       <r>   13.7685    0.0000 </r>
       <r>   15.2453    0.0000 </r>
       <r>   16.8560    0.0000 </r>
       <r>   18.6429    0.0000 </r>
       <r>   20.4381    0.0000 </r>
       <r>   22.6060    0.0000 </r>
       <r>   23.8670    0.0000 </r>
      </set>
      <set comment="kpoint 51">
       <r>   -4.9703    1.0000 </r>
       <r>    0.8576    1.0000 </r>
       <r>    3.8043    1.0000 </r>
       <r>    4.8487    1.0000 </r>
       <r>    7.9860    0.0000 </r>
       <r>    9.1598    0.0000 </r>
       <r>    9.3463    0.0000 </r>
       <r>   12.2695    0.0000 </r>
       <r>   12.4294    0.0000 </r>
       <r>   14.9334    0.0000 </r>
       <r>   15.1222    0.0000 </r>
       <r>   18.2864    0.0000 </r>
       <r>   19.6245    0.0000 </r>
       <r>   21.4524    0.0000 </r>
       <r>   21.4582    0.0000 </r>
       <r>   23.1135    0.0000 </r>
      </set>
      <set comment="kpoint 52">
       <r>   -4.3046    1.0000 </r>
       <r>   -0.4489    1.0000 </r>
       <r>    3.6827    1.0000 </r>
       <r>    4.5300    1.0000 </r>
       <r>    7.7711    0.0000 </r>
       <r>    9.1403    0.0000 </r>
       <r>    9.2315    0.0000 </r>
       <r>   13.3306    0.0000 </r>
       <r>   13.5964    0.0000 </r>
       <r>   14.7628    0.0000 </r>
       <r>   16.7608    0.0000 </r>
       <r>   17.4306    0.0000 </r>
       <r>   19.8543    0.0000 </r>
       <r>   20.0238    0.0000 </r>
       <r>   22.1794    0.0000 </r>
       <r>   23.6472    0.0000 </r>
      </set>
      <set comment="kpoint 53">
       <r>   -3.8337    1.0000 </r>
       <r>   -1.1822    1.0000 </r>
       <r>    3.7168    1.0000 </r>
       <r>    4.3069    1.0000 </r>
       <r>    7.6724    0.0000 </r>
       <r>    8.9525    0.0000 </r>
       <r>    9.3099    0.0000 </r>
       <r>   13.6605    0.0000 </r>
       <r>   14.9036    0.0000 </r>
       <r>   15.2203    0.0000 </r>
       <r>   16.5009    0.0000 </r>
       <r>   17.8737    0.0000 </r>
       <r>   18.2137    0.0000 </r>
       <r>   19.0226    0.0000 </r>
       <r>   24.2993    0.0000 </r>
       <r>   25.4471    0.0000 </r>
      </set>
      <set comment="kpoint 54">
       <r>   -4.0961    1.0000 </r>
       <r>   -0.7899    1.0000 </r>
       <r>    3.8911    1.0000 </r>
       <r>    4.2078    1.0000 </r>
       <r>    7.7014    0.0000 </r>
       <r>    8.8951    0.0000 </r>
       <r>    9.4915    0.0000 </r>
       <r>   12.9581    0.0000 </r>
       <r>   14.3682    0.0000 </r>
       <r>   15.9274    0.0000 </r>
       <r>   16.6168    0.0000 </r>
       <r>   17.2907    0.0000 </r>
       <r>   18.0857    0.0000 </r>
       <r>   20.3744    0.0000 </r>
       <r>   22.9186    0.0000 </r>
       <r>   24.4692    0.0000 </r>
      </set>
      <set comment="kpoint 55">
       <r>   -4.7512    1.0000 </r>
       <r>    0.3818    1.0000 </r>
       <r>    4.1848    1.0000 </r>
       <r>    4.2488    1.0000 </r>
       <r>    7.8451    0.0000 </r>
       <r>    8.9281    0.0000 </r>
       <r>    9.7206    0.0000 </r>
       <r>   11.7288    0.0000 </r>
       <r>   14.4560    0.0000 </r>
       <r>   14.5279    0.0000 </r>
       <r>   15.1028    0.0000 </r>
       <r>   18.9482    0.0000 </r>
       <r>   19.1992    0.0000 </r>
       <r>   20.6716    0.0000 </r>
       <r>   22.3746    0.0000 </r>
       <r>   22.7290    0.0000 </r>
      </set>
      <set comment="kpoint 56">
       <r>   -5.3617    1.0000 </r>
       <r>    1.8671    1.0000 </r>
       <r>    4.4334    1.0000 </r>
       <r>    4.5624    1.0000 </r>
       <r>    8.0081    0.0000 </r>
       <r>    8.8767    0.0000 </r>
       <r>    9.7792    0.0000 </r>
       <r>   10.9605    0.0000 </r>
       <r>   13.2697    0.0000 </r>
       <r>   13.6345    0.0000 </r>
       <r>   15.1165    0.0000 </r>
       <r>   17.3779    0.0000 </r>
       <r>   19.3420    0.0000 </r>
       <r>   20.5305    0.0000 </r>
       <r>   22.5521    0.0000 </r>
       <r>   23.0969    0.0000 </r>
      </set>
      <set comment="kpoint 57">
       <r>   -5.8071    1.0000 </r>
       <r>    3.4657    1.0000 </r>
       <r>    4.7479    1.0000 </r>
       <r>    4.9322    1.0000 </r>
       <r>    7.9017    0.0000 </r>
       <r>    8.8723    0.0000 </r>
       <r>    9.4262    0.0000 </r>
       <r>   10.4981    0.0000 </r>
       <r>   12.2235    0.0000 </r>
       <r>   13.4521    0.0000 </r>
       <r>   14.9095    0.0000 </r>
       <r>   16.6585    0.0000 </r>
       <r>   17.9015    0.0000 </r>
       <r>   18.7893    0.0000 </r>
       <r>   23.1977    0.0000 </r>
       <r>   24.8399    0.0000 </r>
      </set>
      <set comment="kpoint 58">
       <r>   -5.8070    1.0000 </r>
       <r>    3.4741    1.0000 </r>
       <r>    4.7529    1.0000 </r>
       <r>    4.9179    1.0000 </r>
       <r>    7.9008    0.0000 </r>
       <r>    8.8684    0.0000 </r>
       <r>    9.4219    0.0000 </r>
       <r>   10.5005    0.0000 </r>
       <r>   12.2264    0.0000 </r>
       <r>   13.4544    0.0000 </r>
       <r>   14.9124    0.0000 </r>
       <r>   16.6542    0.0000 </r>
       <r>   17.8972    0.0000 </r>
       <r>   18.7996    0.0000 </r>
       <r>   23.1976    0.0000 </r>
       <r>   24.8588    0.0000 </r>
      </set>
      <set comment="kpoint 59">
       <r>   -5.4941    1.0000 </r>
       <r>    2.6149    1.0000 </r>
       <r>    3.8286    1.0000 </r>
       <r>    4.8103    1.0000 </r>
       <r>    7.9607    0.0000 </r>
       <r>    9.1816    0.0000 </r>
       <r>    9.9678    0.0000 </r>
       <r>   10.3848    0.0000 </r>
       <r>   12.5812    0.0000 </r>
       <r>   14.0001    0.0000 </r>
       <r>   15.7556    0.0000 </r>
       <r>   17.0618    0.0000 </r>
       <r>   18.2197    0.0000 </r>
       <r>   20.1172    0.0000 </r>
       <r>   22.5897    0.0000 </r>
       <r>   24.2304    0.0000 </r>
      </set>
      <set comment="kpoint 60">
       <r>   -4.9899    1.0000 </r>
       <r>    1.3111    1.0000 </r>
       <r>    3.2751    1.0000 </r>
       <r>    4.4973    1.0000 </r>
       <r>    8.2662    0.0000 </r>
       <r>    9.1413    0.0000 </r>
       <r>   10.2970    0.0000 </r>
       <r>   10.5039    0.0000 </r>
       <r>   13.1186    0.0000 </r>
       <r>   15.4078    0.0000 </r>
       <r>   15.9251    0.0000 </r>
       <r>   17.8175    0.0000 </r>
       <r>   19.3800    0.0000 </r>
       <r>   20.8189    0.0000 </r>
       <r>   21.4682    0.0000 </r>
       <r>   23.4747    0.0000 </r>
      </set>
      <set comment="kpoint 61">
       <r>   -4.3439    1.0000 </r>
       <r>   -0.0106    1.0000 </r>
       <r>    3.0190    1.0000 </r>
       <r>    4.1602    1.0000 </r>
       <r>    8.2910    0.0000 </r>
       <r>    8.9593    0.0000 </r>
       <r>   10.3967    0.0000 </r>
       <r>   11.3324    0.0000 </r>
       <r>   14.1941    0.0000 </r>
       <r>   15.3843    0.0000 </r>
       <r>   17.1458    0.0000 </r>
       <r>   17.4652    0.0000 </r>
       <r>   19.6683    0.0000 </r>
       <r>   20.7884    0.0000 </r>
       <r>   22.3129    0.0000 </r>
       <r>   23.2613    0.0000 </r>
      </set>
      <set comment="kpoint 62">
       <r>   -3.7435    1.0000 </r>
       <r>   -0.9727    1.0000 </r>
       <r>    2.9187    1.0000 </r>
       <r>    3.9543    1.0000 </r>
       <r>    8.2600    0.0000 </r>
       <r>    8.7689    0.0000 </r>
       <r>   10.3336    0.0000 </r>
       <r>   12.7797    0.0000 </r>
       <r>   14.3140    0.0000 </r>
       <r>   15.4372    0.0000 </r>
       <r>   16.6969    0.0000 </r>
       <r>   18.0645    0.0000 </r>
       <r>   18.9943    0.0000 </r>
       <r>   20.7739    0.0000 </r>
       <r>   23.1857    0.0000 </r>
       <r>   24.9655    0.0000 </r>
      </set>
      <set comment="kpoint 63">
       <r>   -3.7437    1.0000 </r>
       <r>   -0.9726    1.0000 </r>
       <r>    2.9177    1.0000 </r>
       <r>    3.9551    1.0000 </r>
       <r>    8.2589    0.0000 </r>
       <r>    8.7702    0.0000 </r>
       <r>   10.3339    0.0000 </r>
       <r>   12.7899    0.0000 </r>
       <r>   14.3053    0.0000 </r>
       <r>   15.4385    0.0000 </r>
       <r>   16.6933    0.0000 </r>
       <r>   18.0647    0.0000 </r>
       <r>   18.9817    0.0000 </r>
       <r>   20.7873    0.0000 </r>
       <r>   23.1872    0.0000 </r>
       <r>   24.9656    0.0000 </r>
      </set>
      <set comment="kpoint 64">
       <r>   -4.3442    1.0000 </r>
       <r>   -0.0105    1.0000 </r>
       <r>    3.0167    1.0000 </r>
       <r>    4.1623    1.0000 </r>
       <r>    8.2889    0.0000 </r>
       <r>    8.9625    0.0000 </r>
       <r>   10.3977    0.0000 </r>
       <r>   11.3418    0.0000 </r>
       <r>   14.1957    0.0000 </r>
       <r>   15.3799    0.0000 </r>
       <r>   17.1342    0.0000 </r>
       <r>   17.4578    0.0000 </r>
       <r>   19.6678    0.0000 </r>
       <r>   20.7908    0.0000 </r>
       <r>   22.3158    0.0000 </r>
       <r>   23.2671    0.0000 </r>
      </set>
      <set comment="kpoint 65">
       <r>   -4.9902    1.0000 </r>
       <r>    1.3103    1.0000 </r>
       <r>    3.2724    1.0000 </r>
       <r>    4.5003    1.0000 </r>
       <r>    8.2646    0.0000 </r>
       <r>    9.1464    0.0000 </r>
       <r>   10.2998    0.0000 </r>
       <r>   10.5082    0.0000 </r>
       <r>   13.1201    0.0000 </r>
       <r>   15.3984    0.0000 </r>
       <r>   15.9222    0.0000 </r>
       <r>   17.8174    0.0000 </r>
       <r>   19.3784    0.0000 </r>
       <r>   20.8110    0.0000 </r>
       <r>   21.4646    0.0000 </r>
       <r>   23.4721    0.0000 </r>
      </set>
      <set comment="kpoint 66">
       <r>   -5.4943    1.0000 </r>
       <r>    2.6115    1.0000 </r>
       <r>    3.8279    1.0000 </r>
       <r>    4.8146    1.0000 </r>
       <r>    7.9616    0.0000 </r>
       <r>    9.1865    0.0000 </r>
       <r>    9.9691    0.0000 </r>
       <r>   10.3857    0.0000 </r>
       <r>   12.5811    0.0000 </r>
       <r>   13.9951    0.0000 </r>
       <r>   15.7530    0.0000 </r>
       <r>   17.0647    0.0000 </r>
       <r>   18.2185    0.0000 </r>
       <r>   20.1125    0.0000 </r>
       <r>   22.5770    0.0000 </r>
       <r>   24.2308    0.0000 </r>
      </set>
      <set comment="kpoint 67">
       <r>   -5.2490    1.0000 </r>
       <r>    2.1737    1.0000 </r>
       <r>    3.9050    1.0000 </r>
       <r>    3.9875    1.0000 </r>
       <r>    7.2822    0.0000 </r>
       <r>    9.3074    0.0000 </r>
       <r>   10.4510    0.0000 </r>
       <r>   10.7471    0.0000 </r>
       <r>   13.5040    0.0000 </r>
       <r>   14.2883    0.0000 </r>
       <r>   16.3242    0.0000 </r>
       <r>   17.7308    0.0000 </r>
       <r>   18.6734    0.0000 </r>
       <r>   19.9463    0.0000 </r>
       <r>   22.5117    0.0000 </r>
       <r>   22.9686    0.0000 </r>
      </set>
      <set comment="kpoint 68">
       <r>   -4.8073    1.0000 </r>
       <r>    1.3325    1.0000 </r>
       <r>    3.1243    1.0000 </r>
       <r>    3.8242    1.0000 </r>
       <r>    7.4071    0.0000 </r>
       <r>    8.9251    0.0000 </r>
       <r>   10.5597    0.0000 </r>
       <r>   11.6004    0.0000 </r>
       <r>   14.0336    0.0000 </r>
       <r>   15.5234    0.0000 </r>
       <r>   17.0064    0.0000 </r>
       <r>   18.0479    0.0000 </r>
       <r>   19.3347    0.0000 </r>
       <r>   20.7814    0.0000 </r>
       <r>   20.8687    0.0000 </r>
       <r>   23.0656    0.0000 </r>
      </set>
      <set comment="kpoint 69">
       <r>   -4.2006    1.0000 </r>
       <r>    0.2668    1.0000 </r>
       <r>    2.5591    1.0000 </r>
       <r>    3.5174    1.0000 </r>
       <r>    7.7653    0.0000 </r>
       <r>    9.3332    0.0000 </r>
       <r>   10.2478    0.0000 </r>
       <r>   11.9924    0.0000 </r>
       <r>   14.8833    0.0000 </r>
       <r>   16.2536    0.0000 </r>
       <r>   17.3709    0.0000 </r>
       <r>   18.0548    0.0000 </r>
       <r>   19.6475    0.0000 </r>
       <r>   20.2670    0.0000 </r>
       <r>   21.8729    0.0000 </r>
       <r>   23.6154    0.0000 </r>
      </set>
      <set comment="kpoint 70">
       <r>   -3.5414    1.0000 </r>
       <r>   -0.7238    1.0000 </r>
       <r>    2.1776    1.0000 </r>
       <r>    3.3661    1.0000 </r>
       <r>    7.8974    0.0000 </r>
       <r>    9.8662    0.0000 </r>
       <r>   10.6772    0.0000 </r>
       <r>   11.9504    0.0000 </r>
       <r>   14.5903    0.0000 </r>
       <r>   16.2320    0.0000 </r>
       <r>   17.2560    0.0000 </r>
       <r>   18.5101    0.0000 </r>
       <r>   19.2919    0.0000 </r>
       <r>   21.8887    0.0000 </r>
       <r>   23.2551    0.0000 </r>
       <r>   23.9769    0.0000 </r>
      </set>
      <set comment="kpoint 71">
       <r>   -3.2820    1.0000 </r>
       <r>   -1.0645    1.0000 </r>
       <r>    1.9507    1.0000 </r>
       <r>    3.4548    1.0000 </r>
       <r>    8.1063    0.0000 </r>
       <r>    9.6042    0.0000 </r>
       <r>   11.8382    0.0000 </r>
       <r>   12.3448    0.0000 </r>
       <r>   12.8393    0.0000 </r>
       <r>   15.5566    0.0000 </r>
       <r>   17.7085    0.0000 </r>
       <r>   18.5516    0.0000 </r>
       <r>   21.1080    0.0000 </r>
       <r>   21.5577    0.0000 </r>
       <r>   22.7879    0.0000 </r>
       <r>   23.7415    0.0000 </r>
      </set>
      <set comment="kpoint 72">
       <r>   -3.7768    1.0000 </r>
       <r>   -0.3899    1.0000 </r>
       <r>    1.9420    1.0000 </r>
       <r>    3.7452    1.0000 </r>
       <r>    8.4604    0.0000 </r>
       <r>    9.4179    0.0000 </r>
       <r>   11.1388    0.0000 </r>
       <r>   11.7712    0.0000 </r>
       <r>   14.0447    0.0000 </r>
       <r>   14.3096    0.0000 </r>
       <r>   17.9417    0.0000 </r>
       <r>   19.5389    0.0000 </r>
       <r>   20.0810    0.0000 </r>
       <r>   20.6055    0.0000 </r>
       <r>   22.9826    0.0000 </r>
       <r>   23.2680    0.0000 </r>
      </set>
      <set comment="kpoint 73">
       <r>   -4.4394    1.0000 </r>
       <r>    0.5760    1.0000 </r>
       <r>    2.3148    1.0000 </r>
       <r>    4.1523    1.0000 </r>
       <r>    8.8865    0.0000 </r>
       <r>    9.0100    0.0000 </r>
       <r>   10.2617    0.0000 </r>
       <r>   11.3130    0.0000 </r>
       <r>   13.1327    0.0000 </r>
       <r>   15.9941    0.0000 </r>
       <r>   17.4549    0.0000 </r>
       <r>   18.0415    0.0000 </r>
       <r>   19.0434    0.0000 </r>
       <r>   21.3223    0.0000 </r>
       <r>   21.6494    0.0000 </r>
       <r>   24.1646    0.0000 </r>
      </set>
      <set comment="kpoint 74">
       <r>   -4.9902    1.0000 </r>
       <r>    1.3111    1.0000 </r>
       <r>    3.2700    1.0000 </r>
       <r>    4.5026    1.0000 </r>
       <r>    8.2668    0.0000 </r>
       <r>    9.1496    0.0000 </r>
       <r>   10.2946    0.0000 </r>
       <r>   10.4987    0.0000 </r>
       <r>   13.1291    0.0000 </r>
       <r>   15.3984    0.0000 </r>
       <r>   15.9233    0.0000 </r>
       <r>   17.8163    0.0000 </r>
       <r>   19.3781    0.0000 </r>
       <r>   20.8082    0.0000 </r>
       <r>   21.4718    0.0000 </r>
       <r>   23.4822    0.0000 </r>
      </set>
      <set comment="kpoint 75">
       <r>   -4.4280    1.0000 </r>
       <r>    0.7657    1.0000 </r>
       <r>    3.0849    1.0000 </r>
       <r>    3.3867    1.0000 </r>
       <r>    6.7803    0.0000 </r>
       <r>    8.1486    0.0000 </r>
       <r>   11.9913    0.0000 </r>
       <r>   12.1758    0.0000 </r>
       <r>   15.4243    0.0000 </r>
       <r>   15.4933    0.0000 </r>
       <r>   17.6230    0.0000 </r>
       <r>   18.8523    0.0000 </r>
       <r>   19.3159    0.0000 </r>
       <r>   20.2856    0.0000 </r>
       <r>   21.3586    0.0000 </r>
       <r>   22.2972    0.0000 </r>
      </set>
      <set comment="kpoint 76">
       <r>   -3.8718    1.0000 </r>
       <r>   -0.0251    1.0000 </r>
       <r>    2.6564    1.0000 </r>
       <r>    3.0402    1.0000 </r>
       <r>    7.0561    0.0000 </r>
       <r>    7.9056    0.0000 </r>
       <r>   11.9243    0.0000 </r>
       <r>   13.3242    0.0000 </r>
       <r>   15.6543    0.0000 </r>
       <r>   16.7980    0.0000 </r>
       <r>   17.3274    0.0000 </r>
       <r>   18.7704    0.0000 </r>
       <r>   19.6281    0.0000 </r>
       <r>   20.2973    0.0000 </r>
       <r>   21.7103    0.0000 </r>
       <r>   22.2999    0.0000 </r>
      </set>
      <set comment="kpoint 77">
       <r>   -3.2038    1.0000 </r>
       <r>   -0.8365    1.0000 </r>
       <r>    2.0273    1.0000 </r>
       <r>    2.8659    1.0000 </r>
       <r>    7.3996    0.0000 </r>
       <r>    8.7069    0.0000 </r>
       <r>   11.5776    0.0000 </r>
       <r>   13.6880    0.0000 </r>
       <r>   14.8679    0.0000 </r>
       <r>   16.7080    0.0000 </r>
       <r>   17.5761    0.0000 </r>
       <r>   19.3186    0.0000 </r>
       <r>   20.0636    0.0000 </r>
       <r>   20.6188    0.0000 </r>
       <r>   22.5399    0.0000 </r>
       <r>   23.0960    0.0000 </r>
      </set>
      <set comment="kpoint 78">
       <r>   -2.7464    1.0000 </r>
       <r>   -1.3249    1.0000 </r>
       <r>    1.5161    1.0000 </r>
       <r>    2.9806    1.0000 </r>
       <r>    7.6115    0.0000 </r>
       <r>   10.2613    0.0000 </r>
       <r>   11.2797    0.0000 </r>
       <r>   12.8764    0.0000 </r>
       <r>   13.6433    0.0000 </r>
       <r>   15.6566    0.0000 </r>
       <r>   18.5892    0.0000 </r>
       <r>   19.8158    0.0000 </r>
       <r>   21.0695    0.0000 </r>
       <r>   21.5257    0.0000 </r>
       <r>   22.7159    0.0000 </r>
       <r>   23.6473    0.0000 </r>
      </set>
      <set comment="kpoint 79">
       <r>   -3.1258    1.0000 </r>
       <r>   -0.9300    1.0000 </r>
       <r>    1.4130    1.0000 </r>
       <r>    3.2986    1.0000 </r>
       <r>    7.9767    0.0000 </r>
       <r>   10.6724    0.0000 </r>
       <r>   11.3961    0.0000 </r>
       <r>   12.2783    0.0000 </r>
       <r>   13.1282    0.0000 </r>
       <r>   14.3292    0.0000 </r>
       <r>   19.6958    0.0000 </r>
       <r>   20.0188    0.0000 </r>
       <r>   20.1777    0.0000 </r>
       <r>   21.9719    0.0000 </r>
       <r>   22.0552    0.0000 </r>
       <r>   23.1471    0.0000 </r>
      </set>
      <set comment="kpoint 80">
       <r>   -3.7768    1.0000 </r>
       <r>   -0.3898    1.0000 </r>
       <r>    1.9403    1.0000 </r>
       <r>    3.7471    1.0000 </r>
       <r>    8.4597    0.0000 </r>
       <r>    9.4272    0.0000 </r>
       <r>   11.1306    0.0000 </r>
       <r>   11.7597    0.0000 </r>
       <r>   14.0539    0.0000 </r>
       <r>   14.3116    0.0000 </r>
       <r>   17.9424    0.0000 </r>
       <r>   19.5409    0.0000 </r>
       <r>   20.0913    0.0000 </r>
       <r>   20.5997    0.0000 </r>
       <r>   22.9722    0.0000 </r>
       <r>   23.2634    0.0000 </r>
      </set>
      <set comment="kpoint 81">
       <r>   -4.3442    1.0000 </r>
       <r>   -0.0101    1.0000 </r>
       <r>    3.0124    1.0000 </r>
       <r>    4.1670    1.0000 </r>
       <r>    8.2913    0.0000 </r>
       <r>    8.9691    0.0000 </r>
       <r>   10.3873    0.0000 </r>
       <r>   11.3292    0.0000 </r>
       <r>   14.2094    0.0000 </r>
       <r>   15.3808    0.0000 </r>
       <r>   17.1338    0.0000 </r>
       <r>   17.4579    0.0000 </r>
       <r>   19.6806    0.0000 </r>
       <r>   20.7847    0.0000 </r>
       <r>   22.3151    0.0000 </r>
       <r>   23.2571    0.0000 </r>
      </set>
      <set comment="kpoint 82">
       <r>   -3.3673    1.0000 </r>
       <r>   -0.6938    1.0000 </r>
       <r>    2.5926    1.0000 </r>
       <r>    3.0121    1.0000 </r>
       <r>    6.5055    0.0000 </r>
       <r>    7.3249    0.0000 </r>
       <r>   13.6747    0.0000 </r>
       <r>   13.6826    0.0000 </r>
       <r>   16.9940    0.0000 </r>
       <r>   17.0194    0.0000 </r>
       <r>   17.2980    0.0000 </r>
       <r>   17.5052    0.0000 </r>
       <r>   20.0356    0.0000 </r>
       <r>   20.5836    0.0000 </r>
       <r>   21.2340    0.0000 </r>
       <r>   23.2898    0.0000 </r>
      </set>
      <set comment="kpoint 83">
       <r>   -2.7212    1.0000 </r>
       <r>   -1.4097    1.0000 </r>
       <r>    2.4686    1.0000 </r>
       <r>    2.5880    1.0000 </r>
       <r>    6.9901    0.0000 </r>
       <r>    7.2592    0.0000 </r>
       <r>   13.4416    0.0000 </r>
       <r>   14.8431    0.0000 </r>
       <r>   15.4579    0.0000 </r>
       <r>   16.8743    0.0000 </r>
       <r>   17.5805    0.0000 </r>
       <r>   19.0643    0.0000 </r>
       <r>   19.2572    0.0000 </r>
       <r>   20.8498    0.0000 </r>
       <r>   22.0966    0.0000 </r>
       <r>   23.4656    0.0000 </r>
      </set>
      <set comment="kpoint 84">
       <r>   -2.2287    1.0000 </r>
       <r>   -1.8480    1.0000 </r>
       <r>    1.8232    1.0000 </r>
       <r>    2.6601    1.0000 </r>
       <r>    7.2695    0.0000 </r>
       <r>    8.5012    0.0000 </r>
       <r>   12.9995    0.0000 </r>
       <r>   13.2288    0.0000 </r>
       <r>   15.2530    0.0000 </r>
       <r>   15.8901    0.0000 </r>
       <r>   18.4839    0.0000 </r>
       <r>   19.2765    0.0000 </r>
       <r>   20.9865    0.0000 </r>
       <r>   21.6437    0.0000 </r>
       <r>   22.2021    0.0000 </r>
       <r>   22.6109    0.0000 </r>
      </set>
      <set comment="kpoint 85">
       <r>   -2.7460    1.0000 </r>
       <r>   -1.3258    1.0000 </r>
       <r>    1.5151    1.0000 </r>
       <r>    2.9822    1.0000 </r>
       <r>    7.6115    0.0000 </r>
       <r>   10.2612    0.0000 </r>
       <r>   11.2908    0.0000 </r>
       <r>   12.8667    0.0000 </r>
       <r>   13.6297    0.0000 </r>
       <r>   15.6695    0.0000 </r>
       <r>   18.6033    0.0000 </r>
       <r>   19.8123    0.0000 </r>
       <r>   21.0592    0.0000 </r>
       <r>   21.5090    0.0000 </r>
       <r>   22.7164    0.0000 </r>
       <r>   23.6634    0.0000 </r>
      </set>
      <set comment="kpoint 86">
       <r>   -3.2818    1.0000 </r>
       <r>   -1.0649    1.0000 </r>
       <r>    1.9476    1.0000 </r>
       <r>    3.4586    1.0000 </r>
       <r>    8.1060    0.0000 </r>
       <r>    9.6141    0.0000 </r>
       <r>   11.8279    0.0000 </r>
       <r>   12.3467    0.0000 </r>
       <r>   12.8245    0.0000 </r>
       <r>   15.5702    0.0000 </r>
       <r>   17.7168    0.0000 </r>
       <r>   18.5580    0.0000 </r>
       <r>   21.0892    0.0000 </r>
       <r>   21.5566    0.0000 </r>
       <r>   22.7852    0.0000 </r>
       <r>   23.7349    0.0000 </r>
      </set>
      <set comment="kpoint 87">
       <r>   -3.7436    1.0000 </r>
       <r>   -0.9726    1.0000 </r>
       <r>    2.9114    1.0000 </r>
       <r>    3.9624    1.0000 </r>
       <r>    8.2594    0.0000 </r>
       <r>    8.7792    0.0000 </r>
       <r>   10.3226    0.0000 </r>
       <r>   12.7773    0.0000 </r>
       <r>   14.3081    0.0000 </r>
       <r>   15.4456    0.0000 </r>
       <r>   16.7026    0.0000 </r>
       <r>   18.0726    0.0000 </r>
       <r>   18.9840    0.0000 </r>
       <r>   20.7692    0.0000 </r>
       <r>   23.1874    0.0000 </r>
       <r>   24.9638    0.0000 </r>
      </set>
      <set comment="kpoint 88">
       <r>   -2.1560    1.0000 </r>
       <r>   -2.0482    1.0000 </r>
       <r>    2.4310    1.0000 </r>
       <r>    2.8854    1.0000 </r>
       <r>    6.4406    0.0000 </r>
       <r>    7.0173    0.0000 </r>
       <r>   14.9562    0.0000 </r>
       <r>   15.1882    0.0000 </r>
       <r>   15.7078    0.0000 </r>
       <r>   15.8911    0.0000 </r>
       <r>   18.7026    0.0000 </r>
       <r>   18.7363    0.0000 </r>
       <r>   18.8068    0.0000 </r>
       <r>   19.3887    0.0000 </r>
       <r>   23.3558    0.0000 </r>
       <r>   23.6797    0.0000 </r>
      </set>
      <set comment="kpoint 89">
       <r>   -2.7204    1.0000 </r>
       <r>   -1.4115    1.0000 </r>
       <r>    2.4685    1.0000 </r>
       <r>    2.5893    1.0000 </r>
       <r>    6.9888    0.0000 </r>
       <r>    7.2607    0.0000 </r>
       <r>   13.4525    0.0000 </r>
       <r>   14.8404    0.0000 </r>
       <r>   15.4477    0.0000 </r>
       <r>   16.8760    0.0000 </r>
       <r>   17.5800    0.0000 </r>
       <r>   19.0644    0.0000 </r>
       <r>   19.2416    0.0000 </r>
       <r>   20.8655    0.0000 </r>
       <r>   22.1077    0.0000 </r>
       <r>   23.4621    0.0000 </r>
      </set>
      <set comment="kpoint 90">
       <r>   -3.2033    1.0000 </r>
       <r>   -0.8386    1.0000 </r>
       <r>    2.0259    1.0000 </r>
       <r>    2.8693    1.0000 </r>
       <r>    7.3994    0.0000 </r>
       <r>    8.7074    0.0000 </r>
       <r>   11.5885    0.0000 </r>
       <r>   13.6798    0.0000 </r>
       <r>   14.8535    0.0000 </r>
       <r>   16.7200    0.0000 </r>
       <r>   17.5883    0.0000 </r>
       <r>   19.3053    0.0000 </r>
       <r>   20.0549    0.0000 </r>
       <r>   20.6173    0.0000 </r>
       <r>   22.5501    0.0000 </r>
       <r>   23.0959    0.0000 </r>
      </set>
      <set comment="kpoint 91">
       <r>   -3.5411    1.0000 </r>
       <r>   -0.7252    1.0000 </r>
       <r>    2.1733    1.0000 </r>
       <r>    3.3720    1.0000 </r>
       <r>    7.8970    0.0000 </r>
       <r>    9.8755    0.0000 </r>
       <r>   10.6790    0.0000 </r>
       <r>   11.9397    0.0000 </r>
       <r>   14.5776    0.0000 </r>
       <r>   16.2469    0.0000 </r>
       <r>   17.2643    0.0000 </r>
       <r>   18.5143    0.0000 </r>
       <r>   19.2744    0.0000 </r>
       <r>   21.8888    0.0000 </r>
       <r>   23.2483    0.0000 </r>
       <r>   23.9737    0.0000 </r>
      </set>
      <set comment="kpoint 92">
       <r>   -3.7433    1.0000 </r>
       <r>   -0.9733    1.0000 </r>
       <r>    2.9109    1.0000 </r>
       <r>    3.9637    1.0000 </r>
       <r>    8.2582    0.0000 </r>
       <r>    8.7798    0.0000 </r>
       <r>   10.3225    0.0000 </r>
       <r>   12.7807    0.0000 </r>
       <r>   14.3050    0.0000 </r>
       <r>   15.4470    0.0000 </r>
       <r>   16.6982    0.0000 </r>
       <r>   18.0756    0.0000 </r>
       <r>   18.9797    0.0000 </r>
       <r>   20.7736    0.0000 </r>
       <r>   23.1888    0.0000 </r>
       <r>   24.9646    0.0000 </r>
      </set>
      <set comment="kpoint 93">
       <r>   -3.3667    1.0000 </r>
       <r>   -0.6966    1.0000 </r>
       <r>    2.5952    1.0000 </r>
       <r>    3.0121    1.0000 </r>
       <r>    6.5047    0.0000 </r>
       <r>    7.3261    0.0000 </r>
       <r>   13.6826    0.0000 </r>
       <r>   13.6928    0.0000 </r>
       <r>   16.9815    0.0000 </r>
       <r>   17.0162    0.0000 </r>
       <r>   17.2861    0.0000 </r>
       <r>   17.4886    0.0000 </r>
       <r>   20.0468    0.0000 </r>
       <r>   20.5955    0.0000 </r>
       <r>   21.2480    0.0000 </r>
       <r>   23.2922    0.0000 </r>
      </set>
      <set comment="kpoint 94">
       <r>   -3.8715    1.0000 </r>
       <r>   -0.0288    1.0000 </r>
       <r>    2.6568    1.0000 </r>
       <r>    3.0438    1.0000 </r>
       <r>    7.0551    0.0000 </r>
       <r>    7.9070    0.0000 </r>
       <r>   11.9348    0.0000 </r>
       <r>   13.3249    0.0000 </r>
       <r>   15.6543    0.0000 </r>
       <r>   16.7857    0.0000 </r>
       <r>   17.3142    0.0000 </r>
       <r>   18.7735    0.0000 </r>
       <r>   19.6273    0.0000 </r>
       <r>   20.3035    0.0000 </r>
       <r>   21.7074    0.0000 </r>
       <r>   22.3085    0.0000 </r>
      </set>
      <set comment="kpoint 95">
       <r>   -4.2003    1.0000 </r>
       <r>    0.2639    1.0000 </r>
       <r>    2.5552    1.0000 </r>
       <r>    3.5249    1.0000 </r>
       <r>    7.7646    0.0000 </r>
       <r>    9.3340    0.0000 </r>
       <r>   10.2582    0.0000 </r>
       <r>   11.9844    0.0000 </r>
       <r>   14.8946    0.0000 </r>
       <r>   16.2438    0.0000 </r>
       <r>   17.3553    0.0000 </r>
       <r>   18.0549    0.0000 </r>
       <r>   19.6596    0.0000 </r>
       <r>   20.2619    0.0000 </r>
       <r>   21.8728    0.0000 </r>
       <r>   23.6154    0.0000 </r>
      </set>
      <set comment="kpoint 96">
       <r>   -4.3438    1.0000 </r>
       <r>   -0.0119    1.0000 </r>
       <r>    3.0114    1.0000 </r>
       <r>    4.1705    1.0000 </r>
       <r>    8.2888    0.0000 </r>
       <r>    8.9701    0.0000 </r>
       <r>   10.3871    0.0000 </r>
       <r>   11.3333    0.0000 </r>
       <r>   14.2085    0.0000 </r>
       <r>   15.3796    0.0000 </r>
       <r>   17.1295    0.0000 </r>
       <r>   17.4550    0.0000 </r>
       <r>   19.6826    0.0000 </r>
       <r>   20.7886    0.0000 </r>
       <r>   22.3174    0.0000 </r>
       <r>   23.2555    0.0000 </r>
      </set>
      <set comment="kpoint 97">
       <r>   -4.4278    1.0000 </r>
       <r>    0.7600    1.0000 </r>
       <r>    3.0912    1.0000 </r>
       <r>    3.3867    1.0000 </r>
       <r>    6.7797    0.0000 </r>
       <r>    8.1496    0.0000 </r>
       <r>   11.9998    0.0000 </r>
       <r>   12.1844    0.0000 </r>
       <r>   15.4148    0.0000 </r>
       <r>   15.4827    0.0000 </r>
       <r>   17.6181    0.0000 </r>
       <r>   18.8468    0.0000 </r>
       <r>   19.3261    0.0000 </r>
       <r>   20.2874    0.0000 </r>
       <r>   21.3446    0.0000 </r>
       <r>   22.2799    0.0000 </r>
      </set>
      <set comment="kpoint 98">
       <r>   -4.8072    1.0000 </r>
       <r>    1.3261    1.0000 </r>
       <r>    3.1248    1.0000 </r>
       <r>    3.8310    1.0000 </r>
       <r>    7.4066    0.0000 </r>
       <r>    8.9258    0.0000 </r>
       <r>   10.5698    0.0000 </r>
       <r>   11.6012    0.0000 </r>
       <r>   14.0342    0.0000 </r>
       <r>   15.5097    0.0000 </r>
       <r>   17.0003    0.0000 </r>
       <r>   18.0565    0.0000 </r>
       <r>   19.3359    0.0000 </r>
       <r>   20.7779    0.0000 </r>
       <r>   20.8544    0.0000 </r>
       <r>   23.0596    0.0000 </r>
      </set>
      <set comment="kpoint 99">
       <r>   -4.9898    1.0000 </r>
       <r>    1.3079    1.0000 </r>
       <r>    3.2695    1.0000 </r>
       <r>    4.5077    1.0000 </r>
       <r>    8.2641    0.0000 </r>
       <r>    9.1501    0.0000 </r>
       <r>   10.2959    0.0000 </r>
       <r>   10.5014    0.0000 </r>
       <r>   13.1284    0.0000 </r>
       <r>   15.3935    0.0000 </r>
       <r>   15.9211    0.0000 </r>
       <r>   17.8191    0.0000 </r>
       <r>   19.3816    0.0000 </r>
       <r>   20.8064    0.0000 </r>
       <r>   21.4692    0.0000 </r>
       <r>   23.4802    0.0000 </r>
      </set>
      <set comment="kpoint 100">
       <r>   -5.2489    1.0000 </r>
       <r>    2.1636    1.0000 </r>
       <r>    3.9162    1.0000 </r>
       <r>    3.9873    1.0000 </r>
       <r>    7.2825    0.0000 </r>
       <r>    9.3071    0.0000 </r>
       <r>   10.4603    0.0000 </r>
       <r>   10.7532    0.0000 </r>
       <r>   13.4942    0.0000 </r>
       <r>   14.2809    0.0000 </r>
       <r>   16.3212    0.0000 </r>
       <r>   17.7414    0.0000 </r>
       <r>   18.6742    0.0000 </r>
       <r>   19.9366    0.0000 </r>
       <r>   22.4907    0.0000 </r>
       <r>   22.9586    0.0000 </r>
      </set>
      <set comment="kpoint 101">
       <r>   -5.4940    1.0000 </r>
       <r>    2.6061    1.0000 </r>
       <r>    3.8290    1.0000 </r>
       <r>    4.8205    1.0000 </r>
       <r>    7.9604    0.0000 </r>
       <r>    9.1876    0.0000 </r>
       <r>    9.9688    0.0000 </r>
       <r>   10.3874    0.0000 </r>
       <r>   12.5803    0.0000 </r>
       <r>   13.9898    0.0000 </r>
       <r>   15.7517    0.0000 </r>
       <r>   17.0693    0.0000 </r>
       <r>   18.2212    0.0000 </r>
       <r>   20.1097    0.0000 </r>
       <r>   22.5722    0.0000 </r>
       <r>   24.2309    0.0000 </r>
      </set>
      <set comment="kpoint 102">
       <r>   -5.8070    1.0000 </r>
       <r>    3.4605    1.0000 </r>
       <r>    4.7526    1.0000 </r>
       <r>    4.9334    1.0000 </r>
       <r>    7.9025    0.0000 </r>
       <r>    8.8737    0.0000 </r>
       <r>    9.4256    0.0000 </r>
       <r>   10.4975    0.0000 </r>
       <r>   12.2214    0.0000 </r>
       <r>   13.4502    0.0000 </r>
       <r>   14.9091    0.0000 </r>
       <r>   16.6650    0.0000 </r>
       <r>   17.8976    0.0000 </r>
       <r>   18.7892    0.0000 </r>
       <r>   23.1987    0.0000 </r>
       <r>   24.8374    0.0000 </r>
      </set>
      <set comment="kpoint 103">
       <r>   -5.7738    1.0000 </r>
       <r>    2.9740    1.0000 </r>
       <r>    5.1269    1.0000 </r>
       <r>    5.1331    1.0000 </r>
       <r>    7.8586    0.0000 </r>
       <r>    8.8931    0.0000 </r>
       <r>    8.8936    0.0000 </r>
       <r>   11.1836    0.0000 </r>
       <r>   12.6797    0.0000 </r>
       <r>   12.6824    0.0000 </r>
       <r>   14.6912    0.0000 </r>
       <r>   16.3043    0.0000 </r>
       <r>   18.9290    0.0000 </r>
       <r>   18.9337    0.0000 </r>
       <r>   23.0838    0.0000 </r>
       <r>   24.9603    0.0000 </r>
      </set>
      <set comment="kpoint 104">
       <r>   -5.8070    1.0000 </r>
       <r>    3.4613    1.0000 </r>
       <r>    4.7572    1.0000 </r>
       <r>    4.9287    1.0000 </r>
       <r>    7.9022    0.0000 </r>
       <r>    8.8691    0.0000 </r>
       <r>    9.4264    0.0000 </r>
       <r>   10.4980    0.0000 </r>
       <r>   12.2228    0.0000 </r>
       <r>   13.4510    0.0000 </r>
       <r>   14.9098    0.0000 </r>
       <r>   16.6645    0.0000 </r>
       <r>   17.8950    0.0000 </r>
       <r>   18.7925    0.0000 </r>
       <r>   23.1994    0.0000 </r>
       <r>   24.8455    0.0000 </r>
      </set>
      <set comment="kpoint 105">
       <r>   -5.6297    1.0000 </r>
       <r>    3.3102    1.0000 </r>
       <r>    4.3217    1.0000 </r>
       <r>    4.3305    1.0000 </r>
       <r>    7.2305    0.0000 </r>
       <r>    9.7029    0.0000 </r>
       <r>   10.1718    0.0000 </r>
       <r>   10.1721    0.0000 </r>
       <r>   12.3052    0.0000 </r>
       <r>   13.9668    0.0000 </r>
       <r>   15.5648    0.0000 </r>
       <r>   17.7799    0.0000 </r>
       <r>   17.7879    0.0000 </r>
       <r>   18.3795    0.0000 </r>
       <r>   24.3213    0.0000 </r>
       <r>   24.4963    0.0000 </r>
      </set>
      <set comment="kpoint 106">
       <r>   -5.2491    1.0000 </r>
       <r>    2.1705    1.0000 </r>
       <r>    3.9041    1.0000 </r>
       <r>    3.9922    1.0000 </r>
       <r>    7.2832    0.0000 </r>
       <r>    9.3070    0.0000 </r>
       <r>   10.4534    0.0000 </r>
       <r>   10.7490    0.0000 </r>
       <r>   13.5013    0.0000 </r>
       <r>   14.2876    0.0000 </r>
       <r>   16.3241    0.0000 </r>
       <r>   17.7339    0.0000 </r>
       <r>   18.6696    0.0000 </r>
       <r>   19.9431    0.0000 </r>
       <r>   22.5055    0.0000 </r>
       <r>   22.9649    0.0000 </r>
      </set>
      <set comment="kpoint 107">
       <r>   -4.6882    1.0000 </r>
       <r>    0.8198    1.0000 </r>
       <r>    3.3787    1.0000 </r>
       <r>    3.7978    1.0000 </r>
       <r>    7.5187    0.0000 </r>
       <r>    9.6627    0.0000 </r>
       <r>   10.2518    0.0000 </r>
       <r>   10.8320    0.0000 </r>
       <r>   15.0940    0.0000 </r>
       <r>   15.2203    0.0000 </r>
       <r>   16.0914    0.0000 </r>
       <r>   18.8092    0.0000 </r>
       <r>   18.9606    0.0000 </r>
       <r>   20.5966    0.0000 </r>
       <r>   21.5350    0.0000 </r>
       <r>   22.8058    0.0000 </r>
      </set>
      <set comment="kpoint 108">
       <r>   -4.0215    1.0000 </r>
       <r>   -0.3969    1.0000 </r>
       <r>    2.9092    1.0000 </r>
       <r>    3.7653    1.0000 </r>
       <r>    7.5579    0.0000 </r>
       <r>   10.0234    0.0000 </r>
       <r>   10.5852    0.0000 </r>
       <r>   10.8654    0.0000 </r>
       <r>   15.4911    0.0000 </r>
       <r>   16.4098    0.0000 </r>
       <r>   17.0441    0.0000 </r>
       <r>   17.2104    0.0000 </r>
       <r>   18.2522    0.0000 </r>
       <r>   21.6034    0.0000 </r>
       <r>   23.2071    0.0000 </r>
       <r>   23.3824    0.0000 </r>
      </set>
      <set comment="kpoint 109">
       <r>   -3.5508    1.0000 </r>
       <r>   -1.0921    1.0000 </r>
       <r>    2.5797    1.0000 </r>
       <r>    3.8938    1.0000 </r>
       <r>    7.6539    0.0000 </r>
       <r>    9.8986    0.0000 </r>
       <r>   10.2993    0.0000 </r>
       <r>   12.4737    0.0000 </r>
       <r>   14.6529    0.0000 </r>
       <r>   15.1030    0.0000 </r>
       <r>   17.0466    0.0000 </r>
       <r>   18.3093    0.0000 </r>
       <r>   18.9681    0.0000 </r>
       <r>   21.1569    0.0000 </r>
       <r>   24.1818    0.0000 </r>
       <r>   24.4335    0.0000 </r>
      </set>
      <set comment="kpoint 110">
       <r>   -3.8285    1.0000 </r>
       <r>   -0.6907    1.0000 </r>
       <r>    2.4314    1.0000 </r>
       <r>    4.1671    1.0000 </r>
       <r>    7.8983    0.0000 </r>
       <r>    9.8925    0.0000 </r>
       <r>   10.0766    0.0000 </r>
       <r>   13.2905    0.0000 </r>
       <r>   13.3954    0.0000 </r>
       <r>   14.2166    0.0000 </r>
       <r>   16.9289    0.0000 </r>
       <r>   19.2988    0.0000 </r>
       <r>   20.2784    0.0000 </r>
       <r>   20.4919    0.0000 </r>
       <r>   21.9283    0.0000 </r>
       <r>   24.2541    0.0000 </r>
      </set>
      <set comment="kpoint 111">
       <r>   -4.4862    1.0000 </r>
       <r>    0.4039    1.0000 </r>
       <r>    2.5167    1.0000 </r>
       <r>    4.5480    1.0000 </r>
       <r>    8.2548    0.0000 </r>
       <r>    9.8319    0.0000 </r>
       <r>    9.9478    0.0000 </r>
       <r>   11.9063    0.0000 </r>
       <r>   12.1604    0.0000 </r>
       <r>   15.6540    0.0000 </r>
       <r>   17.3468    0.0000 </r>
       <r>   17.6207    0.0000 </r>
       <r>   19.4302    0.0000 </r>
       <r>   21.4564    0.0000 </r>
       <r>   22.1238    0.0000 </r>
       <r>   23.0613    0.0000 </r>
      </set>
      <set comment="kpoint 112">
       <r>   -5.0917    1.0000 </r>
       <r>    1.5748    1.0000 </r>
       <r>    2.9982    1.0000 </r>
       <r>    4.9551    1.0000 </r>
       <r>    8.5705    0.0000 </r>
       <r>    9.3475    0.0000 </r>
       <r>    9.6418    0.0000 </r>
       <r>   11.2342    0.0000 </r>
       <r>   11.7315    0.0000 </r>
       <r>   15.4844    0.0000 </r>
       <r>   16.1682    0.0000 </r>
       <r>   17.2292    0.0000 </r>
       <r>   19.2580    0.0000 </r>
       <r>   20.5131    0.0000 </r>
       <r>   21.9908    0.0000 </r>
       <r>   24.0051    0.0000 </r>
      </set>
      <set comment="kpoint 113">
       <r>   -5.5317    1.0000 </r>
       <r>    2.3794    1.0000 </r>
       <r>    4.0968    1.0000 </r>
       <r>    5.2179    1.0000 </r>
       <r>    8.2870    0.0000 </r>
       <r>    8.8729    0.0000 </r>
       <r>    9.2218    0.0000 </r>
       <r>   11.3794    0.0000 </r>
       <r>   12.0196    0.0000 </r>
       <r>   13.7553    0.0000 </r>
       <r>   15.2425    0.0000 </r>
       <r>   16.8621    0.0000 </r>
       <r>   18.6463    0.0000 </r>
       <r>   20.4313    0.0000 </r>
       <r>   22.5876    0.0000 </r>
       <r>   23.8705    0.0000 </r>
      </set>
      <set comment="kpoint 114">
       <r>   -5.9126    1.0000 </r>
       <r>    3.8371    1.0000 </r>
       <r>    4.6551    1.0000 </r>
       <r>    5.4850    1.0000 </r>
       <r>    8.4732    0.0000 </r>
       <r>    8.5143    0.0000 </r>
       <r>    8.6385    0.0000 </r>
       <r>   10.4823    0.0000 </r>
       <r>   12.3541    0.0000 </r>
       <r>   13.1953    0.0000 </r>
       <r>   14.5927    0.0000 </r>
       <r>   16.6463    0.0000 </r>
       <r>   17.3531    0.0000 </r>
       <r>   18.7651    0.0000 </r>
       <r>   22.5801    0.0000 </r>
       <r>   25.0027    0.0000 </r>
      </set>
      <set comment="kpoint 115">
       <r>   -5.8070    1.0000 </r>
       <r>    3.4719    1.0000 </r>
       <r>    4.7476    1.0000 </r>
       <r>    4.9263    1.0000 </r>
       <r>    7.9002    0.0000 </r>
       <r>    8.8655    0.0000 </r>
       <r>    9.4254    0.0000 </r>
       <r>   10.5012    0.0000 </r>
       <r>   12.2256    0.0000 </r>
       <r>   13.4530    0.0000 </r>
       <r>   14.9117    0.0000 </r>
       <r>   16.6544    0.0000 </r>
       <r>   17.9026    0.0000 </r>
       <r>   18.7948    0.0000 </r>
       <r>   23.1986    0.0000 </r>
       <r>   24.8551    0.0000 </r>
      </set>
      <set comment="kpoint 116">
       <r>   -5.4940    1.0000 </r>
       <r>    2.6150    1.0000 </r>
       <r>    3.8286    1.0000 </r>
       <r>    4.8103    1.0000 </r>
       <r>    7.9605    0.0000 </r>
       <r>    9.1815    0.0000 </r>
       <r>    9.9680    0.0000 </r>
       <r>   10.3848    0.0000 </r>
       <r>   12.5812    0.0000 </r>
       <r>   14.0000    0.0000 </r>
       <r>   15.7556    0.0000 </r>
       <r>   17.0617    0.0000 </r>
       <r>   18.2198    0.0000 </r>
       <r>   20.1170    0.0000 </r>
       <r>   22.5896    0.0000 </r>
       <r>   24.2309    0.0000 </r>
      </set>
      <set comment="kpoint 117">
       <r>   -4.9900    1.0000 </r>
       <r>    1.3120    1.0000 </r>
       <r>    3.2730    1.0000 </r>
       <r>    4.4984    1.0000 </r>
       <r>    8.2659    0.0000 </r>
       <r>    9.1456    0.0000 </r>
       <r>   10.2956    0.0000 </r>
       <r>   10.4981    0.0000 </r>
       <r>   13.1219    0.0000 </r>
       <r>   15.4079    0.0000 </r>
       <r>   15.9269    0.0000 </r>
       <r>   17.8160    0.0000 </r>
       <r>   19.3793    0.0000 </r>
       <r>   20.8167    0.0000 </r>
       <r>   21.4712    0.0000 </r>
       <r>   23.4767    0.0000 </r>
      </set>
      <set comment="kpoint 118">
       <r>   -4.3440    1.0000 </r>
       <r>   -0.0098    1.0000 </r>
       <r>    3.0157    1.0000 </r>
       <r>    4.1632    1.0000 </r>
       <r>    8.2903    0.0000 </r>
       <r>    8.9647    0.0000 </r>
       <r>   10.3914    0.0000 </r>
       <r>   11.3281    0.0000 </r>
       <r>   14.1991    0.0000 </r>
       <r>   15.3853    0.0000 </r>
       <r>   17.1458    0.0000 </r>
       <r>   17.4653    0.0000 </r>
       <r>   19.6711    0.0000 </r>
       <r>   20.7841    0.0000 </r>
       <r>   22.3133    0.0000 </r>
       <r>   23.2595    0.0000 </r>
      </set>
      <set comment="kpoint 119">
       <r>   -3.7434    1.0000 </r>
       <r>   -0.9724    1.0000 </r>
       <r>    2.9141    1.0000 </r>
       <r>    3.9591    1.0000 </r>
       <r>    8.2581    0.0000 </r>
       <r>    8.7749    0.0000 </r>
       <r>   10.3274    0.0000 </r>
       <r>   12.7765    0.0000 </r>
       <r>   14.3159    0.0000 </r>
       <r>   15.4391    0.0000 </r>
       <r>   16.7003    0.0000 </r>
       <r>   18.0644    0.0000 </r>
       <r>   18.9959    0.0000 </r>
       <r>   20.7697    0.0000 </r>
       <r>   23.1856    0.0000 </r>
       <r>   24.9637    0.0000 </r>
      </set>
      <set comment="kpoint 120">
       <r>   -3.7433    1.0000 </r>
       <r>   -0.9730    1.0000 </r>
       <r>    2.9127    1.0000 </r>
       <r>    3.9611    1.0000 </r>
       <r>    8.2560    0.0000 </r>
       <r>    8.7769    0.0000 </r>
       <r>   10.3277    0.0000 </r>
       <r>   12.7902    0.0000 </r>
       <r>   14.3041    0.0000 </r>
       <r>   15.4417    0.0000 </r>
       <r>   16.6923    0.0000 </r>
       <r>   18.0675    0.0000 </r>
       <r>   18.9790    0.0000 </r>
       <r>   20.7875    0.0000 </r>
       <r>   23.1885    0.0000 </r>
       <r>   24.9646    0.0000 </r>
      </set>
      <set comment="kpoint 121">
       <r>   -4.3438    1.0000 </r>
       <r>   -0.0116    1.0000 </r>
       <r>    3.0124    1.0000 </r>
       <r>    4.1686    1.0000 </r>
       <r>    8.2856    0.0000 </r>
       <r>    8.9689    0.0000 </r>
       <r>   10.3921    0.0000 </r>
       <r>   11.3416    0.0000 </r>
       <r>   14.1998    0.0000 </r>
       <r>   15.3796    0.0000 </r>
       <r>   17.1298    0.0000 </r>
       <r>   17.4549    0.0000 </r>
       <r>   19.6727    0.0000 </r>
       <r>   20.7905    0.0000 </r>
       <r>   22.3185    0.0000 </r>
       <r>   23.2637    0.0000 </r>
      </set>
      <set comment="kpoint 122">
       <r>   -4.9899    1.0000 </r>
       <r>    1.3080    1.0000 </r>
       <r>    3.2699    1.0000 </r>
       <r>    4.5065    1.0000 </r>
       <r>    8.2616    0.0000 </r>
       <r>    9.1511    0.0000 </r>
       <r>   10.2996    0.0000 </r>
       <r>   10.5051    0.0000 </r>
       <r>   13.1227    0.0000 </r>
       <r>   15.3937    0.0000 </r>
       <r>   15.9216    0.0000 </r>
       <r>   17.8187    0.0000 </r>
       <r>   19.3813    0.0000 </r>
       <r>   20.8070    0.0000 </r>
       <r>   21.4651    0.0000 </r>
       <r>   23.4720    0.0000 </r>
      </set>
      <set comment="kpoint 123">
       <r>   -5.4940    1.0000 </r>
       <r>    2.6062    1.0000 </r>
       <r>    3.8289    1.0000 </r>
       <r>    4.8205    1.0000 </r>
       <r>    7.9602    0.0000 </r>
       <r>    9.1875    0.0000 </r>
       <r>    9.9690    0.0000 </r>
       <r>   10.3874    0.0000 </r>
       <r>   12.5804    0.0000 </r>
       <r>   13.9897    0.0000 </r>
       <r>   15.7518    0.0000 </r>
       <r>   17.0692    0.0000 </r>
       <r>   18.2212    0.0000 </r>
       <r>   20.1095    0.0000 </r>
       <r>   22.5722    0.0000 </r>
       <r>   24.2313    0.0000 </r>
      </set>
      <set comment="kpoint 124">
       <r>   -5.7738    1.0000 </r>
       <r>    2.9861    1.0000 </r>
       <r>    5.1187    1.0000 </r>
       <r>    5.1276    1.0000 </r>
       <r>    7.8500    0.0000 </r>
       <r>    8.8879    0.0000 </r>
       <r>    8.8953    0.0000 </r>
       <r>   11.1901    0.0000 </r>
       <r>   12.6834    0.0000 </r>
       <r>   12.6850    0.0000 </r>
       <r>   14.6929    0.0000 </r>
       <r>   16.2966    0.0000 </r>
       <r>   18.9335    0.0000 </r>
       <r>   18.9392    0.0000 </r>
       <r>   23.0821    0.0000 </r>
       <r>   24.9782    0.0000 </r>
      </set>
      <set comment="kpoint 125">
       <r>   -5.5318    1.0000 </r>
       <r>    2.3914    1.0000 </r>
       <r>    4.0935    1.0000 </r>
       <r>    5.2067    1.0000 </r>
       <r>    8.2782    0.0000 </r>
       <r>    8.8746    0.0000 </r>
       <r>    9.2163    0.0000 </r>
       <r>   11.3812    0.0000 </r>
       <r>   12.0202    0.0000 </r>
       <r>   13.7666    0.0000 </r>
       <r>   15.2442    0.0000 </r>
       <r>   16.8559    0.0000 </r>
       <r>   18.6482    0.0000 </r>
       <r>   20.4389    0.0000 </r>
       <r>   22.6054    0.0000 </r>
       <r>   23.8690    0.0000 </r>
      </set>
      <set comment="kpoint 126">
       <r>   -5.0918    1.0000 </r>
       <r>    1.5835    1.0000 </r>
       <r>    2.9978    1.0000 </r>
       <r>    4.9446    1.0000 </r>
       <r>    8.5626    0.0000 </r>
       <r>    9.3520    0.0000 </r>
       <r>    9.6365    0.0000 </r>
       <r>   11.2331    0.0000 </r>
       <r>   11.7286    0.0000 </r>
       <r>   15.4988    0.0000 </r>
       <r>   16.1744    0.0000 </r>
       <r>   17.2231    0.0000 </r>
       <r>   19.2569    0.0000 </r>
       <r>   20.5286    0.0000 </r>
       <r>   21.9966    0.0000 </r>
       <r>   24.0060    0.0000 </r>
      </set>
      <set comment="kpoint 127">
       <r>   -4.4864    1.0000 </r>
       <r>    0.4076    1.0000 </r>
       <r>    2.5209    1.0000 </r>
       <r>    4.5384    1.0000 </r>
       <r>    8.2471    0.0000 </r>
       <r>    9.8399    0.0000 </r>
       <r>    9.9466    0.0000 </r>
       <r>   11.9008    0.0000 </r>
       <r>   12.1531    0.0000 </r>
       <r>   15.6619    0.0000 </r>
       <r>   17.3586    0.0000 </r>
       <r>   17.6306    0.0000 </r>
       <r>   19.4288    0.0000 </r>
       <r>   21.4547    0.0000 </r>
       <r>   22.1173    0.0000 </r>
       <r>   23.0642    0.0000 </r>
      </set>
      <set comment="kpoint 128">
       <r>   -3.8289    1.0000 </r>
       <r>   -0.6891    1.0000 </r>
       <r>    2.4376    1.0000 </r>
       <r>    4.1582    1.0000 </r>
       <r>    7.8904    0.0000 </r>
       <r>    9.8937    0.0000 </r>
       <r>   10.0851    0.0000 </r>
       <r>   13.2827    0.0000 </r>
       <r>   13.3869    0.0000 </r>
       <r>   14.2277    0.0000 </r>
       <r>   16.9346    0.0000 </r>
       <r>   19.3168    0.0000 </r>
       <r>   20.2681    0.0000 </r>
       <r>   20.4840    0.0000 </r>
       <r>   21.9250    0.0000 </r>
       <r>   24.2588    0.0000 </r>
      </set>
      <set comment="kpoint 129">
       <r>   -3.5510    1.0000 </r>
       <r>   -1.0918    1.0000 </r>
       <r>    2.5870    1.0000 </r>
       <r>    3.8853    1.0000 </r>
       <r>    7.6459    0.0000 </r>
       <r>    9.9011    0.0000 </r>
       <r>   10.3072    0.0000 </r>
       <r>   12.4854    0.0000 </r>
       <r>   14.6448    0.0000 </r>
       <r>   15.0952    0.0000 </r>
       <r>   17.0511    0.0000 </r>
       <r>   18.2983    0.0000 </r>
       <r>   18.9613    0.0000 </r>
       <r>   21.1756    0.0000 </r>
       <r>   24.1773    0.0000 </r>
       <r>   24.4318    0.0000 </r>
      </set>
      <set comment="kpoint 130">
       <r>   -4.0215    1.0000 </r>
       <r>   -0.3979    1.0000 </r>
       <r>    2.9174    1.0000 </r>
       <r>    3.7571    1.0000 </r>
       <r>    7.5501    0.0000 </r>
       <r>   10.0266    0.0000 </r>
       <r>   10.5926    0.0000 </r>
       <r>   10.8770    0.0000 </r>
       <r>   15.4856    0.0000 </r>
       <r>   16.4037    0.0000 </r>
       <r>   17.0395    0.0000 </r>
       <r>   17.1991    0.0000 </r>
       <r>   18.2509    0.0000 </r>
       <r>   21.6104    0.0000 </r>
       <r>   23.2136    0.0000 </r>
       <r>   23.3918    0.0000 </r>
      </set>
      <set comment="kpoint 131">
       <r>   -4.6882    1.0000 </r>
       <r>    0.8178    1.0000 </r>
       <r>    3.3884    1.0000 </r>
       <r>    3.7896    1.0000 </r>
       <r>    7.5127    0.0000 </r>
       <r>    9.6695    0.0000 </r>
       <r>   10.2577    0.0000 </r>
       <r>   10.8382    0.0000 </r>
       <r>   15.0866    0.0000 </r>
       <r>   15.2136    0.0000 </r>
       <r>   16.0887    0.0000 </r>
       <r>   18.8094    0.0000 </r>
       <r>   18.9587    0.0000 </r>
       <r>   20.5960    0.0000 </r>
       <r>   21.5337    0.0000 </r>
       <r>   22.7956    0.0000 </r>
      </set>
      <set comment="kpoint 132">
       <r>   -5.2491    1.0000 </r>
       <r>    2.1674    1.0000 </r>
       <r>    3.9156    1.0000 </r>
       <r>    3.9838    1.0000 </r>
       <r>    7.2816    0.0000 </r>
       <r>    9.3090    0.0000 </r>
       <r>   10.4582    0.0000 </r>
       <r>   10.7521    0.0000 </r>
       <r>   13.4963    0.0000 </r>
       <r>   14.2836    0.0000 </r>
       <r>   16.3213    0.0000 </r>
       <r>   17.7359    0.0000 </r>
       <r>   18.6779    0.0000 </r>
       <r>   19.9351    0.0000 </r>
       <r>   22.4939    0.0000 </r>
       <r>   22.9614    0.0000 </r>
      </set>
      <set comment="kpoint 133">
       <r>   -5.3613    1.0000 </r>
       <r>    1.8740    1.0000 </r>
       <r>    4.4380    1.0000 </r>
       <r>    4.5496    1.0000 </r>
       <r>    8.0041    0.0000 </r>
       <r>    8.8773    0.0000 </r>
       <r>    9.7715    0.0000 </r>
       <r>   10.9542    0.0000 </r>
       <r>   13.2772    0.0000 </r>
       <r>   13.6404    0.0000 </r>
       <r>   15.1167    0.0000 </r>
       <r>   17.3792    0.0000 </r>
       <r>   19.3397    0.0000 </r>
       <r>   20.5416    0.0000 </r>
       <r>   22.5696    0.0000 </r>
       <r>   23.1053    0.0000 </r>
      </set>
      <set comment="kpoint 134">
       <r>   -4.9897    1.0000 </r>
       <r>    1.3157    1.0000 </r>
       <r>    3.2689    1.0000 </r>
       <r>    4.4978    1.0000 </r>
       <r>    8.2627    0.0000 </r>
       <r>    9.1455    0.0000 </r>
       <r>   10.2948    0.0000 </r>
       <r>   10.4984    0.0000 </r>
       <r>   13.1256    0.0000 </r>
       <r>   15.4057    0.0000 </r>
       <r>   15.9238    0.0000 </r>
       <r>   17.8183    0.0000 </r>
       <r>   19.3828    0.0000 </r>
       <r>   20.8181    0.0000 </r>
       <r>   21.4745    0.0000 </r>
       <r>   23.4828    0.0000 </r>
      </set>
      <set comment="kpoint 135">
       <r>   -4.4388    1.0000 </r>
       <r>    0.5784    1.0000 </r>
       <r>    2.3152    1.0000 </r>
       <r>    4.1485    1.0000 </r>
       <r>    8.8812    0.0000 </r>
       <r>    9.0094    0.0000 </r>
       <r>   10.2592    0.0000 </r>
       <r>   11.3113    0.0000 </r>
       <r>   13.1296    0.0000 </r>
       <r>   16.0020    0.0000 </r>
       <r>   17.4637    0.0000 </r>
       <r>   18.0406    0.0000 </r>
       <r>   19.0482    0.0000 </r>
       <r>   21.3268    0.0000 </r>
       <r>   21.6499    0.0000 </r>
       <r>   24.1673    0.0000 </r>
      </set>
      <set comment="kpoint 136">
       <r>   -3.7763    1.0000 </r>
       <r>   -0.3893    1.0000 </r>
       <r>    1.9437    1.0000 </r>
       <r>    3.7420    1.0000 </r>
       <r>    8.4553    0.0000 </r>
       <r>    9.4226    0.0000 </r>
       <r>   11.1309    0.0000 </r>
       <r>   11.7689    0.0000 </r>
       <r>   14.0420    0.0000 </r>
       <r>   14.3193    0.0000 </r>
       <r>   17.9445    0.0000 </r>
       <r>   19.5505    0.0000 </r>
       <r>   20.0820    0.0000 </r>
       <r>   20.6029    0.0000 </r>
       <r>   22.9733    0.0000 </r>
       <r>   23.2696    0.0000 </r>
      </set>
      <set comment="kpoint 137">
       <r>   -3.2818    1.0000 </r>
       <r>   -1.0642    1.0000 </r>
       <r>    1.9524    1.0000 </r>
       <r>    3.4522    1.0000 </r>
       <r>    8.1014    0.0000 </r>
       <r>    9.6096    0.0000 </r>
       <r>   11.8378    0.0000 </r>
       <r>   12.3518    0.0000 </r>
       <r>   12.8313    0.0000 </r>
       <r>   15.5547    0.0000 </r>
       <r>   17.7126    0.0000 </r>
       <r>   18.5512    0.0000 </r>
       <r>   21.0973    0.0000 </r>
       <r>   21.5691    0.0000 </r>
       <r>   22.7856    0.0000 </r>
       <r>   23.7424    0.0000 </r>
      </set>
      <set comment="kpoint 138">
       <r>   -3.5417    1.0000 </r>
       <r>   -0.7236    1.0000 </r>
       <r>    2.1786    1.0000 </r>
       <r>    3.3645    1.0000 </r>
       <r>    7.8927    0.0000 </r>
       <r>    9.8721    0.0000 </r>
       <r>   10.6857    0.0000 </r>
       <r>   11.9507    0.0000 </r>
       <r>   14.5803    0.0000 </r>
       <r>   16.2343    0.0000 </r>
       <r>   17.2535    0.0000 </r>
       <r>   18.5119    0.0000 </r>
       <r>   19.2799    0.0000 </r>
       <r>   21.8915    0.0000 </r>
       <r>   23.2639    0.0000 </r>
       <r>   23.9752    0.0000 </r>
      </set>
      <set comment="kpoint 139">
       <r>   -4.2009    1.0000 </r>
       <r>    0.2664    1.0000 </r>
       <r>    2.5590    1.0000 </r>
       <r>    3.5176    1.0000 </r>
       <r>    7.7619    0.0000 </r>
       <r>    9.3401    0.0000 </r>
       <r>   10.2536    0.0000 </r>
       <r>   11.9934    0.0000 </r>
       <r>   14.8851    0.0000 </r>
       <r>   16.2457    0.0000 </r>
       <r>   17.3606    0.0000 </r>
       <r>   18.0539    0.0000 </r>
       <r>   19.6474    0.0000 </r>
       <r>   20.2674    0.0000 </r>
       <r>   21.8703    0.0000 </r>
       <r>   23.6155    0.0000 </r>
      </set>
      <set comment="kpoint 140">
       <r>   -4.8076    1.0000 </r>
       <r>    1.3305    1.0000 </r>
       <r>    3.1238    1.0000 </r>
       <r>    3.8267    1.0000 </r>
       <r>    7.4076    0.0000 </r>
       <r>    8.9267    0.0000 </r>
       <r>   10.5654    0.0000 </r>
       <r>   11.6015    0.0000 </r>
       <r>   14.0349    0.0000 </r>
       <r>   15.5156    0.0000 </r>
       <r>   17.0027    0.0000 </r>
       <r>   18.0519    0.0000 </r>
       <r>   19.3325    0.0000 </r>
       <r>   20.7779    0.0000 </r>
       <r>   20.8595    0.0000 </r>
       <r>   23.0626    0.0000 </r>
      </set>
      <set comment="kpoint 141">
       <r>   -4.6878    1.0000 </r>
       <r>    0.8239    1.0000 </r>
       <r>    3.3777    1.0000 </r>
       <r>    3.7931    1.0000 </r>
       <r>    7.5150    0.0000 </r>
       <r>    9.6664    0.0000 </r>
       <r>   10.2480    0.0000 </r>
       <r>   10.8294    0.0000 </r>
       <r>   15.0954    0.0000 </r>
       <r>   15.2221    0.0000 </r>
       <r>   16.0889    0.0000 </r>
       <r>   18.8118    0.0000 </r>
       <r>   18.9656    0.0000 </r>
       <r>   20.5988    0.0000 </r>
       <r>   21.5406    0.0000 </r>
       <r>   22.8115    0.0000 </r>
      </set>
      <set comment="kpoint 142">
       <r>   -4.2004    1.0000 </r>
       <r>    0.2703    1.0000 </r>
       <r>    2.5532    1.0000 </r>
       <r>    3.5188    1.0000 </r>
       <r>    7.7642    0.0000 </r>
       <r>    9.3348    0.0000 </r>
       <r>   10.2479    0.0000 </r>
       <r>   11.9831    0.0000 </r>
       <r>   14.8926    0.0000 </r>
       <r>   16.2526    0.0000 </r>
       <r>   17.3691    0.0000 </r>
       <r>   18.0550    0.0000 </r>
       <r>   19.6559    0.0000 </r>
       <r>   20.2636    0.0000 </r>
       <r>   21.8767    0.0000 </r>
       <r>   23.6143    0.0000 </r>
      </set>
      <set comment="kpoint 143">
       <r>   -3.5681    1.0000 </r>
       <r>   -0.4111    1.0000 </r>
       <r>    1.9141    1.0000 </r>
       <r>    3.0629    1.0000 </r>
       <r>    8.6936    0.0000 </r>
       <r>    9.3393    0.0000 </r>
       <r>    9.8783    0.0000 </r>
       <r>   13.2235    0.0000 </r>
       <r>   14.5049    0.0000 </r>
       <r>   15.0588    0.0000 </r>
       <r>   19.0685    0.0000 </r>
       <r>   19.3912    0.0000 </r>
       <r>   19.7227    0.0000 </r>
       <r>   20.1251    0.0000 </r>
       <r>   22.1738    0.0000 </r>
       <r>   23.5204    0.0000 </r>
      </set>
      <set comment="kpoint 144">
       <r>   -2.9465    1.0000 </r>
       <r>   -1.1015    1.0000 </r>
       <r>    1.6404    1.0000 </r>
       <r>    2.7489    1.0000 </r>
       <r>    9.0649    0.0000 </r>
       <r>    9.4119    0.0000 </r>
       <r>   10.6679    0.0000 </r>
       <r>   12.5243    0.0000 </r>
       <r>   13.6809    0.0000 </r>
       <r>   16.1807    0.0000 </r>
       <r>   18.0595    0.0000 </r>
       <r>   19.5286    0.0000 </r>
       <r>   20.9533    0.0000 </r>
       <r>   21.7998    0.0000 </r>
       <r>   22.4461    0.0000 </r>
       <r>   23.9998    0.0000 </r>
      </set>
      <set comment="kpoint 145">
       <r>   -2.9468    1.0000 </r>
       <r>   -1.1017    1.0000 </r>
       <r>    1.6401    1.0000 </r>
       <r>    2.7497    1.0000 </r>
       <r>    9.0599    0.0000 </r>
       <r>    9.4173    0.0000 </r>
       <r>   10.6758    0.0000 </r>
       <r>   12.5156    0.0000 </r>
       <r>   13.6814    0.0000 </r>
       <r>   16.1829    0.0000 </r>
       <r>   18.0571    0.0000 </r>
       <r>   19.5292    0.0000 </r>
       <r>   20.9554    0.0000 </r>
       <r>   21.7897    0.0000 </r>
       <r>   22.4450    0.0000 </r>
       <r>   24.0109    0.0000 </r>
      </set>
      <set comment="kpoint 146">
       <r>   -3.5687    1.0000 </r>
       <r>   -0.4125    1.0000 </r>
       <r>    1.9138    1.0000 </r>
       <r>    3.0653    1.0000 </r>
       <r>    8.6935    0.0000 </r>
       <r>    9.3420    0.0000 </r>
       <r>    9.8840    0.0000 </r>
       <r>   13.2247    0.0000 </r>
       <r>   14.4958    0.0000 </r>
       <r>   15.0616    0.0000 </r>
       <r>   19.0705    0.0000 </r>
       <r>   19.3855    0.0000 </r>
       <r>   19.7209    0.0000 </r>
       <r>   20.1211    0.0000 </r>
       <r>   22.1732    0.0000 </r>
       <r>   23.5184    0.0000 </r>
      </set>
      <set comment="kpoint 147">
       <r>   -4.2009    1.0000 </r>
       <r>    0.2673    1.0000 </r>
       <r>    2.5534    1.0000 </r>
       <r>    3.5228    1.0000 </r>
       <r>    7.7687    0.0000 </r>
       <r>    9.3313    0.0000 </r>
       <r>   10.2543    0.0000 </r>
       <r>   11.9842    0.0000 </r>
       <r>   14.8959    0.0000 </r>
       <r>   16.2470    0.0000 </r>
       <r>   17.3603    0.0000 </r>
       <r>   18.0554    0.0000 </r>
       <r>   19.6564    0.0000 </r>
       <r>   20.2603    0.0000 </r>
       <r>   21.8721    0.0000 </r>
       <r>   23.6136    0.0000 </r>
      </set>
      <set comment="kpoint 148">
       <r>   -3.7803    1.0000 </r>
       <r>   -0.2458    1.0000 </r>
       <r>    2.3689    1.0000 </r>
       <r>    3.3260    1.0000 </r>
       <r>    6.9793    0.0000 </r>
       <r>    8.8901    0.0000 </r>
       <r>   11.8276    0.0000 </r>
       <r>   12.0452    0.0000 </r>
       <r>   16.5687    0.0000 </r>
       <r>   16.8290    0.0000 </r>
       <r>   17.2090    0.0000 </r>
       <r>   17.3381    0.0000 </r>
       <r>   19.2023    0.0000 </r>
       <r>   21.1220    0.0000 </r>
       <r>   22.2438    0.0000 </r>
       <r>   23.8497    0.0000 </r>
      </set>
      <set comment="kpoint 149">
       <r>   -3.2036    1.0000 </r>
       <r>   -0.8349    1.0000 </r>
       <r>    2.0241    1.0000 </r>
       <r>    2.8666    1.0000 </r>
       <r>    7.3981    0.0000 </r>
       <r>    8.7093    0.0000 </r>
       <r>   11.5774    0.0000 </r>
       <r>   13.6781    0.0000 </r>
       <r>   14.8664    0.0000 </r>
       <r>   16.7189    0.0000 </r>
       <r>   17.5863    0.0000 </r>
       <r>   19.3152    0.0000 </r>
       <r>   20.0578    0.0000 </r>
       <r>   20.6157    0.0000 </r>
       <r>   22.5389    0.0000 </r>
       <r>   23.0981    0.0000 </r>
      </set>
      <set comment="kpoint 150">
       <r>   -2.5410    1.0000 </r>
       <r>   -1.4530    1.0000 </r>
       <r>    1.8674    1.0000 </r>
       <r>    2.2417    1.0000 </r>
       <r>    8.6144    0.0000 </r>
       <r>    8.8210    0.0000 </r>
       <r>   11.1737    0.0000 </r>
       <r>   12.7590    0.0000 </r>
       <r>   15.1656    0.0000 </r>
       <r>   16.6082    0.0000 </r>
       <r>   17.9392    0.0000 </r>
       <r>   19.2567    0.0000 </r>
       <r>   21.0992    0.0000 </r>
       <r>   21.8601    0.0000 </r>
       <r>   22.4450    0.0000 </r>
       <r>   23.6061    0.0000 </r>
      </set>
      <set comment="kpoint 151">
       <r>   -2.3468    1.0000 </r>
       <r>   -1.6148    1.0000 </r>
       <r>    1.5938    1.0000 </r>
       <r>    2.2788    1.0000 </r>
       <r>    8.9618    0.0000 </r>
       <r>   10.2345    0.0000 </r>
       <r>   10.9465    0.0000 </r>
       <r>   10.9605    0.0000 </r>
       <r>   15.1842    0.0000 </r>
       <r>   16.2640    0.0000 </r>
       <r>   18.2437    0.0000 </r>
       <r>   19.4124    0.0000 </r>
       <r>   21.1753    0.0000 </r>
       <r>   22.1931    0.0000 </r>
       <r>   23.5402    0.0000 </r>
       <r>   23.6921    0.0000 </r>
      </set>
      <set comment="kpoint 152">
       <r>   -2.9464    1.0000 </r>
       <r>   -1.1024    1.0000 </r>
       <r>    1.6364    1.0000 </r>
       <r>    2.7540    1.0000 </r>
       <r>    9.0730    0.0000 </r>
       <r>    9.4115    0.0000 </r>
       <r>   10.6682    0.0000 </r>
       <r>   12.5152    0.0000 </r>
       <r>   13.6712    0.0000 </r>
       <r>   16.1949    0.0000 </r>
       <r>   18.0719    0.0000 </r>
       <r>   19.5231    0.0000 </r>
       <r>   20.9457    0.0000 </r>
       <r>   21.7872    0.0000 </r>
       <r>   22.4435    0.0000 </r>
       <r>   24.0001    0.0000 </r>
      </set>
      <set comment="kpoint 153">
       <r>   -3.5416    1.0000 </r>
       <r>   -0.7234    1.0000 </r>
       <r>    2.1711    1.0000 </r>
       <r>    3.3724    1.0000 </r>
       <r>    7.9017    0.0000 </r>
       <r>    9.8699    0.0000 </r>
       <r>   10.6772    0.0000 </r>
       <r>   11.9391    0.0000 </r>
       <r>   14.5812    0.0000 </r>
       <r>   16.2474    0.0000 </r>
       <r>   17.2666    0.0000 </r>
       <r>   18.5121    0.0000 </r>
       <r>   19.2786    0.0000 </r>
       <r>   21.8853    0.0000 </r>
       <r>   23.2481    0.0000 </r>
       <r>   23.9752    0.0000 </r>
      </set>
      <set comment="kpoint 154">
       <r>   -2.7059    1.0000 </r>
       <r>   -1.3995    1.0000 </r>
       <r>    1.8302    1.0000 </r>
       <r>    3.0840    1.0000 </r>
       <r>    6.6740    0.0000 </r>
       <r>    8.4931    0.0000 </r>
       <r>   13.4029    0.0000 </r>
       <r>   13.5397    0.0000 </r>
       <r>   15.2797    0.0000 </r>
       <r>   15.3688    0.0000 </r>
       <r>   18.8185    0.0000 </r>
       <r>   19.1487    0.0000 </r>
       <r>   20.7762    0.0000 </r>
       <r>   20.8360    0.0000 </r>
       <r>   21.4498    0.0000 </r>
       <r>   23.6006    0.0000 </r>
      </set>
      <set comment="kpoint 155">
       <r>   -2.2244    1.0000 </r>
       <r>   -1.8520    1.0000 </r>
       <r>    1.8232    1.0000 </r>
       <r>    2.6593    1.0000 </r>
       <r>    7.2674    0.0000 </r>
       <r>    8.5045    0.0000 </r>
       <r>   12.9992    0.0000 </r>
       <r>   13.2276    0.0000 </r>
       <r>   15.2527    0.0000 </r>
       <r>   15.8888    0.0000 </r>
       <r>   18.4828    0.0000 </r>
       <r>   19.2778    0.0000 </r>
       <r>   20.9859    0.0000 </r>
       <r>   21.6469    0.0000 </r>
       <r>   22.2055    0.0000 </r>
       <r>   22.6105    0.0000 </r>
      </set>
      <set comment="kpoint 156">
       <r>   -2.5389    1.0000 </r>
       <r>   -1.4570    1.0000 </r>
       <r>    1.8661    1.0000 </r>
       <r>    2.2451    1.0000 </r>
       <r>    8.6124    0.0000 </r>
       <r>    8.8237    0.0000 </r>
       <r>   11.1839    0.0000 </r>
       <r>   12.7479    0.0000 </r>
       <r>   15.1651    0.0000 </r>
       <r>   16.6097    0.0000 </r>
       <r>   17.9388    0.0000 </r>
       <r>   19.2567    0.0000 </r>
       <r>   21.1067    0.0000 </r>
       <r>   21.8442    0.0000 </r>
       <r>   22.4454    0.0000 </r>
       <r>   23.6064    0.0000 </r>
      </set>
      <set comment="kpoint 157">
       <r>   -2.9452    1.0000 </r>
       <r>   -1.1048    1.0000 </r>
       <r>    1.6365    1.0000 </r>
       <r>    2.7554    1.0000 </r>
       <r>    9.0690    0.0000 </r>
       <r>    9.4159    0.0000 </r>
       <r>   10.6704    0.0000 </r>
       <r>   12.5125    0.0000 </r>
       <r>   13.6711    0.0000 </r>
       <r>   16.1938    0.0000 </r>
       <r>   18.0721    0.0000 </r>
       <r>   19.5242    0.0000 </r>
       <r>   20.9486    0.0000 </r>
       <r>   21.7827    0.0000 </r>
       <r>   22.4417    0.0000 </r>
       <r>   24.0050    0.0000 </r>
      </set>
      <set comment="kpoint 158">
       <r>   -3.2812    1.0000 </r>
       <r>   -1.0657    1.0000 </r>
       <r>    1.9456    1.0000 </r>
       <r>    3.4608    1.0000 </r>
       <r>    8.1106    0.0000 </r>
       <r>    9.6091    0.0000 </r>
       <r>   11.8258    0.0000 </r>
       <r>   12.3450    0.0000 </r>
       <r>   12.8287    0.0000 </r>
       <r>   15.5700    0.0000 </r>
       <r>   17.7149    0.0000 </r>
       <r>   18.5604    0.0000 </r>
       <r>   21.0926    0.0000 </r>
       <r>   21.5536    0.0000 </r>
       <r>   22.7853    0.0000 </r>
       <r>   23.7372    0.0000 </r>
      </set>
      <set comment="kpoint 159">
       <r>   -2.7039    1.0000 </r>
       <r>   -1.4039    1.0000 </r>
       <r>    1.8329    1.0000 </r>
       <r>    3.0839    1.0000 </r>
       <r>    6.6738    0.0000 </r>
       <r>    8.4939    0.0000 </r>
       <r>   13.4141    0.0000 </r>
       <r>   13.5488    0.0000 </r>
       <r>   15.2704    0.0000 </r>
       <r>   15.3570    0.0000 </r>
       <r>   18.8021    0.0000 </r>
       <r>   19.1389    0.0000 </r>
       <r>   20.7874    0.0000 </r>
       <r>   20.8525    0.0000 </r>
       <r>   21.4619    0.0000 </r>
       <r>   23.5866    0.0000 </r>
      </set>
      <set comment="kpoint 160">
       <r>   -3.2022    1.0000 </r>
       <r>   -0.8409    1.0000 </r>
       <r>    2.0283    1.0000 </r>
       <r>    2.8674    1.0000 </r>
       <r>    7.3975    0.0000 </r>
       <r>    8.7110    0.0000 </r>
       <r>   11.5876    0.0000 </r>
       <r>   13.6875    0.0000 </r>
       <r>   14.8547    0.0000 </r>
       <r>   16.7088    0.0000 </r>
       <r>   17.5758    0.0000 </r>
       <r>   19.3050    0.0000 </r>
       <r>   20.0651    0.0000 </r>
       <r>   20.6236    0.0000 </r>
       <r>   22.5508    0.0000 </r>
       <r>   23.0934    0.0000 </r>
      </set>
      <set comment="kpoint 161">
       <r>   -3.5671    1.0000 </r>
       <r>   -0.4172    1.0000 </r>
       <r>    1.9140    1.0000 </r>
       <r>    3.0689    1.0000 </r>
       <r>    8.6922    0.0000 </r>
       <r>    9.3437    0.0000 </r>
       <r>    9.8863    0.0000 </r>
       <r>   13.2242    0.0000 </r>
       <r>   14.4928    0.0000 </r>
       <r>   15.0603    0.0000 </r>
       <r>   19.0742    0.0000 </r>
       <r>   19.3859    0.0000 </r>
       <r>   19.7186    0.0000 </r>
       <r>   20.1164    0.0000 </r>
       <r>   22.1735    0.0000 </r>
       <r>   23.5212    0.0000 </r>
      </set>
      <set comment="kpoint 162">
       <r>   -3.7757    1.0000 </r>
       <r>   -0.3929    1.0000 </r>
       <r>    1.9394    1.0000 </r>
       <r>    3.7506    1.0000 </r>
       <r>    8.4642    0.0000 </r>
       <r>    9.4224    0.0000 </r>
       <r>   11.1317    0.0000 </r>
       <r>   11.7606    0.0000 </r>
       <r>   14.0542    0.0000 </r>
       <r>   14.3083    0.0000 </r>
       <r>   17.9422    0.0000 </r>
       <r>   19.5358    0.0000 </r>
       <r>   20.0933    0.0000 </r>
       <r>   20.6027    0.0000 </r>
       <r>   22.9744    0.0000 </r>
       <r>   23.2596    0.0000 </r>
      </set>
      <set comment="kpoint 163">
       <r>   -3.7794    1.0000 </r>
       <r>   -0.2540    1.0000 </r>
       <r>    2.3768    1.0000 </r>
       <r>    3.3258    1.0000 </r>
       <r>    6.9791    0.0000 </r>
       <r>    8.8920    0.0000 </r>
       <r>   11.8369    0.0000 </r>
       <r>   12.0570    0.0000 </r>
       <r>   16.5634    0.0000 </r>
       <r>   16.8115    0.0000 </r>
       <r>   17.1984    0.0000 </r>
       <r>   17.3245    0.0000 </r>
       <r>   19.2105    0.0000 </r>
       <r>   21.1282    0.0000 </r>
       <r>   22.2433    0.0000 </r>
       <r>   23.8670    0.0000 </r>
      </set>
      <set comment="kpoint 164">
       <r>   -4.1998    1.0000 </r>
       <r>    0.2611    1.0000 </r>
       <r>    2.5588    1.0000 </r>
       <r>    3.5227    1.0000 </r>
       <r>    7.7640    0.0000 </r>
       <r>    9.3369    0.0000 </r>
       <r>   10.2576    0.0000 </r>
       <r>   11.9926    0.0000 </r>
       <r>   14.8839    0.0000 </r>
       <r>   16.2437    0.0000 </r>
       <r>   17.3548    0.0000 </r>
       <r>   18.0574    0.0000 </r>
       <r>   19.6489    0.0000 </r>
       <r>   20.2647    0.0000 </r>
       <r>   21.8709    0.0000 </r>
       <r>   23.6155    0.0000 </r>
      </set>
      <set comment="kpoint 165">
       <r>   -4.4385    1.0000 </r>
       <r>    0.5707    1.0000 </r>
       <r>    2.3156    1.0000 </r>
       <r>    4.1571    1.0000 </r>
       <r>    8.8906    0.0000 </r>
       <r>    9.0083    0.0000 </r>
       <r>   10.2613    0.0000 </r>
       <r>   11.3124    0.0000 </r>
       <r>   13.1318    0.0000 </r>
       <r>   15.9918    0.0000 </r>
       <r>   17.4509    0.0000 </r>
       <r>   18.0445    0.0000 </r>
       <r>   19.0410    0.0000 </r>
       <r>   21.3240    0.0000 </r>
       <r>   21.6497    0.0000 </r>
       <r>   24.1617    0.0000 </r>
      </set>
      <set comment="kpoint 166">
       <r>   -4.6874    1.0000 </r>
       <r>    0.8130    1.0000 </r>
       <r>    3.3893    1.0000 </r>
       <r>    3.7929    1.0000 </r>
       <r>    7.5160    0.0000 </r>
       <r>    9.6656    0.0000 </r>
       <r>   10.2597    0.0000 </r>
       <r>   10.8402    0.0000 </r>
       <r>   15.0823    0.0000 </r>
       <r>   15.2113    0.0000 </r>
       <r>   16.0896    0.0000 </r>
       <r>   18.8124    0.0000 </r>
       <r>   18.9580    0.0000 </r>
       <r>   20.5976    0.0000 </r>
       <r>   21.5281    0.0000 </r>
       <r>   22.7939    0.0000 </r>
      </set>
      <set comment="kpoint 167">
       <r>   -4.9895    1.0000 </r>
       <r>    1.3045    1.0000 </r>
       <r>    3.2733    1.0000 </r>
       <r>    4.5059    1.0000 </r>
       <r>    8.2654    0.0000 </r>
       <r>    9.1502    0.0000 </r>
       <r>   10.2987    0.0000 </r>
       <r>   10.5064    0.0000 </r>
       <r>   13.1191    0.0000 </r>
       <r>   15.3923    0.0000 </r>
       <r>   15.9224    0.0000 </r>
       <r>   17.8210    0.0000 </r>
       <r>   19.3810    0.0000 </r>
       <r>   20.8047    0.0000 </r>
       <r>   21.4664    0.0000 </r>
       <r>   23.4681    0.0000 </r>
      </set>
      <set comment="kpoint 168">
       <r>   -5.3612    1.0000 </r>
       <r>    1.8621    1.0000 </r>
       <r>    4.4374    1.0000 </r>
       <r>    4.5633    1.0000 </r>
       <r>    8.0109    0.0000 </r>
       <r>    8.8784    0.0000 </r>
       <r>    9.7803    0.0000 </r>
       <r>   10.9578    0.0000 </r>
       <r>   13.2666    0.0000 </r>
       <r>   13.6307    0.0000 </r>
       <r>   15.1173    0.0000 </r>
       <r>   17.3823    0.0000 </r>
       <r>   19.3401    0.0000 </r>
       <r>   20.5322    0.0000 </r>
       <r>   22.5477    0.0000 </r>
       <r>   23.0940    0.0000 </r>
      </set>
      <set comment="kpoint 169">
       <r>   -5.2665    1.0000 </r>
       <r>    1.3366    1.0000 </r>
       <r>    4.8073    1.0000 </r>
       <r>    4.8129    1.0000 </r>
       <r>    7.5114    0.0000 </r>
       <r>    9.1470    0.0000 </r>
       <r>    9.1482    0.0000 </r>
       <r>   12.7511    0.0000 </r>
       <r>   12.9537    0.0000 </r>
       <r>   12.9592    0.0000 </r>
       <r>   14.4843    0.0000 </r>
       <r>   17.8200    0.0000 </r>
       <r>   20.4314    0.0000 </r>
       <r>   20.4341    0.0000 </r>
       <r>   22.9204    0.0000 </r>
       <r>   22.9290    0.0000 </r>
      </set>
      <set comment="kpoint 170">
       <r>   -5.3611    1.0000 </r>
       <r>    1.8621    1.0000 </r>
       <r>    4.4417    1.0000 </r>
       <r>    4.5602    1.0000 </r>
       <r>    8.0114    0.0000 </r>
       <r>    8.8749    0.0000 </r>
       <r>    9.7797    0.0000 </r>
       <r>   10.9525    0.0000 </r>
       <r>   13.2709    0.0000 </r>
       <r>   13.6337    0.0000 </r>
       <r>   15.1176    0.0000 </r>
       <r>   17.3829    0.0000 </r>
       <r>   19.3377    0.0000 </r>
       <r>   20.5358    0.0000 </r>
       <r>   22.5557    0.0000 </r>
       <r>   23.0997    0.0000 </r>
      </set>
      <set comment="kpoint 171">
       <r>   -5.2488    1.0000 </r>
       <r>    2.1643    1.0000 </r>
       <r>    3.9118    1.0000 </r>
       <r>    3.9917    1.0000 </r>
       <r>    7.2824    0.0000 </r>
       <r>    9.3047    0.0000 </r>
       <r>   10.4566    0.0000 </r>
       <r>   10.7530    0.0000 </r>
       <r>   13.4977    0.0000 </r>
       <r>   14.2824    0.0000 </r>
       <r>   16.3218    0.0000 </r>
       <r>   17.7408    0.0000 </r>
       <r>   18.6721    0.0000 </r>
       <r>   19.9405    0.0000 </r>
       <r>   22.4986    0.0000 </r>
       <r>   22.9626    0.0000 </r>
      </set>
      <set comment="kpoint 172">
       <r>   -4.9329    1.0000 </r>
       <r>    1.7046    1.0000 </r>
       <r>    3.6117    1.0000 </r>
       <r>    3.6196    1.0000 </r>
       <r>    6.6484    0.0000 </r>
       <r>    8.4344    0.0000 </r>
       <r>   11.7162    0.0000 </r>
       <r>   11.7168    0.0000 </r>
       <r>   13.9710    0.0000 </r>
       <r>   14.7539    0.0000 </r>
       <r>   17.4041    0.0000 </r>
       <r>   18.7863    0.0000 </r>
       <r>   18.7947    0.0000 </r>
       <r>   19.5995    0.0000 </r>
       <r>   22.4075    0.0000 </r>
       <r>   22.4100    0.0000 </r>
      </set>
      <set comment="kpoint 173">
       <r>   -4.4281    1.0000 </r>
       <r>    0.7645    1.0000 </r>
       <r>    3.0821    1.0000 </r>
       <r>    3.3912    1.0000 </r>
       <r>    6.7818    0.0000 </r>
       <r>    8.1470    0.0000 </r>
       <r>   11.9946    0.0000 </r>
       <r>   12.1781    0.0000 </r>
       <r>   15.4211    0.0000 </r>
       <r>   15.4917    0.0000 </r>
       <r>   17.6237    0.0000 </r>
       <r>   18.8474    0.0000 </r>
       <r>   19.3189    0.0000 </r>
       <r>   20.2848    0.0000 </r>
       <r>   21.3544    0.0000 </r>
       <r>   22.2911    0.0000 </r>
      </set>
      <set comment="kpoint 174">
       <r>   -3.7807    1.0000 </r>
       <r>   -0.2481    1.0000 </r>
       <r>    2.3681    1.0000 </r>
       <r>    3.3304    1.0000 </r>
       <r>    6.9838    0.0000 </r>
       <r>    8.8848    0.0000 </r>
       <r>   11.8322    0.0000 </r>
       <r>   12.0482    0.0000 </r>
       <r>   16.5698    0.0000 </r>
       <r>   16.8249    0.0000 </r>
       <r>   17.2062    0.0000 </r>
       <r>   17.3343    0.0000 </r>
       <r>   19.2036    0.0000 </r>
       <r>   21.1217    0.0000 </r>
       <r>   22.2403    0.0000 </r>
       <r>   23.8553    0.0000 </r>
      </set>
      <set comment="kpoint 175">
       <r>   -3.1798    1.0000 </r>
       <r>   -1.0349    1.0000 </r>
       <r>    1.8058    1.0000 </r>
       <r>    3.4409    1.0000 </r>
       <r>    7.1165    0.0000 </r>
       <r>   10.3456    0.0000 </r>
       <r>   11.6649    0.0000 </r>
       <r>   11.7264    0.0000 </r>
       <r>   15.0336    0.0000 </r>
       <r>   15.1506    0.0000 </r>
       <r>   18.6677    0.0000 </r>
       <r>   18.6766    0.0000 </r>
       <r>   19.1923    0.0000 </r>
       <r>   23.0605    0.0000 </r>
       <r>   23.0772    0.0000 </r>
       <r>   23.5728    0.0000 </r>
      </set>
      <set comment="kpoint 176">
       <r>   -3.2347    1.0000 </r>
       <r>   -0.9587    1.0000 </r>
       <r>    1.5283    1.0000 </r>
       <r>    3.7108    1.0000 </r>
       <r>    7.4004    0.0000 </r>
       <r>   11.3768    0.0000 </r>
       <r>   11.3963    0.0000 </r>
       <r>   12.2836    0.0000 </r>
       <r>   13.3335    0.0000 </r>
       <r>   13.4148    0.0000 </r>
       <r>   18.6210    0.0000 </r>
       <r>   20.6410    0.0000 </r>
       <r>   20.6542    0.0000 </r>
       <r>   21.4294    0.0000 </r>
       <r>   22.0519    0.0000 </r>
       <r>   23.2594    0.0000 </r>
      </set>
      <set comment="kpoint 177">
       <r>   -3.8564    1.0000 </r>
       <r>   -0.2148    1.0000 </r>
       <r>    1.6902    1.0000 </r>
       <r>    4.1063    1.0000 </r>
       <r>    7.8350    0.0000 </r>
       <r>   10.7848    0.0000 </r>
       <r>   11.1297    0.0000 </r>
       <r>   11.9548    0.0000 </r>
       <r>   12.3363    0.0000 </r>
       <r>   14.2337    0.0000 </r>
       <r>   18.5925    0.0000 </r>
       <r>   19.2500    0.0000 </r>
       <r>   19.6988    0.0000 </r>
       <r>   22.2314    0.0000 </r>
       <r>   22.4338    0.0000 </r>
       <r>   22.9929    0.0000 </r>
      </set>
      <set comment="kpoint 178">
       <r>   -4.4856    1.0000 </r>
       <r>    0.4003    1.0000 </r>
       <r>    2.5199    1.0000 </r>
       <r>    4.5473    1.0000 </r>
       <r>    8.2549    0.0000 </r>
       <r>    9.8364    0.0000 </r>
       <r>    9.9499    0.0000 </r>
       <r>   11.9035    0.0000 </r>
       <r>   12.1565    0.0000 </r>
       <r>   15.6527    0.0000 </r>
       <r>   17.3475    0.0000 </r>
       <r>   17.6235    0.0000 </r>
       <r>   19.4274    0.0000 </r>
       <r>   21.4547    0.0000 </r>
       <r>   22.1217    0.0000 </r>
       <r>   23.0632    0.0000 </r>
      </set>
      <set comment="kpoint 179">
       <r>   -4.9695    1.0000 </r>
       <r>    0.8515    1.0000 </r>
       <r>    3.8012    1.0000 </r>
       <r>    4.8579    1.0000 </r>
       <r>    7.9901    0.0000 </r>
       <r>    9.1578    0.0000 </r>
       <r>    9.3527    0.0000 </r>
       <r>   12.2725    0.0000 </r>
       <r>   12.4312    0.0000 </r>
       <r>   14.9310    0.0000 </r>
       <r>   15.1054    0.0000 </r>
       <r>   18.2874    0.0000 </r>
       <r>   19.6236    0.0000 </r>
       <r>   21.4477    0.0000 </r>
       <r>   21.4561    0.0000 </r>
       <r>   23.1168    0.0000 </r>
      </set>
      <set comment="kpoint 180">
       <r>   -5.5315    1.0000 </r>
       <r>    2.3802    1.0000 </r>
       <r>    4.1005    1.0000 </r>
       <r>    5.2133    1.0000 </r>
       <r>    8.2850    0.0000 </r>
       <r>    8.8729    0.0000 </r>
       <r>    9.2191    0.0000 </r>
       <r>   11.3776    0.0000 </r>
       <r>   12.0167    0.0000 </r>
       <r>   13.7627    0.0000 </r>
       <r>   15.2443    0.0000 </r>
       <r>   16.8618    0.0000 </r>
       <r>   18.6437    0.0000 </r>
       <r>   20.4360    0.0000 </r>
       <r>   22.6015    0.0000 </r>
       <r>   23.8697    0.0000 </r>
      </set>
      <set comment="kpoint 181">
       <r>   -5.4938    1.0000 </r>
       <r>    2.6096    1.0000 </r>
       <r>    3.8295    1.0000 </r>
       <r>    4.8164    1.0000 </r>
       <r>    7.9592    0.0000 </r>
       <r>    9.1829    0.0000 </r>
       <r>    9.9674    0.0000 </r>
       <r>   10.3866    0.0000 </r>
       <r>   12.5805    0.0000 </r>
       <r>   13.9950    0.0000 </r>
       <r>   15.7543    0.0000 </r>
       <r>   17.0659    0.0000 </r>
       <r>   18.2218    0.0000 </r>
       <r>   20.1149    0.0000 </r>
       <r>   22.5856    0.0000 </r>
       <r>   24.2308    0.0000 </r>
      </set>
      <set comment="kpoint 182">
       <r>   -5.2488    1.0000 </r>
       <r>    2.1712    1.0000 </r>
       <r>    3.9121    1.0000 </r>
       <r>    3.9835    1.0000 </r>
       <r>    7.2806    0.0000 </r>
       <r>    9.3070    0.0000 </r>
       <r>   10.4520    0.0000 </r>
       <r>   10.7500    0.0000 </r>
       <r>   13.5026    0.0000 </r>
       <r>   14.2858    0.0000 </r>
       <r>   16.3220    0.0000 </r>
       <r>   17.7322    0.0000 </r>
       <r>   18.6796    0.0000 </r>
       <r>   19.9423    0.0000 </r>
       <r>   22.5079    0.0000 </r>
       <r>   22.9690    0.0000 </r>
      </set>
      <set comment="kpoint 183">
       <r>   -4.8072    1.0000 </r>
       <r>    1.3326    1.0000 </r>
       <r>    3.1242    1.0000 </r>
       <r>    3.8242    1.0000 </r>
       <r>    7.4069    0.0000 </r>
       <r>    8.9251    0.0000 </r>
       <r>   10.5596    0.0000 </r>
       <r>   11.6006    0.0000 </r>
       <r>   14.0337    0.0000 </r>
       <r>   15.5233    0.0000 </r>
       <r>   17.0065    0.0000 </r>
       <r>   18.0478    0.0000 </r>
       <r>   19.3348    0.0000 </r>
       <r>   20.7817    0.0000 </r>
       <r>   20.8686    0.0000 </r>
       <r>   23.0657    0.0000 </r>
      </set>
      <set comment="kpoint 184">
       <r>   -4.2006    1.0000 </r>
       <r>    0.2680    1.0000 </r>
       <r>    2.5549    1.0000 </r>
       <r>    3.5205    1.0000 </r>
       <r>    7.7678    0.0000 </r>
       <r>    9.3305    0.0000 </r>
       <r>   10.2483    0.0000 </r>
       <r>   11.9881    0.0000 </r>
       <r>   14.8874    0.0000 </r>
       <r>   16.2548    0.0000 </r>
       <r>   17.3709    0.0000 </r>
       <r>   18.0564    0.0000 </r>
       <r>   19.6490    0.0000 </r>
       <r>   20.2624    0.0000 </r>
       <r>   21.8731    0.0000 </r>
       <r>   23.6164    0.0000 </r>
      </set>
      <set comment="kpoint 185">
       <r>   -3.5413    1.0000 </r>
       <r>   -0.7231    1.0000 </r>
       <r>    2.1722    1.0000 </r>
       <r>    3.3708    1.0000 </r>
       <r>    7.9008    0.0000 </r>
       <r>    9.8642    0.0000 </r>
       <r>   10.6760    0.0000 </r>
       <r>   11.9450    0.0000 </r>
       <r>   14.5907    0.0000 </r>
       <r>   16.2370    0.0000 </r>
       <r>   17.2606    0.0000 </r>
       <r>   18.5095    0.0000 </r>
       <r>   19.2916    0.0000 </r>
       <r>   21.8847    0.0000 </r>
       <r>   23.2534    0.0000 </r>
       <r>   23.9769    0.0000 </r>
      </set>
      <set comment="kpoint 186">
       <r>   -3.2811    1.0000 </r>
       <r>   -1.0654    1.0000 </r>
       <r>    1.9462    1.0000 </r>
       <r>    3.4599    1.0000 </r>
       <r>    8.1100    0.0000 </r>
       <r>    9.6026    0.0000 </r>
       <r>   11.8323    0.0000 </r>
       <r>   12.3445    0.0000 </r>
       <r>   12.8379    0.0000 </r>
       <r>   15.5612    0.0000 </r>
       <r>   17.7100    0.0000 </r>
       <r>   18.5545    0.0000 </r>
       <r>   21.1063    0.0000 </r>
       <r>   21.5551    0.0000 </r>
       <r>   22.7876    0.0000 </r>
       <r>   23.7413    0.0000 </r>
      </set>
      <set comment="kpoint 187">
       <r>   -3.7757    1.0000 </r>
       <r>   -0.3927    1.0000 </r>
       <r>    1.9395    1.0000 </r>
       <r>    3.7502    1.0000 </r>
       <r>    8.4641    0.0000 </r>
       <r>    9.4163    0.0000 </r>
       <r>   11.1386    0.0000 </r>
       <r>   11.7666    0.0000 </r>
       <r>   14.0478    0.0000 </r>
       <r>   14.3075    0.0000 </r>
       <r>   17.9429    0.0000 </r>
       <r>   19.5349    0.0000 </r>
       <r>   20.0850    0.0000 </r>
       <r>   20.6039    0.0000 </r>
       <r>   22.9847    0.0000 </r>
       <r>   23.2654    0.0000 </r>
      </set>
      <set comment="kpoint 188">
       <r>   -4.4384    1.0000 </r>
       <r>    0.5708    1.0000 </r>
       <r>    2.3155    1.0000 </r>
       <r>    4.1571    1.0000 </r>
       <r>    8.8905    0.0000 </r>
       <r>    9.0080    0.0000 </r>
       <r>   10.2612    0.0000 </r>
       <r>   11.3126    0.0000 </r>
       <r>   13.1319    0.0000 </r>
       <r>   15.9918    0.0000 </r>
       <r>   17.4509    0.0000 </r>
       <r>   18.0445    0.0000 </r>
       <r>   19.0411    0.0000 </r>
       <r>   21.3241    0.0000 </r>
       <r>   21.6500    0.0000 </r>
       <r>   24.1622    0.0000 </r>
      </set>
      <set comment="kpoint 189">
       <r>   -4.9895    1.0000 </r>
       <r>    1.3044    1.0000 </r>
       <r>    3.2729    1.0000 </r>
       <r>    4.5070    1.0000 </r>
       <r>    8.2676    0.0000 </r>
       <r>    9.1491    0.0000 </r>
       <r>   10.2951    0.0000 </r>
       <r>   10.5028    0.0000 </r>
       <r>   13.1249    0.0000 </r>
       <r>   15.3921    0.0000 </r>
       <r>   15.9218    0.0000 </r>
       <r>   17.8214    0.0000 </r>
       <r>   19.3814    0.0000 </r>
       <r>   20.8041    0.0000 </r>
       <r>   21.4706    0.0000 </r>
       <r>   23.4767    0.0000 </r>
      </set>
      <set comment="kpoint 190">
       <r>   -5.5316    1.0000 </r>
       <r>    2.3890    1.0000 </r>
       <r>    4.0908    1.0000 </r>
       <r>    5.2139    1.0000 </r>
       <r>    8.2783    0.0000 </r>
       <r>    8.8684    0.0000 </r>
       <r>    9.2209    0.0000 </r>
       <r>   11.3825    0.0000 </r>
       <r>   12.0209    0.0000 </r>
       <r>   13.7622    0.0000 </r>
       <r>   15.2429    0.0000 </r>
       <r>   16.8580    0.0000 </r>
       <r>   18.6515    0.0000 </r>
       <r>   20.4359    0.0000 </r>
       <r>   22.6019    0.0000 </r>
       <r>   23.8699    0.0000 </r>
      </set>
      <set comment="kpoint 191">
       <r>   -5.3612    1.0000 </r>
       <r>    1.8726    1.0000 </r>
       <r>    4.4328    1.0000 </r>
       <r>    4.5570    1.0000 </r>
       <r>    8.0042    0.0000 </r>
       <r>    8.8717    0.0000 </r>
       <r>    9.7765    0.0000 </r>
       <r>   10.9574    0.0000 </r>
       <r>   13.2757    0.0000 </r>
       <r>   13.6377    0.0000 </r>
       <r>   15.1150    0.0000 </r>
       <r>   17.3807    0.0000 </r>
       <r>   19.3446    0.0000 </r>
       <r>   20.5373    0.0000 </r>
       <r>   22.5663    0.0000 </r>
       <r>   23.1056    0.0000 </r>
      </set>
      <set comment="kpoint 192">
       <r>   -4.9897    1.0000 </r>
       <r>    1.3149    1.0000 </r>
       <r>    3.2708    1.0000 </r>
       <r>    4.4967    1.0000 </r>
       <r>    8.2627    0.0000 </r>
       <r>    9.1411    0.0000 </r>
       <r>   10.2964    0.0000 </r>
       <r>   10.5043    0.0000 </r>
       <r>   13.1224    0.0000 </r>
       <r>   15.4055    0.0000 </r>
       <r>   15.9221    0.0000 </r>
       <r>   17.8198    0.0000 </r>
       <r>   19.3835    0.0000 </r>
       <r>   20.8203    0.0000 </r>
       <r>   21.4716    0.0000 </r>
       <r>   23.4811    0.0000 </r>
      </set>
      <set comment="kpoint 193">
       <r>   -4.4388    1.0000 </r>
       <r>    0.5785    1.0000 </r>
       <r>    2.3152    1.0000 </r>
       <r>    4.1486    1.0000 </r>
       <r>    8.8812    0.0000 </r>
       <r>    9.0090    0.0000 </r>
       <r>   10.2591    0.0000 </r>
       <r>   11.3115    0.0000 </r>
       <r>   13.1297    0.0000 </r>
       <r>   16.0020    0.0000 </r>
       <r>   17.4637    0.0000 </r>
       <r>   18.0406    0.0000 </r>
       <r>   19.0483    0.0000 </r>
       <r>   21.3268    0.0000 </r>
       <r>   21.6502    0.0000 </r>
       <r>   24.1678    0.0000 </r>
      </set>
      <set comment="kpoint 194">
       <r>   -3.7763    1.0000 </r>
       <r>   -0.3889    1.0000 </r>
       <r>    1.9421    1.0000 </r>
       <r>    3.7434    1.0000 </r>
       <r>    8.4545    0.0000 </r>
       <r>    9.4257    0.0000 </r>
       <r>   11.1297    0.0000 </r>
       <r>   11.7634    0.0000 </r>
       <r>   14.0448    0.0000 </r>
       <r>   14.3205    0.0000 </r>
       <r>   17.9459    0.0000 </r>
       <r>   19.5517    0.0000 </r>
       <r>   20.0841    0.0000 </r>
       <r>   20.5984    0.0000 </r>
       <r>   22.9731    0.0000 </r>
       <r>   23.2710    0.0000 </r>
      </set>
      <set comment="kpoint 195">
       <r>   -3.2815    1.0000 </r>
       <r>   -1.0644    1.0000 </r>
       <r>    1.9498    1.0000 </r>
       <r>    3.4551    1.0000 </r>
       <r>    8.1006    0.0000 </r>
       <r>    9.6131    0.0000 </r>
       <r>   11.8340    0.0000 </r>
       <r>   12.3532    0.0000 </r>
       <r>   12.8257    0.0000 </r>
       <r>   15.5595    0.0000 </r>
       <r>   17.7159    0.0000 </r>
       <r>   18.5518    0.0000 </r>
       <r>   21.0923    0.0000 </r>
       <r>   21.5695    0.0000 </r>
       <r>   22.7851    0.0000 </r>
       <r>   23.7401    0.0000 </r>
      </set>
      <set comment="kpoint 196">
       <r>   -3.5411    1.0000 </r>
       <r>   -0.7246    1.0000 </r>
       <r>    2.1754    1.0000 </r>
       <r>    3.3689    1.0000 </r>
       <r>    7.8915    0.0000 </r>
       <r>    9.8757    0.0000 </r>
       <r>   10.6863    0.0000 </r>
       <r>   11.9459    0.0000 </r>
       <r>   14.5770    0.0000 </r>
       <r>   16.2388    0.0000 </r>
       <r>   17.2560    0.0000 </r>
       <r>   18.5135    0.0000 </r>
       <r>   19.2755    0.0000 </r>
       <r>   21.8911    0.0000 </r>
       <r>   23.2625    0.0000 </r>
       <r>   23.9737    0.0000 </r>
      </set>
      <set comment="kpoint 197">
       <r>   -4.2004    1.0000 </r>
       <r>    0.2642    1.0000 </r>
       <r>    2.5566    1.0000 </r>
       <r>    3.5227    1.0000 </r>
       <r>    7.7603    0.0000 </r>
       <r>    9.3401    0.0000 </r>
       <r>   10.2580    0.0000 </r>
       <r>   11.9894    0.0000 </r>
       <r>   14.8878    0.0000 </r>
       <r>   16.2438    0.0000 </r>
       <r>   17.3556    0.0000 </r>
       <r>   18.0550    0.0000 </r>
       <r>   19.6521    0.0000 </r>
       <r>   20.2644    0.0000 </r>
       <r>   21.8711    0.0000 </r>
       <r>   23.6184    0.0000 </r>
      </set>
      <set comment="kpoint 198">
       <r>   -4.8071    1.0000 </r>
       <r>    1.3262    1.0000 </r>
       <r>    3.1247    1.0000 </r>
       <r>    3.8310    1.0000 </r>
       <r>    7.4064    0.0000 </r>
       <r>    8.9258    0.0000 </r>
       <r>   10.5696    0.0000 </r>
       <r>   11.6014    0.0000 </r>
       <r>   14.0343    0.0000 </r>
       <r>   15.5096    0.0000 </r>
       <r>   17.0004    0.0000 </r>
       <r>   18.0565    0.0000 </r>
       <r>   19.3360    0.0000 </r>
       <r>   20.7780    0.0000 </r>
       <r>   20.8544    0.0000 </r>
       <r>   23.0597    0.0000 </r>
      </set>
      <set comment="kpoint 199">
       <r>   -5.2667    1.0000 </r>
       <r>    1.3475    1.0000 </r>
       <r>    4.7997    1.0000 </r>
       <r>    4.8083    1.0000 </r>
       <r>    7.5029    0.0000 </r>
       <r>    9.1383    0.0000 </r>
       <r>    9.1474    0.0000 </r>
       <r>   12.7552    0.0000 </r>
       <r>   12.9606    0.0000 </r>
       <r>   12.9638    0.0000 </r>
       <r>   14.4825    0.0000 </r>
       <r>   17.8211    0.0000 </r>
       <r>   20.4351    0.0000 </r>
       <r>   20.4391    0.0000 </r>
       <r>   22.9382    0.0000 </r>
       <r>   22.9415    0.0000 </r>
      </set>
      <set comment="kpoint 200">
       <r>   -4.9699    1.0000 </r>
       <r>    0.8626    1.0000 </r>
       <r>    3.7981    1.0000 </r>
       <r>    4.8481    1.0000 </r>
       <r>    7.9813    0.0000 </r>
       <r>    9.1566    0.0000 </r>
       <r>    9.3446    0.0000 </r>
       <r>   12.2742    0.0000 </r>
       <r>   12.4336    0.0000 </r>
       <r>   14.9299    0.0000 </r>
       <r>   15.1185    0.0000 </r>
       <r>   18.2899    0.0000 </r>
       <r>   19.6288    0.0000 </r>
       <r>   21.4579    0.0000 </r>
       <r>   21.4632    0.0000 </r>
       <r>   23.1183    0.0000 </r>
      </set>
      <set comment="kpoint 201">
       <r>   -4.4862    1.0000 </r>
       <r>    0.4109    1.0000 </r>
       <r>    2.5169    1.0000 </r>
       <r>    4.5381    1.0000 </r>
       <r>    8.2457    0.0000 </r>
       <r>    9.8368    0.0000 </r>
       <r>    9.9422    0.0000 </r>
       <r>   11.9059    0.0000 </r>
       <r>   12.1569    0.0000 </r>
       <r>   15.6590    0.0000 </r>
       <r>   17.3566    0.0000 </r>
       <r>   17.6274    0.0000 </r>
       <r>   19.4345    0.0000 </r>
       <r>   21.4611    0.0000 </r>
       <r>   22.1248    0.0000 </r>
       <r>   23.0660    0.0000 </r>
      </set>
      <set comment="kpoint 202">
       <r>   -3.8573    1.0000 </r>
       <r>   -0.2072    1.0000 </r>
       <r>    1.6904    1.0000 </r>
       <r>    4.0979    1.0000 </r>
       <r>    7.8259    0.0000 </r>
       <r>   10.7900    0.0000 </r>
       <r>   11.1254    0.0000 </r>
       <r>   11.9546    0.0000 </r>
       <r>   12.3312    0.0000 </r>
       <r>   14.2446    0.0000 </r>
       <r>   18.5853    0.0000 </r>
       <r>   19.2566    0.0000 </r>
       <r>   19.7160    0.0000 </r>
       <r>   22.2265    0.0000 </r>
       <r>   22.4399    0.0000 </r>
       <r>   22.9939    0.0000 </r>
      </set>
      <set comment="kpoint 203">
       <r>   -3.2360    1.0000 </r>
       <r>   -0.9551    1.0000 </r>
       <r>    1.5327    1.0000 </r>
       <r>    3.7028    1.0000 </r>
       <r>    7.3914    0.0000 </r>
       <r>   11.3857    0.0000 </r>
       <r>   11.4030    0.0000 </r>
       <r>   12.2886    0.0000 </r>
       <r>   13.3282    0.0000 </r>
       <r>   13.4060    0.0000 </r>
       <r>   18.6254    0.0000 </r>
       <r>   20.6370    0.0000 </r>
       <r>   20.6424    0.0000 </r>
       <r>   21.4322    0.0000 </r>
       <r>   22.0658    0.0000 </r>
       <r>   23.2694    0.0000 </r>
      </set>
      <set comment="kpoint 204">
       <r>   -3.1802    1.0000 </r>
       <r>   -1.0346    1.0000 </r>
       <r>    1.8127    1.0000 </r>
       <r>    3.4332    1.0000 </r>
       <r>    7.1075    0.0000 </r>
       <r>   10.3591    0.0000 </r>
       <r>   11.6661    0.0000 </r>
       <r>   11.7342    0.0000 </r>
       <r>   15.0254    0.0000 </r>
       <r>   15.1424    0.0000 </r>
       <r>   18.6646    0.0000 </r>
       <r>   18.6744    0.0000 </r>
       <r>   19.1882    0.0000 </r>
       <r>   23.0647    0.0000 </r>
       <r>   23.0881    0.0000 </r>
       <r>   23.5803    0.0000 </r>
      </set>
      <set comment="kpoint 205">
       <r>   -3.7806    1.0000 </r>
       <r>   -0.2497    1.0000 </r>
       <r>    2.3768    1.0000 </r>
       <r>    3.3228    1.0000 </r>
       <r>    6.9754    0.0000 </r>
       <r>    8.8954    0.0000 </r>
       <r>   11.8358    0.0000 </r>
       <r>   12.0552    0.0000 </r>
       <r>   16.5604    0.0000 </r>
       <r>   16.8187    0.0000 </r>
       <r>   17.1966    0.0000 </r>
       <r>   17.3302    0.0000 </r>
       <r>   19.2088    0.0000 </r>
       <r>   21.1249    0.0000 </r>
       <r>   22.2480    0.0000 </r>
       <r>   23.8620    0.0000 </r>
      </set>
      <set comment="kpoint 206">
       <r>   -4.4281    1.0000 </r>
       <r>    0.7624    1.0000 </r>
       <r>    3.0918    1.0000 </r>
       <r>    3.3836    1.0000 </r>
       <r>    6.7783    0.0000 </r>
       <r>    8.1514    0.0000 </r>
       <r>   11.9987    0.0000 </r>
       <r>   12.1826    0.0000 </r>
       <r>   15.4163    0.0000 </r>
       <r>   15.4858    0.0000 </r>
       <r>   17.6180    0.0000 </r>
       <r>   18.8492    0.0000 </r>
       <r>   19.3218    0.0000 </r>
       <r>   20.2860    0.0000 </r>
       <r>   21.3499    0.0000 </r>
       <r>   22.2821    0.0000 </r>
      </set>
      <set comment="kpoint 207">
       <r>   -4.7506    1.0000 </r>
       <r>    0.3873    1.0000 </r>
       <r>    4.1732    1.0000 </r>
       <r>    4.2531    1.0000 </r>
       <r>    7.8401    0.0000 </r>
       <r>    8.9304    0.0000 </r>
       <r>    9.7104    0.0000 </r>
       <r>   11.7204    0.0000 </r>
       <r>   14.4581    0.0000 </r>
       <r>   14.5364    0.0000 </r>
       <r>   15.1071    0.0000 </r>
       <r>   18.9563    0.0000 </r>
       <r>   19.2095    0.0000 </r>
       <r>   20.6737    0.0000 </r>
       <r>   22.3793    0.0000 </r>
       <r>   22.7318    0.0000 </r>
      </set>
      <set comment="kpoint 208">
       <r>   -4.3435    1.0000 </r>
       <r>   -0.0056    1.0000 </r>
       <r>    3.0109    1.0000 </r>
       <r>    4.1620    1.0000 </r>
       <r>    8.2852    0.0000 </r>
       <r>    8.9637    0.0000 </r>
       <r>   10.3864    0.0000 </r>
       <r>   11.3336    0.0000 </r>
       <r>   14.2043    0.0000 </r>
       <r>   15.3821    0.0000 </r>
       <r>   17.1419    0.0000 </r>
       <r>   17.4632    0.0000 </r>
       <r>   19.6801    0.0000 </r>
       <r>   20.7903    0.0000 </r>
       <r>   22.3224    0.0000 </r>
       <r>   23.2640    0.0000 </r>
      </set>
      <set comment="kpoint 209">
       <r>   -3.7760    1.0000 </r>
       <r>   -0.3863    1.0000 </r>
       <r>    1.9393    1.0000 </r>
       <r>    3.7429    1.0000 </r>
       <r>    8.4540    0.0000 </r>
       <r>    9.4210    0.0000 </r>
       <r>   11.1352    0.0000 </r>
       <r>   11.7584    0.0000 </r>
       <r>   14.0510    0.0000 </r>
       <r>   14.3185    0.0000 </r>
       <r>   17.9396    0.0000 </r>
       <r>   19.5497    0.0000 </r>
       <r>   20.0924    0.0000 </r>
       <r>   20.6041    0.0000 </r>
       <r>   22.9821    0.0000 </r>
       <r>   23.2673    0.0000 </r>
      </set>
      <set comment="kpoint 210">
       <r>   -3.1253    1.0000 </r>
       <r>   -0.9283    1.0000 </r>
       <r>    1.4137    1.0000 </r>
       <r>    3.2948    1.0000 </r>
       <r>    7.9711    0.0000 </r>
       <r>   10.6729    0.0000 </r>
       <r>   11.3938    0.0000 </r>
       <r>   12.2862    0.0000 </r>
       <r>   13.1270    0.0000 </r>
       <r>   14.3259    0.0000 </r>
       <r>   19.6943    0.0000 </r>
       <r>   20.0186    0.0000 </r>
       <r>   20.1806    0.0000 </r>
       <r>   21.9830    0.0000 </r>
       <r>   22.0561    0.0000 </r>
       <r>   23.1481    0.0000 </r>
      </set>
      <set comment="kpoint 211">
       <r>   -2.7465    1.0000 </r>
       <r>   -1.3240    1.0000 </r>
       <r>    1.5180    1.0000 </r>
       <r>    2.9771    1.0000 </r>
       <r>    7.6059    0.0000 </r>
       <r>   10.2696    0.0000 </r>
       <r>   11.2862    0.0000 </r>
       <r>   12.8683    0.0000 </r>
       <r>   13.6412    0.0000 </r>
       <r>   15.6546    0.0000 </r>
       <r>   18.5908    0.0000 </r>
       <r>   19.8195    0.0000 </r>
       <r>   21.0670    0.0000 </r>
       <r>   21.5177    0.0000 </r>
       <r>   22.7144    0.0000 </r>
       <r>   23.6567    0.0000 </r>
      </set>
      <set comment="kpoint 212">
       <r>   -3.2042    1.0000 </r>
       <r>   -0.8363    1.0000 </r>
       <r>    2.0296    1.0000 </r>
       <r>    2.8631    1.0000 </r>
       <r>    7.3944    0.0000 </r>
       <r>    8.7142    0.0000 </r>
       <r>   11.5844    0.0000 </r>
       <r>   13.6881    0.0000 </r>
       <r>   14.8581    0.0000 </r>
       <r>   16.7094    0.0000 </r>
       <r>   17.5743    0.0000 </r>
       <r>   19.3106    0.0000 </r>
       <r>   20.0653    0.0000 </r>
       <r>   20.6211    0.0000 </r>
       <r>   22.5462    0.0000 </r>
       <r>   23.0957    0.0000 </r>
      </set>
      <set comment="kpoint 213">
       <r>   -3.8721    1.0000 </r>
       <r>   -0.0258    1.0000 </r>
       <r>    2.6562    1.0000 </r>
       <r>    3.0412    1.0000 </r>
       <r>    7.0560    0.0000 </r>
       <r>    7.9069    0.0000 </r>
       <r>   11.9310    0.0000 </r>
       <r>   13.3249    0.0000 </r>
       <r>   15.6555    0.0000 </r>
       <r>   16.7895    0.0000 </r>
       <r>   17.3187    0.0000 </r>
       <r>   18.7719    0.0000 </r>
       <r>   19.6276    0.0000 </r>
       <r>   20.3009    0.0000 </r>
       <r>   21.7080    0.0000 </r>
       <r>   22.3049    0.0000 </r>
      </set>
      <set comment="kpoint 214">
       <r>   -4.0209    1.0000 </r>
       <r>   -0.3928    1.0000 </r>
       <r>    2.9074    1.0000 </r>
       <r>    3.7607    1.0000 </r>
       <r>    7.5528    0.0000 </r>
       <r>   10.0188    0.0000 </r>
       <r>   10.5821    0.0000 </r>
       <r>   10.8716    0.0000 </r>
       <r>   15.4875    0.0000 </r>
       <r>   16.4129    0.0000 </r>
       <r>   17.0470    0.0000 </r>
       <r>   17.2126    0.0000 </r>
       <r>   18.2532    0.0000 </r>
       <r>   21.6106    0.0000 </r>
       <r>   23.2146    0.0000 </r>
       <r>   23.3892    0.0000 </r>
      </set>
      <set comment="kpoint 215">
       <r>   -3.5409    1.0000 </r>
       <r>   -0.7199    1.0000 </r>
       <r>    2.1702    1.0000 </r>
       <r>    3.3681    1.0000 </r>
       <r>    7.8957    0.0000 </r>
       <r>    9.8633    0.0000 </r>
       <r>   10.6831    0.0000 </r>
       <r>   11.9380    0.0000 </r>
       <r>   14.5883    0.0000 </r>
       <r>   16.2432    0.0000 </r>
       <r>   17.2633    0.0000 </r>
       <r>   18.5104    0.0000 </r>
       <r>   19.2880    0.0000 </r>
       <r>   21.8906    0.0000 </r>
       <r>   23.2577    0.0000 </r>
       <r>   23.9789    0.0000 </r>
      </set>
      <set comment="kpoint 216">
       <r>   -2.9459    1.0000 </r>
       <r>   -1.1002    1.0000 </r>
       <r>    1.6365    1.0000 </r>
       <r>    2.7506    1.0000 </r>
       <r>    9.0658    0.0000 </r>
       <r>    9.4057    0.0000 </r>
       <r>   10.6743    0.0000 </r>
       <r>   12.5229    0.0000 </r>
       <r>   13.6700    0.0000 </r>
       <r>   16.1914    0.0000 </r>
       <r>   18.0689    0.0000 </r>
       <r>   19.5209    0.0000 </r>
       <r>   20.9492    0.0000 </r>
       <r>   21.7986    0.0000 </r>
       <r>   22.4470    0.0000 </r>
       <r>   24.0081    0.0000 </r>
      </set>
      <set comment="kpoint 217">
       <r>   -2.3468    1.0000 </r>
       <r>   -1.6139    1.0000 </r>
       <r>    1.5951    1.0000 </r>
       <r>    2.2762    1.0000 </r>
       <r>    8.9551    0.0000 </r>
       <r>   10.2402    0.0000 </r>
       <r>   10.9516    0.0000 </r>
       <r>   10.9567    0.0000 </r>
       <r>   15.1836    0.0000 </r>
       <r>   16.2620    0.0000 </r>
       <r>   18.2431    0.0000 </r>
       <r>   19.4138    0.0000 </r>
       <r>   21.1730    0.0000 </r>
       <r>   22.1962    0.0000 </r>
       <r>   23.5435    0.0000 </r>
       <r>   23.6949    0.0000 </r>
      </set>
      <set comment="kpoint 218">
       <r>   -2.5413    1.0000 </r>
       <r>   -1.4533    1.0000 </r>
       <r>    1.8669    1.0000 </r>
       <r>    2.2428    1.0000 </r>
       <r>    8.6134    0.0000 </r>
       <r>    8.8226    0.0000 </r>
       <r>   11.1811    0.0000 </r>
       <r>   12.7508    0.0000 </r>
       <r>   15.1660    0.0000 </r>
       <r>   16.6094    0.0000 </r>
       <r>   17.9394    0.0000 </r>
       <r>   19.2560    0.0000 </r>
       <r>   21.1020    0.0000 </r>
       <r>   21.8505    0.0000 </r>
       <r>   22.4458    0.0000 </r>
       <r>   23.6085    0.0000 </r>
      </set>
      <set comment="kpoint 219">
       <r>   -3.2040    1.0000 </r>
       <r>   -0.8362    1.0000 </r>
       <r>    2.0225    1.0000 </r>
       <r>    2.8704    1.0000 </r>
       <r>    7.4035    0.0000 </r>
       <r>    8.7037    0.0000 </r>
       <r>   11.5849    0.0000 </r>
       <r>   13.6786    0.0000 </r>
       <r>   14.8586    0.0000 </r>
       <r>   16.7210    0.0000 </r>
       <r>   17.5886    0.0000 </r>
       <r>   19.3067    0.0000 </r>
       <r>   20.0577    0.0000 </r>
       <r>   20.6154    0.0000 </r>
       <r>   22.5448    0.0000 </r>
       <r>   23.0973    0.0000 </r>
      </set>
      <set comment="kpoint 220">
       <r>   -3.1793    1.0000 </r>
       <r>   -1.0320    1.0000 </r>
       <r>    1.8055    1.0000 </r>
       <r>    3.4365    1.0000 </r>
       <r>    7.1114    0.0000 </r>
       <r>   10.3524    0.0000 </r>
       <r>   11.6603    0.0000 </r>
       <r>   11.7231    0.0000 </r>
       <r>   15.0341    0.0000 </r>
       <r>   15.1533    0.0000 </r>
       <r>   18.6658    0.0000 </r>
       <r>   18.6783    0.0000 </r>
       <r>   19.1947    0.0000 </r>
       <r>   23.0631    0.0000 </r>
       <r>   23.0750    0.0000 </r>
       <r>   23.5794    0.0000 </r>
      </set>
      <set comment="kpoint 221">
       <r>   -2.7445    1.0000 </r>
       <r>   -1.3249    1.0000 </r>
       <r>    1.5130    1.0000 </r>
       <r>    2.9809    1.0000 </r>
       <r>    7.6098    0.0000 </r>
       <r>   10.2633    0.0000 </r>
       <r>   11.2811    0.0000 </r>
       <r>   12.8742    0.0000 </r>
       <r>   13.6313    0.0000 </r>
       <r>   15.6658    0.0000 </r>
       <r>   18.6017    0.0000 </r>
       <r>   19.8094    0.0000 </r>
       <r>   21.0623    0.0000 </r>
       <r>   21.5223    0.0000 </r>
       <r>   22.7239    0.0000 </r>
       <r>   23.6517    0.0000 </r>
      </set>
      <set comment="kpoint 222">
       <r>   -2.3430    1.0000 </r>
       <r>   -1.6187    1.0000 </r>
       <r>    1.5931    1.0000 </r>
       <r>    2.2793    1.0000 </r>
       <r>    8.9593    0.0000 </r>
       <r>   10.2358    0.0000 </r>
       <r>   10.9511    0.0000 </r>
       <r>   10.9573    0.0000 </r>
       <r>   15.1832    0.0000 </r>
       <r>   16.2623    0.0000 </r>
       <r>   18.2423    0.0000 </r>
       <r>   19.4145    0.0000 </r>
       <r>   21.1785    0.0000 </r>
       <r>   22.1927    0.0000 </r>
       <r>   23.5420    0.0000 </r>
       <r>   23.6906    0.0000 </r>
      </set>
      <set comment="kpoint 223">
       <r>   -2.3430    1.0000 </r>
       <r>   -1.6196    1.0000 </r>
       <r>    1.5918    1.0000 </r>
       <r>    2.2817    1.0000 </r>
       <r>    8.9658    0.0000 </r>
       <r>   10.2300    0.0000 </r>
       <r>   10.9476    0.0000 </r>
       <r>   10.9599    0.0000 </r>
       <r>   15.1838    0.0000 </r>
       <r>   16.2641    0.0000 </r>
       <r>   18.2430    0.0000 </r>
       <r>   19.4130    0.0000 </r>
       <r>   21.1813    0.0000 </r>
       <r>   22.1894    0.0000 </r>
       <r>   23.5397    0.0000 </r>
       <r>   23.6875    0.0000 </r>
      </set>
      <set comment="kpoint 224">
       <r>   -2.7448    1.0000 </r>
       <r>   -1.3270    1.0000 </r>
       <r>    1.5124    1.0000 </r>
       <r>    2.9847    1.0000 </r>
       <r>    7.6156    0.0000 </r>
       <r>   10.2565    0.0000 </r>
       <r>   11.2881    0.0000 </r>
       <r>   12.8677    0.0000 </r>
       <r>   13.6322    0.0000 </r>
       <r>   15.6689    0.0000 </r>
       <r>   18.6043    0.0000 </r>
       <r>   19.8125    0.0000 </r>
       <r>   21.0559    0.0000 </r>
       <r>   21.5165    0.0000 </r>
       <r>   22.7182    0.0000 </r>
       <r>   23.6601    0.0000 </r>
      </set>
      <set comment="kpoint 225">
       <r>   -2.6435    1.0000 </r>
       <r>   -1.4322    1.0000 </r>
       <r>    1.3561    1.0000 </r>
       <r>    3.3244    1.0000 </r>
       <r>    6.9471    0.0000 </r>
       <r>   10.1973    0.0000 </r>
       <r>   12.7365    0.0000 </r>
       <r>   13.2640    0.0000 </r>
       <r>   13.4942    0.0000 </r>
       <r>   13.8697    0.0000 </r>
       <r>   20.2484    0.0000 </r>
       <r>   20.6247    0.0000 </r>
       <r>   20.9662    0.0000 </r>
       <r>   21.1418    0.0000 </r>
       <r>   21.2442    0.0000 </r>
       <r>   22.8469    0.0000 </r>
      </set>
      <set comment="kpoint 226">
       <r>   -2.7418    1.0000 </r>
       <r>   -1.3313    1.0000 </r>
       <r>    1.5169    1.0000 </r>
       <r>    2.9811    1.0000 </r>
       <r>    7.6098    0.0000 </r>
       <r>   10.2662    0.0000 </r>
       <r>   11.2884    0.0000 </r>
       <r>   12.8651    0.0000 </r>
       <r>   13.6402    0.0000 </r>
       <r>   15.6559    0.0000 </r>
       <r>   18.5896    0.0000 </r>
       <r>   19.8231    0.0000 </r>
       <r>   21.0630    0.0000 </r>
       <r>   21.5171    0.0000 </r>
       <r>   22.7126    0.0000 </r>
       <r>   23.6641    0.0000 </r>
      </set>
      <set comment="kpoint 227">
       <r>   -2.9431    1.0000 </r>
       <r>   -1.1086    1.0000 </r>
       <r>    1.6390    1.0000 </r>
       <r>    2.7543    1.0000 </r>
       <r>    9.0647    0.0000 </r>
       <r>    9.4185    0.0000 </r>
       <r>   10.6723    0.0000 </r>
       <r>   12.5127    0.0000 </r>
       <r>   13.6802    0.0000 </r>
       <r>   16.1831    0.0000 </r>
       <r>   18.0573    0.0000 </r>
       <r>   19.5334    0.0000 </r>
       <r>   20.9555    0.0000 </r>
       <r>   21.7830    0.0000 </r>
       <r>   22.4425    0.0000 </r>
       <r>   24.0082    0.0000 </r>
      </set>
      <set comment="kpoint 228">
       <r>   -3.1232    1.0000 </r>
       <r>   -0.9352    1.0000 </r>
       <r>    1.4123    1.0000 </r>
       <r>    3.3021    1.0000 </r>
       <r>    7.9807    0.0000 </r>
       <r>   10.6702    0.0000 </r>
       <r>   11.3960    0.0000 </r>
       <r>   12.2746    0.0000 </r>
       <r>   13.1292    0.0000 </r>
       <r>   14.3288    0.0000 </r>
       <r>   19.7017    0.0000 </r>
       <r>   20.0193    0.0000 </r>
       <r>   20.1751    0.0000 </r>
       <r>   21.9666    0.0000 </r>
       <r>   22.0539    0.0000 </r>
       <r>   23.1437    0.0000 </r>
      </set>
      <set comment="kpoint 229">
       <r>   -3.1768    1.0000 </r>
       <r>   -1.0416    1.0000 </r>
       <r>    1.8130    1.0000 </r>
       <r>    3.4364    1.0000 </r>
       <r>    7.1116    0.0000 </r>
       <r>   10.3559    0.0000 </r>
       <r>   11.6669    0.0000 </r>
       <r>   11.7350    0.0000 </r>
       <r>   15.0256    0.0000 </r>
       <r>   15.1400    0.0000 </r>
       <r>   18.6623    0.0000 </r>
       <r>   18.6748    0.0000 </r>
       <r>   19.1858    0.0000 </r>
       <r>   23.0694    0.0000 </r>
       <r>   23.0883    0.0000 </r>
       <r>   23.5767    0.0000 </r>
      </set>
      <set comment="kpoint 230">
       <r>   -3.5389    1.0000 </r>
       <r>   -0.7305    1.0000 </r>
       <r>    2.1780    1.0000 </r>
       <r>    3.3696    1.0000 </r>
       <r>    7.8960    0.0000 </r>
       <r>    9.8755    0.0000 </r>
       <r>   10.6822    0.0000 </r>
       <r>   11.9494    0.0000 </r>
       <r>   14.5774    0.0000 </r>
       <r>   16.2338    0.0000 </r>
       <r>   17.2549    0.0000 </r>
       <r>   18.5139    0.0000 </r>
       <r>   19.2734    0.0000 </r>
       <r>   21.8911    0.0000 </r>
       <r>   23.2589    0.0000 </r>
       <r>   23.9767    0.0000 </r>
      </set>
      <set comment="kpoint 231">
       <r>   -3.7746    1.0000 </r>
       <r>   -0.3965    1.0000 </r>
       <r>    1.9425    1.0000 </r>
       <r>    3.7497    1.0000 </r>
       <r>    8.4641    0.0000 </r>
       <r>    9.4204    0.0000 </r>
       <r>   11.1351    0.0000 </r>
       <r>   11.7699    0.0000 </r>
       <r>   14.0420    0.0000 </r>
       <r>   14.3090    0.0000 </r>
       <r>   17.9458    0.0000 </r>
       <r>   19.5354    0.0000 </r>
       <r>   20.0791    0.0000 </r>
       <r>   20.6018    0.0000 </r>
       <r>   22.9800    0.0000 </r>
       <r>   23.2706    0.0000 </r>
      </set>
      <set comment="kpoint 232">
       <r>   -4.0196    1.0000 </r>
       <r>   -0.4040    1.0000 </r>
       <r>    2.9182    1.0000 </r>
       <r>    3.7603    1.0000 </r>
       <r>    7.5541    0.0000 </r>
       <r>   10.0283    0.0000 </r>
       <r>   10.5941    0.0000 </r>
       <r>   10.8731    0.0000 </r>
       <r>   15.4880    0.0000 </r>
       <r>   16.3968    0.0000 </r>
       <r>   17.0330    0.0000 </r>
       <r>   17.2005    0.0000 </r>
       <r>   18.2540    0.0000 </r>
       <r>   21.6108    0.0000 </r>
       <r>   23.2084    0.0000 </r>
       <r>   23.3904    0.0000 </r>
      </set>
      <set comment="kpoint 233">
       <r>   -4.3426    1.0000 </r>
       <r>   -0.0167    1.0000 </r>
       <r>    3.0166    1.0000 </r>
       <r>    4.1677    1.0000 </r>
       <r>    8.2902    0.0000 </r>
       <r>    8.9685    0.0000 </r>
       <r>   10.3961    0.0000 </r>
       <r>   11.3380    0.0000 </r>
       <r>   14.1956    0.0000 </r>
       <r>   15.3781    0.0000 </r>
       <r>   17.1278    0.0000 </r>
       <r>   17.4587    0.0000 </r>
       <r>   19.6704    0.0000 </r>
       <r>   20.7891    0.0000 </r>
       <r>   22.3155    0.0000 </r>
       <r>   23.2646    0.0000 </r>
      </set>
      <set comment="kpoint 234">
       <r>   -4.7501    1.0000 </r>
       <r>    0.3763    1.0000 </r>
       <r>    4.1854    1.0000 </r>
       <r>    4.2523    1.0000 </r>
       <r>    7.8478    0.0000 </r>
       <r>    8.9318    0.0000 </r>
       <r>    9.7220    0.0000 </r>
       <r>   11.7247    0.0000 </r>
       <r>   14.4575    0.0000 </r>
       <r>   14.5234    0.0000 </r>
       <r>   15.0989    0.0000 </r>
       <r>   18.9517    0.0000 </r>
       <r>   19.1988    0.0000 </r>
       <r>   20.6712    0.0000 </r>
       <r>   22.3690    0.0000 </r>
       <r>   22.7295    0.0000 </r>
      </set>
      <set comment="kpoint 235">
       <r>   -4.6180    1.0000 </r>
       <r>   -0.0975    1.0000 </r>
       <r>    4.5781    1.0000 </r>
       <r>    4.5833    1.0000 </r>
       <r>    7.2518    0.0000 </r>
       <r>    9.0961    0.0000 </r>
       <r>    9.0981    0.0000 </r>
       <r>   13.4746    0.0000 </r>
       <r>   13.9895    0.0000 </r>
       <r>   13.9966    0.0000 </r>
       <r>   14.9736    0.0000 </r>
       <r>   19.4516    0.0000 </r>
       <r>   19.4918    0.0000 </r>
       <r>   19.5005    0.0000 </r>
       <r>   22.0558    0.0000 </r>
       <r>   23.7415    0.0000 </r>
      </set>
      <set comment="kpoint 236">
       <r>   -4.7499    1.0000 </r>
       <r>    0.3761    1.0000 </r>
       <r>    4.1826    1.0000 </r>
       <r>    4.2564    1.0000 </r>
       <r>    7.8482    0.0000 </r>
       <r>    8.9310    0.0000 </r>
       <r>    9.7204    0.0000 </r>
       <r>   11.7155    0.0000 </r>
       <r>   14.4593    0.0000 </r>
       <r>   14.5283    0.0000 </r>
       <r>   15.1024    0.0000 </r>
       <r>   18.9548    0.0000 </r>
       <r>   19.2037    0.0000 </r>
       <r>   20.6705    0.0000 </r>
       <r>   22.3690    0.0000 </r>
       <r>   22.7261    0.0000 </r>
      </set>
      <set comment="kpoint 237">
       <r>   -4.6872    1.0000 </r>
       <r>    0.8129    1.0000 </r>
       <r>    3.3863    1.0000 </r>
       <r>    3.7970    1.0000 </r>
       <r>    7.5185    0.0000 </r>
       <r>    9.6590    0.0000 </r>
       <r>   10.2557    0.0000 </r>
       <r>   10.8384    0.0000 </r>
       <r>   15.0859    0.0000 </r>
       <r>   15.2161    0.0000 </r>
       <r>   16.0899    0.0000 </r>
       <r>   18.8143    0.0000 </r>
       <r>   18.9609    0.0000 </r>
       <r>   20.5995    0.0000 </r>
       <r>   21.5310    0.0000 </r>
       <r>   22.7991    0.0000 </r>
      </set>
      <set comment="kpoint 238">
       <r>   -4.4276    1.0000 </r>
       <r>    0.7603    1.0000 </r>
       <r>    3.0870    1.0000 </r>
       <r>    3.3909    1.0000 </r>
       <r>    6.7810    0.0000 </r>
       <r>    8.1465    0.0000 </r>
       <r>   11.9963    0.0000 </r>
       <r>   12.1828    0.0000 </r>
       <r>   15.4183    0.0000 </r>
       <r>   15.4853    0.0000 </r>
       <r>   17.6202    0.0000 </r>
       <r>   18.8476    0.0000 </r>
       <r>   19.3256    0.0000 </r>
       <r>   20.2873    0.0000 </r>
       <r>   21.3493    0.0000 </r>
       <r>   22.2849    0.0000 </r>
      </set>
      <set comment="kpoint 239">
       <r>   -3.9786    1.0000 </r>
       <r>    0.1081    1.0000 </r>
       <r>    3.1129    1.0000 </r>
       <r>    3.1203    1.0000 </r>
       <r>    6.2979    0.0000 </r>
       <r>    7.3137    0.0000 </r>
       <r>   13.3583    0.0000 </r>
       <r>   13.3588    0.0000 </r>
       <r>   15.8523    0.0000 </r>
       <r>   15.8855    0.0000 </r>
       <r>   18.6809    0.0000 </r>
       <r>   18.6858    0.0000 </r>
       <r>   18.9842    0.0000 </r>
       <r>   20.9532    0.0000 </r>
       <r>   21.2393    0.0000 </r>
       <r>   22.1512    0.0000 </r>
      </set>
      <set comment="kpoint 240">
       <r>   -3.3674    1.0000 </r>
       <r>   -0.6941    1.0000 </r>
       <r>    2.5889    1.0000 </r>
       <r>    3.0165    1.0000 </r>
       <r>    6.5087    0.0000 </r>
       <r>    7.3213    0.0000 </r>
       <r>   13.6774    0.0000 </r>
       <r>   13.6861    0.0000 </r>
       <r>   16.9909    0.0000 </r>
       <r>   17.0193    0.0000 </r>
       <r>   17.2934    0.0000 </r>
       <r>   17.5000    0.0000 </r>
       <r>   20.0392    0.0000 </r>
       <r>   20.5865    0.0000 </r>
       <r>   21.2380    0.0000 </r>
       <r>   23.2911    0.0000 </r>
      </set>
      <set comment="kpoint 241">
       <r>   -2.7060    1.0000 </r>
       <r>   -1.4005    1.0000 </r>
       <r>    1.8279    1.0000 </r>
       <r>    3.0883    1.0000 </r>
       <r>    6.6791    0.0000 </r>
       <r>    8.4864    0.0000 </r>
       <r>   13.4052    0.0000 </r>
       <r>   13.5452    0.0000 </r>
       <r>   15.2778    0.0000 </r>
       <r>   15.3665    0.0000 </r>
       <r>   18.8145    0.0000 </r>
       <r>   19.1446    0.0000 </r>
       <r>   20.7801    0.0000 </r>
       <r>   20.8400    0.0000 </r>
       <r>   21.4535    0.0000 </r>
       <r>   23.5924    0.0000 </r>
      </set>
      <set comment="kpoint 242">
       <r>   -2.6436    1.0000 </r>
       <r>   -1.4337    1.0000 </r>
       <r>    1.3546    1.0000 </r>
       <r>    3.3286    1.0000 </r>
       <r>    6.9521    0.0000 </r>
       <r>   10.1891    0.0000 </r>
       <r>   12.7350    0.0000 </r>
       <r>   13.2665    0.0000 </r>
       <r>   13.4962    0.0000 </r>
       <r>   13.8728    0.0000 </r>
       <r>   20.2484    0.0000 </r>
       <r>   20.6274    0.0000 </r>
       <r>   20.9668    0.0000 </r>
       <r>   21.1386    0.0000 </r>
       <r>   21.2415    0.0000 </r>
       <r>   22.8482    0.0000 </r>
      </set>
      <set comment="kpoint 243">
       <r>   -3.2328    1.0000 </r>
       <r>   -0.9635    1.0000 </r>
       <r>    1.5314    1.0000 </r>
       <r>    3.7104    1.0000 </r>
       <r>    7.4002    0.0000 </r>
       <r>   11.3816    0.0000 </r>
       <r>   11.4015    0.0000 </r>
       <r>   12.2773    0.0000 </r>
       <r>   13.3340    0.0000 </r>
       <r>   13.4106    0.0000 </r>
       <r>   18.6238    0.0000 </r>
       <r>   20.6367    0.0000 </r>
       <r>   20.6497    0.0000 </r>
       <r>   21.4304    0.0000 </r>
       <r>   22.0450    0.0000 </r>
       <r>   23.2649    0.0000 </r>
      </set>
      <set comment="kpoint 244">
       <r>   -3.8264    1.0000 </r>
       <r>   -0.6968    1.0000 </r>
       <r>    2.4359    1.0000 </r>
       <r>    4.1661    1.0000 </r>
       <r>    7.8982    0.0000 </r>
       <r>    9.8949    0.0000 </r>
       <r>   10.0829    0.0000 </r>
       <r>   13.2870    0.0000 </r>
       <r>   13.3902    0.0000 </r>
       <r>   14.2153    0.0000 </r>
       <r>   16.9329    0.0000 </r>
       <r>   19.2966    0.0000 </r>
       <r>   20.2729    0.0000 </r>
       <r>   20.4891    0.0000 </r>
       <r>   21.9268    0.0000 </r>
       <r>   24.2576    0.0000 </r>
      </set>
      <set comment="kpoint 245">
       <r>   -4.3026    1.0000 </r>
       <r>   -0.4556    1.0000 </r>
       <r>    3.6795    1.0000 </r>
       <r>    4.5382    1.0000 </r>
       <r>    7.7747    0.0000 </r>
       <r>    9.1463    0.0000 </r>
       <r>    9.2298    0.0000 </r>
       <r>   13.3360    0.0000 </r>
       <r>   13.5987    0.0000 </r>
       <r>   14.7570    0.0000 </r>
       <r>   16.7422    0.0000 </r>
       <r>   17.4206    0.0000 </r>
       <r>   19.8594    0.0000 </r>
       <r>   20.0315    0.0000 </r>
       <r>   22.1812    0.0000 </r>
       <r>   23.6466    0.0000 </r>
      </set>
      <set comment="kpoint 246">
       <r>   -4.9693    1.0000 </r>
       <r>    0.8516    1.0000 </r>
       <r>    3.8052    1.0000 </r>
       <r>    4.8538    1.0000 </r>
       <r>    7.9884    0.0000 </r>
       <r>    9.1590    0.0000 </r>
       <r>    9.3511    0.0000 </r>
       <r>   12.2674    0.0000 </r>
       <r>   12.4263    0.0000 </r>
       <r>   14.9329    0.0000 </r>
       <r>   15.1163    0.0000 </r>
       <r>   18.2901    0.0000 </r>
       <r>   19.6263    0.0000 </r>
       <r>   21.4515    0.0000 </r>
       <r>   21.4547    0.0000 </r>
       <r>   23.1127    0.0000 </r>
      </set>
      <set comment="kpoint 247">
       <r>   -4.9892    1.0000 </r>
       <r>    1.3053    1.0000 </r>
       <r>    3.2757    1.0000 </r>
       <r>    4.5030    1.0000 </r>
       <r>    8.2667    0.0000 </r>
       <r>    9.1454    0.0000 </r>
       <r>   10.2958    0.0000 </r>
       <r>   10.5020    0.0000 </r>
       <r>   13.1176    0.0000 </r>
       <r>   15.4021    0.0000 </r>
       <r>   15.9251    0.0000 </r>
       <r>   17.8208    0.0000 </r>
       <r>   19.3827    0.0000 </r>
       <r>   20.8126    0.0000 </r>
       <r>   21.4700    0.0000 </r>
       <r>   23.4709    0.0000 </r>
      </set>
      <set comment="kpoint 248">
       <r>   -4.8068    1.0000 </r>
       <r>    1.3282    1.0000 </r>
       <r>    3.1249    1.0000 </r>
       <r>    3.8286    1.0000 </r>
       <r>    7.4057    0.0000 </r>
       <r>    8.9243    0.0000 </r>
       <r>   10.5644    0.0000 </r>
       <r>   11.5999    0.0000 </r>
       <r>   14.0327    0.0000 </r>
       <r>   15.5179    0.0000 </r>
       <r>   17.0040    0.0000 </r>
       <r>   18.0521    0.0000 </r>
       <r>   19.3383    0.0000 </r>
       <r>   20.7814    0.0000 </r>
       <r>   20.8639    0.0000 </r>
       <r>   23.0625    0.0000 </r>
      </set>
      <set comment="kpoint 249">
       <r>   -4.4277    1.0000 </r>
       <r>    0.7640    1.0000 </r>
       <r>    3.0903    1.0000 </r>
       <r>    3.3833    1.0000 </r>
       <r>    6.7780    0.0000 </r>
       <r>    8.1497    0.0000 </r>
       <r>   11.9919    0.0000 </r>
       <r>   12.1787    0.0000 </r>
       <r>   15.4230    0.0000 </r>
       <r>   15.4900    0.0000 </r>
       <r>   17.6194    0.0000 </r>
       <r>   18.8550    0.0000 </r>
       <r>   19.3182    0.0000 </r>
       <r>   20.2867    0.0000 </r>
       <r>   21.3587    0.0000 </r>
       <r>   22.2931    0.0000 </r>
      </set>
      <set comment="kpoint 250">
       <r>   -3.8718    1.0000 </r>
       <r>   -0.0250    1.0000 </r>
       <r>    2.6563    1.0000 </r>
       <r>    3.0402    1.0000 </r>
       <r>    7.0559    0.0000 </r>
       <r>    7.9055    0.0000 </r>
       <r>   11.9241    0.0000 </r>
       <r>   13.3245    0.0000 </r>
       <r>   15.6545    0.0000 </r>
       <r>   16.7979    0.0000 </r>
       <r>   17.3273    0.0000 </r>
       <r>   18.7706    0.0000 </r>
       <r>   19.6284    0.0000 </r>
       <r>   20.2975    0.0000 </r>
       <r>   21.7104    0.0000 </r>
       <r>   22.3000    0.0000 </r>
      </set>
      <set comment="kpoint 251">
       <r>   -3.2037    1.0000 </r>
       <r>   -0.8359    1.0000 </r>
       <r>    2.0227    1.0000 </r>
       <r>    2.8698    1.0000 </r>
       <r>    7.4029    0.0000 </r>
       <r>    8.7033    0.0000 </r>
       <r>   11.5774    0.0000 </r>
       <r>   13.6843    0.0000 </r>
       <r>   14.8679    0.0000 </r>
       <r>   16.7124    0.0000 </r>
       <r>   17.5806    0.0000 </r>
       <r>   19.3169    0.0000 </r>
       <r>   20.0634    0.0000 </r>
       <r>   20.6168    0.0000 </r>
       <r>   22.5392    0.0000 </r>
       <r>   23.0953    0.0000 </r>
      </set>
      <set comment="kpoint 252">
       <r>   -2.7447    1.0000 </r>
       <r>   -1.3268    1.0000 </r>
       <r>    1.5125    1.0000 </r>
       <r>    2.9845    1.0000 </r>
       <r>    7.6152    0.0000 </r>
       <r>   10.2562    0.0000 </r>
       <r>   11.2803    0.0000 </r>
       <r>   12.8757    0.0000 </r>
       <r>   13.6398    0.0000 </r>
       <r>   15.6608    0.0000 </r>
       <r>   18.5936    0.0000 </r>
       <r>   19.8163    0.0000 </r>
       <r>   21.0663    0.0000 </r>
       <r>   21.5260    0.0000 </r>
       <r>   22.7165    0.0000 </r>
       <r>   23.6496    0.0000 </r>
      </set>
      <set comment="kpoint 253">
       <r>   -3.1232    1.0000 </r>
       <r>   -0.9352    1.0000 </r>
       <r>    1.4123    1.0000 </r>
       <r>    3.3021    1.0000 </r>
       <r>    7.9806    0.0000 </r>
       <r>   10.6698    0.0000 </r>
       <r>   11.3958    0.0000 </r>
       <r>   12.2746    0.0000 </r>
       <r>   13.1295    0.0000 </r>
       <r>   14.3291    0.0000 </r>
       <r>   19.7017    0.0000 </r>
       <r>   20.0199    0.0000 </r>
       <r>   20.1751    0.0000 </r>
       <r>   21.9663    0.0000 </r>
       <r>   22.0545    0.0000 </r>
       <r>   23.1433    0.0000 </r>
      </set>
      <set comment="kpoint 254">
       <r>   -3.7746    1.0000 </r>
       <r>   -0.3967    1.0000 </r>
       <r>    1.9423    1.0000 </r>
       <r>    3.7503    1.0000 </r>
       <r>    8.4640    0.0000 </r>
       <r>    9.4260    0.0000 </r>
       <r>   11.1277    0.0000 </r>
       <r>   11.7644    0.0000 </r>
       <r>   14.0489    0.0000 </r>
       <r>   14.3098    0.0000 </r>
       <r>   17.9452    0.0000 </r>
       <r>   19.5362    0.0000 </r>
       <r>   20.0879    0.0000 </r>
       <r>   20.6009    0.0000 </r>
       <r>   22.9692    0.0000 </r>
       <r>   23.2652    0.0000 </r>
      </set>
      <set comment="kpoint 255">
       <r>   -4.3425    1.0000 </r>
       <r>   -0.0170    1.0000 </r>
       <r>    3.0156    1.0000 </r>
       <r>    4.1695    1.0000 </r>
       <r>    8.2929    0.0000 </r>
       <r>    8.9697    0.0000 </r>
       <r>   10.3913    0.0000 </r>
       <r>   11.3293    0.0000 </r>
       <r>   14.2047    0.0000 </r>
       <r>   15.3782    0.0000 </r>
       <r>   17.1274    0.0000 </r>
       <r>   17.4587    0.0000 </r>
       <r>   19.6809    0.0000 </r>
       <r>   20.7874    0.0000 </r>
       <r>   22.3143    0.0000 </r>
       <r>   23.2559    0.0000 </r>
      </set>
      <set comment="kpoint 256">
       <r>   -5.0912    1.0000 </r>
       <r>    1.5779    1.0000 </r>
       <r>    2.9986    1.0000 </r>
       <r>    4.9507    1.0000 </r>
       <r>    8.5660    0.0000 </r>
       <r>    9.3472    0.0000 </r>
       <r>    9.6388    0.0000 </r>
       <r>   11.2322    0.0000 </r>
       <r>   11.7286    0.0000 </r>
       <r>   15.4936    0.0000 </r>
       <r>   16.1724    0.0000 </r>
       <r>   17.2267    0.0000 </r>
       <r>   19.2609    0.0000 </r>
       <r>   20.5239    0.0000 </r>
       <r>   21.9957    0.0000 </r>
       <r>   24.0043    0.0000 </r>
      </set>
      <set comment="kpoint 257">
       <r>   -4.9893    1.0000 </r>
       <r>    1.3125    1.0000 </r>
       <r>    3.2681    1.0000 </r>
       <r>    4.5031    1.0000 </r>
       <r>    8.2598    0.0000 </r>
       <r>    9.1462    0.0000 </r>
       <r>   10.2960    0.0000 </r>
       <r>   10.5010    0.0000 </r>
       <r>   13.1249    0.0000 </r>
       <r>   15.4013    0.0000 </r>
       <r>   15.9212    0.0000 </r>
       <r>   17.8207    0.0000 </r>
       <r>   19.3864    0.0000 </r>
       <r>   20.8164    0.0000 </r>
       <r>   21.4721    0.0000 </r>
       <r>   23.4808    0.0000 </r>
      </set>
      <set comment="kpoint 258">
       <r>   -4.6875    1.0000 </r>
       <r>    0.8217    1.0000 </r>
       <r>    3.3844    1.0000 </r>
       <r>    3.7891    1.0000 </r>
       <r>    7.5115    0.0000 </r>
       <r>    9.6667    0.0000 </r>
       <r>   10.2498    0.0000 </r>
       <r>   10.8339    0.0000 </r>
       <r>   15.0917    0.0000 </r>
       <r>   15.2203    0.0000 </r>
       <r>   16.0865    0.0000 </r>
       <r>   18.8139    0.0000 </r>
       <r>   18.9665    0.0000 </r>
       <r>   20.6001    0.0000 </r>
       <r>   21.5422    0.0000 </r>
       <r>   22.8066    0.0000 </r>
      </set>
      <set comment="kpoint 259">
       <r>   -4.2003    1.0000 </r>
       <r>    0.2693    1.0000 </r>
       <r>    2.5574    1.0000 </r>
       <r>    3.5157    1.0000 </r>
       <r>    7.7614    0.0000 </r>
       <r>    9.3372    0.0000 </r>
       <r>   10.2471    0.0000 </r>
       <r>   11.9877    0.0000 </r>
       <r>   14.8888    0.0000 </r>
       <r>   16.2514    0.0000 </r>
       <r>   17.3689    0.0000 </r>
       <r>   18.0536    0.0000 </r>
       <r>   19.6548    0.0000 </r>
       <r>   20.2686    0.0000 </r>
       <r>   21.8767    0.0000 </r>
       <r>   23.6135    0.0000 </r>
      </set>
      <set comment="kpoint 260">
       <r>   -3.5681    1.0000 </r>
       <r>   -0.4110    1.0000 </r>
       <r>    1.9141    1.0000 </r>
       <r>    3.0629    1.0000 </r>
       <r>    8.6933    0.0000 </r>
       <r>    9.3392    0.0000 </r>
       <r>    9.8780    0.0000 </r>
       <r>   13.2238    0.0000 </r>
       <r>   14.5048    0.0000 </r>
       <r>   15.0591    0.0000 </r>
       <r>   19.0686    0.0000 </r>
       <r>   19.3913    0.0000 </r>
       <r>   19.7229    0.0000 </r>
       <r>   20.1253    0.0000 </r>
       <r>   22.1741    0.0000 </r>
       <r>   23.5205    0.0000 </r>
      </set>
      <set comment="kpoint 261">
       <r>   -2.9461    1.0000 </r>
       <r>   -1.1017    1.0000 </r>
       <r>    1.6375    1.0000 </r>
       <r>    2.7518    1.0000 </r>
       <r>    9.0705    0.0000 </r>
       <r>    9.4072    0.0000 </r>
       <r>   10.6666    0.0000 </r>
       <r>   12.5239    0.0000 </r>
       <r>   13.6769    0.0000 </r>
       <r>   16.1853    0.0000 </r>
       <r>   18.0635    0.0000 </r>
       <r>   19.5286    0.0000 </r>
       <r>   20.9505    0.0000 </r>
       <r>   21.7985    0.0000 </r>
       <r>   22.4455    0.0000 </r>
       <r>   23.9983    0.0000 </r>
      </set>
      <set comment="kpoint 262">
       <r>   -2.9452    1.0000 </r>
       <r>   -1.1043    1.0000 </r>
       <r>    1.6372    1.0000 </r>
       <r>    2.7540    1.0000 </r>
       <r>    9.0616    0.0000 </r>
       <r>    9.4170    0.0000 </r>
       <r>   10.6767    0.0000 </r>
       <r>   12.5124    0.0000 </r>
       <r>   13.6773    0.0000 </r>
       <r>   16.1864    0.0000 </r>
       <r>   18.0613    0.0000 </r>
       <r>   19.5303    0.0000 </r>
       <r>   20.9555    0.0000 </r>
       <r>   21.7839    0.0000 </r>
       <r>   22.4425    0.0000 </r>
       <r>   24.0143    0.0000 </r>
      </set>
      <set comment="kpoint 263">
       <r>   -3.5671    1.0000 </r>
       <r>   -0.4171    1.0000 </r>
       <r>    1.9139    1.0000 </r>
       <r>    3.0690    1.0000 </r>
       <r>    8.6919    0.0000 </r>
       <r>    9.3435    0.0000 </r>
       <r>    9.8861    0.0000 </r>
       <r>   13.2245    0.0000 </r>
       <r>   14.4926    0.0000 </r>
       <r>   15.0606    0.0000 </r>
       <r>   19.0743    0.0000 </r>
       <r>   19.3859    0.0000 </r>
       <r>   19.7189    0.0000 </r>
       <r>   20.1165    0.0000 </r>
       <r>   22.1738    0.0000 </r>
       <r>   23.5213    0.0000 </r>
      </set>
      <set comment="kpoint 264">
       <r>   -4.1997    1.0000 </r>
       <r>    0.2609    1.0000 </r>
       <r>    2.5574    1.0000 </r>
       <r>    3.5248    1.0000 </r>
       <r>    7.7680    0.0000 </r>
       <r>    9.3306    0.0000 </r>
       <r>   10.2575    0.0000 </r>
       <r>   11.9881    0.0000 </r>
       <r>   14.8910    0.0000 </r>
       <r>   16.2437    0.0000 </r>
       <r>   17.3543    0.0000 </r>
       <r>   18.0574    0.0000 </r>
       <r>   19.6568    0.0000 </r>
       <r>   20.2626    0.0000 </r>
       <r>   21.8727    0.0000 </r>
       <r>   23.6128    0.0000 </r>
      </set>
      <set comment="kpoint 265">
       <r>   -4.9696    1.0000 </r>
       <r>    0.8613    1.0000 </r>
       <r>    3.7943    1.0000 </r>
       <r>    4.8548    1.0000 </r>
       <r>    7.9815    0.0000 </r>
       <r>    9.1492    0.0000 </r>
       <r>    9.3497    0.0000 </r>
       <r>   12.2752    0.0000 </r>
       <r>   12.4359    0.0000 </r>
       <r>   14.9287    0.0000 </r>
       <r>   15.1147    0.0000 </r>
       <r>   18.2900    0.0000 </r>
       <r>   19.6306    0.0000 </r>
       <r>   21.4602    0.0000 </r>
       <r>   21.4604    0.0000 </r>
       <r>   23.1164    0.0000 </r>
      </set>
      <set comment="kpoint 266">
       <r>   -4.7504    1.0000 </r>
       <r>    0.3864    1.0000 </r>
       <r>    4.1795    1.0000 </r>
       <r>    4.2480    1.0000 </r>
       <r>    7.8400    0.0000 </r>
       <r>    8.9243    0.0000 </r>
       <r>    9.7164    0.0000 </r>
       <r>   11.7242    0.0000 </r>
       <r>   14.4551    0.0000 </r>
       <r>   14.5334    0.0000 </r>
       <r>   15.1074    0.0000 </r>
       <r>   18.9567    0.0000 </r>
       <r>   19.2084    0.0000 </r>
       <r>   20.6763    0.0000 </r>
       <r>   22.3819    0.0000 </r>
       <r>   22.7300    0.0000 </r>
      </set>
      <set comment="kpoint 267">
       <r>   -4.3434    1.0000 </r>
       <r>   -0.0063    1.0000 </r>
       <r>    3.0143    1.0000 </r>
       <r>    4.1590    1.0000 </r>
       <r>    8.2855    0.0000 </r>
       <r>    8.9583    0.0000 </r>
       <r>   10.3920    0.0000 </r>
       <r>   11.3375    0.0000 </r>
       <r>   14.1997    0.0000 </r>
       <r>   15.3812    0.0000 </r>
       <r>   17.1419    0.0000 </r>
       <r>   17.4631    0.0000 </r>
       <r>   19.6778    0.0000 </r>
       <r>   20.7947    0.0000 </r>
       <r>   22.3220    0.0000 </r>
       <r>   23.2652    0.0000 </r>
      </set>
      <set comment="kpoint 268">
       <r>   -3.7760    1.0000 </r>
       <r>   -0.3867    1.0000 </r>
       <r>    1.9408    1.0000 </r>
       <r>    3.7416    1.0000 </r>
       <r>    8.4545    0.0000 </r>
       <r>    9.4173    0.0000 </r>
       <r>   11.1359    0.0000 </r>
       <r>   11.7643    0.0000 </r>
       <r>   14.0486    0.0000 </r>
       <r>   14.3173    0.0000 </r>
       <r>   17.9383    0.0000 </r>
       <r>   19.5485    0.0000 </r>
       <r>   20.0908    0.0000 </r>
       <r>   20.6090    0.0000 </r>
       <r>   22.9818    0.0000 </r>
       <r>   23.2663    0.0000 </r>
      </set>
      <set comment="kpoint 269">
       <r>   -3.1253    1.0000 </r>
       <r>   -0.9283    1.0000 </r>
       <r>    1.4137    1.0000 </r>
       <r>    3.2949    1.0000 </r>
       <r>    7.9709    0.0000 </r>
       <r>   10.6726    0.0000 </r>
       <r>   11.3935    0.0000 </r>
       <r>   12.2862    0.0000 </r>
       <r>   13.1274    0.0000 </r>
       <r>   14.3262    0.0000 </r>
       <r>   19.6943    0.0000 </r>
       <r>   20.0191    0.0000 </r>
       <r>   20.1806    0.0000 </r>
       <r>   21.9827    0.0000 </r>
       <r>   22.0567    0.0000 </r>
       <r>   23.1477    0.0000 </r>
      </set>
      <set comment="kpoint 270">
       <r>   -2.7459    1.0000 </r>
       <r>   -1.3248    1.0000 </r>
       <r>    1.5171    1.0000 </r>
       <r>    2.9785    1.0000 </r>
       <r>    7.6055    0.0000 </r>
       <r>   10.2693    0.0000 </r>
       <r>   11.2895    0.0000 </r>
       <r>   12.8665    0.0000 </r>
       <r>   13.6352    0.0000 </r>
       <r>   15.6594    0.0000 </r>
       <r>   18.5942    0.0000 </r>
       <r>   19.8197    0.0000 </r>
       <r>   21.0672    0.0000 </r>
       <r>   21.5107    0.0000 </r>
       <r>   22.7132    0.0000 </r>
       <r>   23.6623    0.0000 </r>
      </set>
      <set comment="kpoint 271">
       <r>   -3.2033    1.0000 </r>
       <r>   -0.8382    1.0000 </r>
       <r>    2.0284    1.0000 </r>
       <r>    2.8659    1.0000 </r>
       <r>    7.3936    0.0000 </r>
       <r>    8.7143    0.0000 </r>
       <r>   11.5879    0.0000 </r>
       <r>   13.6857    0.0000 </r>
       <r>   14.8530    0.0000 </r>
       <r>   16.7128    0.0000 </r>
       <r>   17.5785    0.0000 </r>
       <r>   19.3075    0.0000 </r>
       <r>   20.0624    0.0000 </r>
       <r>   20.6210    0.0000 </r>
       <r>   22.5508    0.0000 </r>
       <r>   23.0936    0.0000 </r>
      </set>
      <set comment="kpoint 272">
       <r>   -3.8714    1.0000 </r>
       <r>   -0.0287    1.0000 </r>
       <r>    2.6567    1.0000 </r>
       <r>    3.0437    1.0000 </r>
       <r>    7.0549    0.0000 </r>
       <r>    7.9069    0.0000 </r>
       <r>   11.9345    0.0000 </r>
       <r>   13.3251    0.0000 </r>
       <r>   15.6545    0.0000 </r>
       <r>   16.7856    0.0000 </r>
       <r>   17.3141    0.0000 </r>
       <r>   18.7737    0.0000 </r>
       <r>   19.6276    0.0000 </r>
       <r>   20.3036    0.0000 </r>
       <r>   21.7075    0.0000 </r>
       <r>   22.3087    0.0000 </r>
      </set>
      <set comment="kpoint 273">
       <r>   -4.6189    1.0000 </r>
       <r>   -0.0867    1.0000 </r>
       <r>    4.5709    1.0000 </r>
       <r>    4.5794    1.0000 </r>
       <r>    7.2433    0.0000 </r>
       <r>    9.0861    0.0000 </r>
       <r>    9.0959    0.0000 </r>
       <r>   13.4689    0.0000 </r>
       <r>   13.9987    0.0000 </r>
       <r>   14.0022    0.0000 </r>
       <r>   14.9811    0.0000 </r>
       <r>   19.4553    0.0000 </r>
       <r>   19.5017    0.0000 </r>
       <r>   19.5046    0.0000 </r>
       <r>   22.0571    0.0000 </r>
       <r>   23.7539    0.0000 </r>
      </set>
      <set comment="kpoint 274">
       <r>   -4.3039    1.0000 </r>
       <r>   -0.4444    1.0000 </r>
       <r>    3.6767    1.0000 </r>
       <r>    4.5292    1.0000 </r>
       <r>    7.7660    0.0000 </r>
       <r>    9.1374    0.0000 </r>
       <r>    9.2270    0.0000 </r>
       <r>   13.3328    0.0000 </r>
       <r>   13.6028    0.0000 </r>
       <r>   14.7626    0.0000 </r>
       <r>   16.7564    0.0000 </r>
       <r>   17.4281    0.0000 </r>
       <r>   19.8640    0.0000 </r>
       <r>   20.0336    0.0000 </r>
       <r>   22.1845    0.0000 </r>
       <r>   23.6559    0.0000 </r>
      </set>
      <set comment="kpoint 275">
       <r>   -3.8284    1.0000 </r>
       <r>   -0.6853    1.0000 </r>
       <r>    2.4329    1.0000 </r>
       <r>    4.1577    1.0000 </r>
       <r>    7.8888    0.0000 </r>
       <r>    9.8875    0.0000 </r>
       <r>   10.0801    0.0000 </r>
       <r>   13.2893    0.0000 </r>
       <r>   13.3935    0.0000 </r>
       <r>   14.2253    0.0000 </r>
       <r>   16.9293    0.0000 </r>
       <r>   19.3122    0.0000 </r>
       <r>   20.2776    0.0000 </r>
       <r>   20.4937    0.0000 </r>
       <r>   21.9325    0.0000 </r>
       <r>   24.2638    0.0000 </r>
      </set>
      <set comment="kpoint 276">
       <r>   -3.2357    1.0000 </r>
       <r>   -0.9530    1.0000 </r>
       <r>    1.5303    1.0000 </r>
       <r>    3.7026    1.0000 </r>
       <r>    7.3909    0.0000 </r>
       <r>   11.3806    0.0000 </r>
       <r>   11.3953    0.0000 </r>
       <r>   12.2900    0.0000 </r>
       <r>   13.3336    0.0000 </r>
       <r>   13.4120    0.0000 </r>
       <r>   18.6167    0.0000 </r>
       <r>   20.6463    0.0000 </r>
       <r>   20.6510    0.0000 </r>
       <r>   21.4360    0.0000 </r>
       <r>   22.0668    0.0000 </r>
       <r>   23.2596    0.0000 </r>
      </set>
      <set comment="kpoint 277">
       <r>   -2.6474    1.0000 </r>
       <r>   -1.4268    1.0000 </r>
       <r>    1.3580    1.0000 </r>
       <r>    3.3210    1.0000 </r>
       <r>    6.9429    0.0000 </r>
       <r>   10.2008    0.0000 </r>
       <r>   12.7406    0.0000 </r>
       <r>   13.2611    0.0000 </r>
       <r>   13.4961    0.0000 </r>
       <r>   13.8673    0.0000 </r>
       <r>   20.2487    0.0000 </r>
       <r>   20.6205    0.0000 </r>
       <r>   20.9661    0.0000 </r>
       <r>   21.1447    0.0000 </r>
       <r>   21.2480    0.0000 </r>
       <r>   22.8394    0.0000 </r>
      </set>
      <set comment="kpoint 278">
       <r>   -2.7067    1.0000 </r>
       <r>   -1.3996    1.0000 </r>
       <r>    1.8345    1.0000 </r>
       <r>    3.0810    1.0000 </r>
       <r>    6.6699    0.0000 </r>
       <r>    8.4973    0.0000 </r>
       <r>   13.4137    0.0000 </r>
       <r>   13.5479    0.0000 </r>
       <r>   15.2699    0.0000 </r>
       <r>   15.3582    0.0000 </r>
       <r>   18.8048    0.0000 </r>
       <r>   19.1443    0.0000 </r>
       <r>   20.7845    0.0000 </r>
       <r>   20.8504    0.0000 </r>
       <r>   21.4559    0.0000 </r>
       <r>   23.5885    0.0000 </r>
      </set>
      <set comment="kpoint 279">
       <r>   -3.3673    1.0000 </r>
       <r>   -0.6950    1.0000 </r>
       <r>    2.5969    1.0000 </r>
       <r>    3.0092    1.0000 </r>
       <r>    6.5020    0.0000 </r>
       <r>    7.3286    0.0000 </r>
       <r>   13.6816    0.0000 </r>
       <r>   13.6913    0.0000 </r>
       <r>   16.9841    0.0000 </r>
       <r>   17.0107    0.0000 </r>
       <r>   17.2884    0.0000 </r>
       <r>   17.4971    0.0000 </r>
       <r>   20.0436    0.0000 </r>
       <r>   20.5945    0.0000 </r>
       <r>   21.2453    0.0000 </r>
       <r>   23.2936    0.0000 </r>
      </set>
      <set comment="kpoint 280">
       <r>   -4.0953    1.0000 </r>
       <r>   -0.7852    1.0000 </r>
       <r>    3.8798    1.0000 </r>
       <r>    4.2124    1.0000 </r>
       <r>    7.6965    0.0000 </r>
       <r>    8.8969    0.0000 </r>
       <r>    9.4802    0.0000 </r>
       <r>   12.9497    0.0000 </r>
       <r>   14.3687    0.0000 </r>
       <r>   15.9364    0.0000 </r>
       <r>   16.6243    0.0000 </r>
       <r>   17.3040    0.0000 </r>
       <r>   18.0913    0.0000 </r>
       <r>   20.3674    0.0000 </r>
       <r>   22.9252    0.0000 </r>
       <r>   24.4714    0.0000 </r>
      </set>
      <set comment="kpoint 281">
       <r>   -3.7428    1.0000 </r>
       <r>   -0.9684    1.0000 </r>
       <r>    2.9098    1.0000 </r>
       <r>    3.9573    1.0000 </r>
       <r>    8.2528    0.0000 </r>
       <r>    8.7732    0.0000 </r>
       <r>   10.3213    0.0000 </r>
       <r>   12.7833    0.0000 </r>
       <r>   14.3120    0.0000 </r>
       <r>   15.4440    0.0000 </r>
       <r>   16.7005    0.0000 </r>
       <r>   18.0711    0.0000 </r>
       <r>   18.9912    0.0000 </r>
       <r>   20.7794    0.0000 </r>
       <r>   23.1937    0.0000 </r>
       <r>   24.9727    0.0000 </r>
      </set>
      <set comment="kpoint 282">
       <r>   -3.2811    1.0000 </r>
       <r>   -1.0613    1.0000 </r>
       <r>    1.9465    1.0000 </r>
       <r>    3.4542    1.0000 </r>
       <r>    8.0998    0.0000 </r>
       <r>    9.6071    0.0000 </r>
       <r>   11.8268    0.0000 </r>
       <r>   12.3547    0.0000 </r>
       <r>   12.8305    0.0000 </r>
       <r>   15.5658    0.0000 </r>
       <r>   17.7132    0.0000 </r>
       <r>   18.5557    0.0000 </r>
       <r>   21.1000    0.0000 </r>
       <r>   21.5668    0.0000 </r>
       <r>   22.7919    0.0000 </r>
       <r>   23.7373    0.0000 </r>
      </set>
      <set comment="kpoint 283">
       <r>   -2.7456    1.0000 </r>
       <r>   -1.3236    1.0000 </r>
       <r>    1.5158    1.0000 </r>
       <r>    2.9782    1.0000 </r>
       <r>    7.6054    0.0000 </r>
       <r>   10.2677    0.0000 </r>
       <r>   11.2841    0.0000 </r>
       <r>   12.8736    0.0000 </r>
       <r>   13.6286    0.0000 </r>
       <r>   15.6661    0.0000 </r>
       <r>   18.6008    0.0000 </r>
       <r>   19.8095    0.0000 </r>
       <r>   21.0658    0.0000 </r>
       <r>   21.5153    0.0000 </r>
       <r>   22.7225    0.0000 </r>
       <r>   23.6556    0.0000 </r>
      </set>
      <set comment="kpoint 284">
       <r>   -2.2292    1.0000 </r>
       <r>   -1.8466    1.0000 </r>
       <r>    1.8259    1.0000 </r>
       <r>    2.6561    1.0000 </r>
       <r>    7.2635    0.0000 </r>
       <r>    8.5079    0.0000 </r>
       <r>   13.0007    0.0000 </r>
       <r>   13.2272    0.0000 </r>
       <r>   15.2525    0.0000 </r>
       <r>   15.8878    0.0000 </r>
       <r>   18.4834    0.0000 </r>
       <r>   19.2786    0.0000 </r>
       <r>   20.9861    0.0000 </r>
       <r>   21.6442    0.0000 </r>
       <r>   22.2015    0.0000 </r>
       <r>   22.6148    0.0000 </r>
      </set>
      <set comment="kpoint 285">
       <r>   -2.7214    1.0000 </r>
       <r>   -1.4096    1.0000 </r>
       <r>    2.4685    1.0000 </r>
       <r>    2.5882    1.0000 </r>
       <r>    6.9893    0.0000 </r>
       <r>    7.2601    0.0000 </r>
       <r>   13.4494    0.0000 </r>
       <r>   14.8395    0.0000 </r>
       <r>   15.4530    0.0000 </r>
       <r>   16.8748    0.0000 </r>
       <r>   17.5802    0.0000 </r>
       <r>   19.0640    0.0000 </r>
       <r>   19.2476    0.0000 </r>
       <r>   20.8601    0.0000 </r>
       <r>   22.1039    0.0000 </r>
       <r>   23.4655    0.0000 </r>
      </set>
      <set comment="kpoint 286">
       <r>   -3.5500    1.0000 </r>
       <r>   -1.0880    1.0000 </r>
       <r>    2.5777    1.0000 </r>
       <r>    3.8893    1.0000 </r>
       <r>    7.6485    0.0000 </r>
       <r>    9.8935    0.0000 </r>
       <r>   10.2960    0.0000 </r>
       <r>   12.4812    0.0000 </r>
       <r>   14.6513    0.0000 </r>
       <r>   15.1057    0.0000 </r>
       <r>   17.0462    0.0000 </r>
       <r>   18.3112    0.0000 </r>
       <r>   18.9695    0.0000 </r>
       <r>   21.1669    0.0000 </r>
       <r>   24.1906    0.0000 </r>
       <r>   24.4383    0.0000 </r>
      </set>
      <set comment="kpoint 287">
       <r>   -3.2805    1.0000 </r>
       <r>   -1.0621    1.0000 </r>
       <r>    1.9443    1.0000 </r>
       <r>    3.4566    1.0000 </r>
       <r>    8.1046    0.0000 </r>
       <r>    9.6018    0.0000 </r>
       <r>   11.8248    0.0000 </r>
       <r>   12.3534    0.0000 </r>
       <r>   12.8344    0.0000 </r>
       <r>   15.5658    0.0000 </r>
       <r>   17.7110    0.0000 </r>
       <r>   18.5580    0.0000 </r>
       <r>   21.1028    0.0000 </r>
       <r>   21.5644    0.0000 </r>
       <r>   22.7914    0.0000 </r>
       <r>   23.7397    0.0000 </r>
      </set>
      <set comment="kpoint 288">
       <r>   -2.9446    1.0000 </r>
       <r>   -1.1025    1.0000 </r>
       <r>    1.6364    1.0000 </r>
       <r>    2.7520    1.0000 </r>
       <r>    9.0617    0.0000 </r>
       <r>    9.4103    0.0000 </r>
       <r>   10.6761    0.0000 </r>
       <r>   12.5206    0.0000 </r>
       <r>   13.6698    0.0000 </r>
       <r>   16.1906    0.0000 </r>
       <r>   18.0687    0.0000 </r>
       <r>   19.5219    0.0000 </r>
       <r>   20.9518    0.0000 </r>
       <r>   21.7946    0.0000 </r>
       <r>   22.4453    0.0000 </r>
       <r>   24.0123    0.0000 </r>
      </set>
      <set comment="kpoint 289">
       <r>   -2.5385    1.0000 </r>
       <r>   -1.4566    1.0000 </r>
       <r>    1.8663    1.0000 </r>
       <r>    2.2440    1.0000 </r>
       <r>    8.6128    0.0000 </r>
       <r>    8.8221    0.0000 </r>
       <r>   11.1769    0.0000 </r>
       <r>   12.7564    0.0000 </r>
       <r>   15.1646    0.0000 </r>
       <r>   16.6085    0.0000 </r>
       <r>   17.9382    0.0000 </r>
       <r>   19.2571    0.0000 </r>
       <r>   21.1041    0.0000 </r>
       <r>   21.8542    0.0000 </r>
       <r>   22.4452    0.0000 </r>
       <r>   23.6044    0.0000 </r>
      </set>
      <set comment="kpoint 290">
       <r>   -2.2238    1.0000 </r>
       <r>   -1.8531    1.0000 </r>
       <r>    1.8205    1.0000 </r>
       <r>    2.6629    1.0000 </r>
       <r>    7.2731    0.0000 </r>
       <r>    8.4974    0.0000 </r>
       <r>   12.9986    0.0000 </r>
       <r>   13.2294    0.0000 </r>
       <r>   15.2530    0.0000 </r>
       <r>   15.8907    0.0000 </r>
       <r>   18.4832    0.0000 </r>
       <r>   19.2754    0.0000 </r>
       <r>   20.9872    0.0000 </r>
       <r>   21.6468    0.0000 </r>
       <r>   22.2068    0.0000 </r>
       <r>   22.6068    0.0000 </r>
      </set>
      <set comment="kpoint 291">
       <r>   -3.2340    1.0000 </r>
       <r>   -0.9559    1.0000 </r>
       <r>    1.5277    1.0000 </r>
       <r>    3.7065    1.0000 </r>
       <r>    7.3954    0.0000 </r>
       <r>   11.3751    0.0000 </r>
       <r>   11.3912    0.0000 </r>
       <r>   12.2917    0.0000 </r>
       <r>   13.3337    0.0000 </r>
       <r>   13.4150    0.0000 </r>
       <r>   18.6167    0.0000 </r>
       <r>   20.6499    0.0000 </r>
       <r>   20.6528    0.0000 </r>
       <r>   21.4341    0.0000 </r>
       <r>   22.0630    0.0000 </r>
       <r>   23.2556    0.0000 </r>
      </set>
      <set comment="kpoint 292">
       <r>   -3.1226    1.0000 </r>
       <r>   -0.9336    1.0000 </r>
       <r>    1.4128    1.0000 </r>
       <r>    3.2986    1.0000 </r>
       <r>    7.9753    0.0000 </r>
       <r>   10.6703    0.0000 </r>
       <r>   11.3935    0.0000 </r>
       <r>   12.2831    0.0000 </r>
       <r>   13.1280    0.0000 </r>
       <r>   14.3258    0.0000 </r>
       <r>   19.6994    0.0000 </r>
       <r>   20.0190    0.0000 </r>
       <r>   20.1777    0.0000 </r>
       <r>   21.9776    0.0000 </r>
       <r>   22.0554    0.0000 </r>
       <r>   23.1439    0.0000 </r>
      </set>
      <set comment="kpoint 293">
       <r>   -2.9427    1.0000 </r>
       <r>   -1.1084    1.0000 </r>
       <r>    1.6392    1.0000 </r>
       <r>    2.7535    1.0000 </r>
       <r>    9.0695    0.0000 </r>
       <r>    9.4133    0.0000 </r>
       <r>   10.6640    0.0000 </r>
       <r>   12.5218    0.0000 </r>
       <r>   13.6797    0.0000 </r>
       <r>   16.1811    0.0000 </r>
       <r>   18.0593    0.0000 </r>
       <r>   19.5327    0.0000 </r>
       <r>   20.9532    0.0000 </r>
       <r>   21.7935    0.0000 </r>
       <r>   22.4437    0.0000 </r>
       <r>   23.9964    0.0000 </r>
      </set>
      <set comment="kpoint 294">
       <r>   -2.7417    1.0000 </r>
       <r>   -1.3321    1.0000 </r>
       <r>    1.5150    1.0000 </r>
       <r>    2.9843    1.0000 </r>
       <r>    7.6150    0.0000 </r>
       <r>   10.2575    0.0000 </r>
       <r>   11.2823    0.0000 </r>
       <r>   12.8737    0.0000 </r>
       <r>   13.6421    0.0000 </r>
       <r>   15.6575    0.0000 </r>
       <r>   18.5881    0.0000 </r>
       <r>   19.8198    0.0000 </r>
       <r>   21.0657    0.0000 </r>
       <r>   21.5254    0.0000 </r>
       <r>   22.7145    0.0000 </r>
       <r>   23.6553    0.0000 </r>
      </set>
      <set comment="kpoint 295">
       <r>   -3.2324    1.0000 </r>
       <r>   -0.9627    1.0000 </r>
       <r>    1.5331    1.0000 </r>
       <r>    3.7064    1.0000 </r>
       <r>    7.3957    0.0000 </r>
       <r>   11.3848    0.0000 </r>
       <r>   11.4042    0.0000 </r>
       <r>   12.2839    0.0000 </r>
       <r>   13.3289    0.0000 </r>
       <r>   13.4047    0.0000 </r>
       <r>   18.6282    0.0000 </r>
       <r>   20.6374    0.0000 </r>
       <r>   20.6386    0.0000 </r>
       <r>   21.4313    0.0000 </r>
       <r>   22.0551    0.0000 </r>
       <r>   23.2708    0.0000 </r>
      </set>
      <set comment="kpoint 296">
       <r>   -3.2777    1.0000 </r>
       <r>   -1.0726    1.0000 </r>
       <r>    1.9521    1.0000 </r>
       <r>    3.4570    1.0000 </r>
       <r>    8.1051    0.0000 </r>
       <r>    9.6126    0.0000 </r>
       <r>   11.8364    0.0000 </r>
       <r>   12.3467    0.0000 </r>
       <r>   12.8294    0.0000 </r>
       <r>   15.5556    0.0000 </r>
       <r>   17.7138    0.0000 </r>
       <r>   18.5520    0.0000 </r>
       <r>   21.0928    0.0000 </r>
       <r>   21.5611    0.0000 </r>
       <r>   22.7849    0.0000 </r>
       <r>   23.7441    0.0000 </r>
      </set>
      <set comment="kpoint 297">
       <r>   -3.2778    1.0000 </r>
       <r>   -1.0728    1.0000 </r>
       <r>    1.9505    1.0000 </r>
       <r>    3.4594    1.0000 </r>
       <r>    8.1098    0.0000 </r>
       <r>    9.6074    0.0000 </r>
       <r>   11.8367    0.0000 </r>
       <r>   12.3394    0.0000 </r>
       <r>   12.8377    0.0000 </r>
       <r>   15.5573    0.0000 </r>
       <r>   17.7101    0.0000 </r>
       <r>   18.5525    0.0000 </r>
       <r>   21.1042    0.0000 </r>
       <r>   21.5491    0.0000 </r>
       <r>   22.7879    0.0000 </r>
       <r>   23.7430    0.0000 </r>
      </set>
      <set comment="kpoint 298">
       <r>   -3.5470    1.0000 </r>
       <r>   -1.1000    1.0000 </r>
       <r>    2.5878    1.0000 </r>
       <r>    3.8888    1.0000 </r>
       <r>    7.6499    0.0000 </r>
       <r>    9.9029    0.0000 </r>
       <r>   10.3080    0.0000 </r>
       <r>   12.4818    0.0000 </r>
       <r>   14.6451    0.0000 </r>
       <r>   15.0921    0.0000 </r>
       <r>   17.0505    0.0000 </r>
       <r>   18.2962    0.0000 </r>
       <r>   18.9596    0.0000 </r>
       <r>   21.1713    0.0000 </r>
       <r>   24.1757    0.0000 </r>
       <r>   24.4357    0.0000 </r>
      </set>
      <set comment="kpoint 299">
       <r>   -3.7402    1.0000 </r>
       <r>   -0.9804    1.0000 </r>
       <r>    2.9169    1.0000 </r>
       <r>    3.9607    1.0000 </r>
       <r>    8.2599    0.0000 </r>
       <r>    8.7769    0.0000 </r>
       <r>   10.3321    0.0000 </r>
       <r>   12.7866    0.0000 </r>
       <r>   14.3040    0.0000 </r>
       <r>   15.4357    0.0000 </r>
       <r>   16.6947    0.0000 </r>
       <r>   18.0626    0.0000 </r>
       <r>   18.9785    0.0000 </r>
       <r>   20.7845    0.0000 </r>
       <r>   23.1879    0.0000 </r>
       <r>   24.9638    0.0000 </r>
      </set>
      <set comment="kpoint 300">
       <r>   -4.0934    1.0000 </r>
       <r>   -0.7968    1.0000 </r>
       <r>    3.8913    1.0000 </r>
       <r>    4.2115    1.0000 </r>
       <r>    7.7039    0.0000 </r>
       <r>    8.8992    0.0000 </r>
       <r>    9.4924    0.0000 </r>
       <r>   12.9556    0.0000 </r>
       <r>   14.3685    0.0000 </r>
       <r>   15.9216    0.0000 </r>
       <r>   16.6094    0.0000 </r>
       <r>   17.2909    0.0000 </r>
       <r>   18.0885    0.0000 </r>
       <r>   20.3732    0.0000 </r>
       <r>   22.9204    0.0000 </r>
       <r>   24.4644    0.0000 </r>
      </set>
      <set comment="kpoint 301">
       <r>   -4.0205    1.0000 </r>
       <r>   -1.0950    1.0000 </r>
       <r>    4.4611    1.0000 </r>
       <r>    4.4661    1.0000 </r>
       <r>    7.1165    0.0000 </r>
       <r>    8.9933    0.0000 </r>
       <r>    8.9954    0.0000 </r>
       <r>   13.3576    0.0000 </r>
       <r>   15.5040    0.0000 </r>
       <r>   15.5112    0.0000 </r>
       <r>   16.4143    0.0000 </r>
       <r>   17.5173    0.0000 </r>
       <r>   17.5272    0.0000 </r>
       <r>   18.7542    0.0000 </r>
       <r>   23.7011    0.0000 </r>
       <r>   25.9874    0.0000 </r>
      </set>
      <set comment="kpoint 302">
       <r>   -4.0933    1.0000 </r>
       <r>   -0.7970    1.0000 </r>
       <r>    3.8884    1.0000 </r>
       <r>    4.2153    1.0000 </r>
       <r>    7.7046    0.0000 </r>
       <r>    8.8994    0.0000 </r>
       <r>    9.4907    0.0000 </r>
       <r>   12.9459    0.0000 </r>
       <r>   14.3687    0.0000 </r>
       <r>   15.9265    0.0000 </r>
       <r>   16.6150    0.0000 </r>
       <r>   17.2983    0.0000 </r>
       <r>   18.0930    0.0000 </r>
       <r>   20.3597    0.0000 </r>
       <r>   22.9205    0.0000 </r>
       <r>   24.4616    0.0000 </r>
      </set>
      <set comment="kpoint 303">
       <r>   -4.0193    1.0000 </r>
       <r>   -0.4044    1.0000 </r>
       <r>    2.9157    1.0000 </r>
       <r>    3.7643    1.0000 </r>
       <r>    7.5577    0.0000 </r>
       <r>   10.0254    0.0000 </r>
       <r>   10.5919    0.0000 </r>
       <r>   10.8639    0.0000 </r>
       <r>   15.4900    0.0000 </r>
       <r>   16.4009    0.0000 </r>
       <r>   17.0381    0.0000 </r>
       <r>   17.2076    0.0000 </r>
       <r>   18.2565    0.0000 </r>
       <r>   21.6078    0.0000 </r>
       <r>   23.2069    0.0000 </r>
       <r>   23.3796    0.0000 </r>
      </set>
      <set comment="kpoint 304">
       <r>   -3.7791    1.0000 </r>
       <r>   -0.2543    1.0000 </r>
       <r>    2.3737    1.0000 </r>
       <r>    3.3300    1.0000 </r>
       <r>    6.9833    0.0000 </r>
       <r>    8.8843    0.0000 </r>
       <r>   11.8337    0.0000 </r>
       <r>   12.0542    0.0000 </r>
       <r>   16.5685    0.0000 </r>
       <r>   16.8150    0.0000 </r>
       <r>   17.2044    0.0000 </r>
       <r>   17.3290    0.0000 </r>
       <r>   19.2072    0.0000 </r>
       <r>   21.1272    0.0000 </r>
       <r>   22.2408    0.0000 </r>
       <r>   23.8629    0.0000 </r>
      </set>
      <set comment="kpoint 305">
       <r>   -3.3665    1.0000 </r>
       <r>   -0.6966    1.0000 </r>
       <r>    2.5911    1.0000 </r>
       <r>    3.0164    1.0000 </r>
       <r>    6.5081    0.0000 </r>
       <r>    7.3212    0.0000 </r>
       <r>   13.6793    0.0000 </r>
       <r>   13.6903    0.0000 </r>
       <r>   16.9847    0.0000 </r>
       <r>   17.0216    0.0000 </r>
       <r>   17.2897    0.0000 </r>
       <r>   17.4924    0.0000 </r>
       <r>   20.0433    0.0000 </r>
       <r>   20.5905    0.0000 </r>
       <r>   21.2422    0.0000 </r>
       <r>   23.2937    0.0000 </r>
      </set>
      <set comment="kpoint 306">
       <r>   -2.7922    1.0000 </r>
       <r>   -1.4121    1.0000 </r>
       <r>    2.8578    1.0000 </r>
       <r>    2.8650    1.0000 </r>
       <r>    6.2605    0.0000 </r>
       <r>    6.5873    0.0000 </r>
       <r>   15.0278    0.0000 </r>
       <r>   15.0296    0.0000 </r>
       <r>   17.0892    0.0000 </r>
       <r>   17.0903    0.0000 </r>
       <r>   17.2575    0.0000 </r>
       <r>   17.6759    0.0000 </r>
       <r>   18.9620    0.0000 </r>
       <r>   19.0207    0.0000 </r>
       <r>   23.3009    0.0000 </r>
       <r>   24.1101    0.0000 </r>
      </set>
      <set comment="kpoint 307">
       <r>   -2.1549    1.0000 </r>
       <r>   -2.0494    1.0000 </r>
       <r>    2.4270    1.0000 </r>
       <r>    2.8897    1.0000 </r>
       <r>    6.4459    0.0000 </r>
       <r>    7.0111    0.0000 </r>
       <r>   14.9539    0.0000 </r>
       <r>   15.1902    0.0000 </r>
       <r>   15.7086    0.0000 </r>
       <r>   15.8928    0.0000 </r>
       <r>   18.7069    0.0000 </r>
       <r>   18.7309    0.0000 </r>
       <r>   18.8050    0.0000 </r>
       <r>   19.3903    0.0000 </r>
       <r>   23.3564    0.0000 </r>
       <r>   23.6764    0.0000 </r>
      </set>
      <set comment="kpoint 308">
       <r>   -2.7036    1.0000 </r>
       <r>   -1.4046    1.0000 </r>
       <r>    1.8299    1.0000 </r>
       <r>    3.0882    1.0000 </r>
       <r>    6.6789    0.0000 </r>
       <r>    8.4864    0.0000 </r>
       <r>   13.4100    0.0000 </r>
       <r>   13.5465    0.0000 </r>
       <r>   15.2764    0.0000 </r>
       <r>   15.3623    0.0000 </r>
       <r>   18.8070    0.0000 </r>
       <r>   19.1417    0.0000 </r>
       <r>   20.7812    0.0000 </r>
       <r>   20.8463    0.0000 </r>
       <r>   21.4588    0.0000 </r>
       <r>   23.5905    0.0000 </r>
      </set>
      <set comment="kpoint 309">
       <r>   -3.1766    1.0000 </r>
       <r>   -1.0423    1.0000 </r>
       <r>    1.8106    1.0000 </r>
       <r>    3.4404    1.0000 </r>
       <r>    7.1162    0.0000 </r>
       <r>   10.3467    0.0000 </r>
       <r>   11.6648    0.0000 </r>
       <r>   11.7321    0.0000 </r>
       <r>   15.0319    0.0000 </r>
       <r>   15.1458    0.0000 </r>
       <r>   18.6661    0.0000 </r>
       <r>   18.6723    0.0000 </r>
       <r>   19.1903    0.0000 </r>
       <r>   23.0667    0.0000 </r>
       <r>   23.0820    0.0000 </r>
       <r>   23.5686    0.0000 </r>
      </set>
      <set comment="kpoint 310">
       <r>   -3.5470    1.0000 </r>
       <r>   -1.1004    1.0000 </r>
       <r>    2.5852    1.0000 </r>
       <r>    3.8927    1.0000 </r>
       <r>    7.6537    0.0000 </r>
       <r>    9.9010    0.0000 </r>
       <r>   10.3058    0.0000 </r>
       <r>   12.4718    0.0000 </r>
       <r>   14.6505    0.0000 </r>
       <r>   15.0979    0.0000 </r>
       <r>   17.0488    0.0000 </r>
       <r>   18.3028    0.0000 </r>
       <r>   18.9655    0.0000 </r>
       <r>   21.1561    0.0000 </r>
       <r>   24.1788    0.0000 </r>
       <r>   24.4370    0.0000 </r>
      </set>
      <set comment="kpoint 311">
       <r>   -3.8299    1.0000 </r>
       <r>   -1.1903    1.0000 </r>
       <r>    3.7137    1.0000 </r>
       <r>    4.3145    1.0000 </r>
       <r>    7.6758    0.0000 </r>
       <r>    8.9576    0.0000 </r>
       <r>    9.3086    0.0000 </r>
       <r>   13.6620    0.0000 </r>
       <r>   14.8923    0.0000 </r>
       <r>   15.2221    0.0000 </r>
       <r>   16.4988    0.0000 </r>
       <r>   17.8793    0.0000 </r>
       <r>   18.1998    0.0000 </r>
       <r>   19.0261    0.0000 </r>
       <r>   24.3009    0.0000 </r>
       <r>   25.4501    0.0000 </r>
      </set>
      <set comment="kpoint 312">
       <r>   -4.3023    1.0000 </r>
       <r>   -0.4557    1.0000 </r>
       <r>    3.6832    1.0000 </r>
       <r>    4.5343    1.0000 </r>
       <r>    7.7734    0.0000 </r>
       <r>    9.1452    0.0000 </r>
       <r>    9.2313    0.0000 </r>
       <r>   13.3312    0.0000 </r>
       <r>   13.5930    0.0000 </r>
       <r>   14.7586    0.0000 </r>
       <r>   16.7547    0.0000 </r>
       <r>   17.4307    0.0000 </r>
       <r>   19.8530    0.0000 </r>
       <r>   20.0259    0.0000 </r>
       <r>   22.1798    0.0000 </r>
       <r>   23.6450    0.0000 </r>
      </set>
      <set comment="kpoint 313">
       <r>   -4.3422    1.0000 </r>
       <r>   -0.0168    1.0000 </r>
       <r>    3.0187    1.0000 </r>
       <r>    4.1658    1.0000 </r>
       <r>    8.2921    0.0000 </r>
       <r>    8.9657    0.0000 </r>
       <r>   10.3950    0.0000 </r>
       <r>   11.3283    0.0000 </r>
       <r>   14.1941    0.0000 </r>
       <r>   15.3826    0.0000 </r>
       <r>   17.1399    0.0000 </r>
       <r>   17.4664    0.0000 </r>
       <r>   19.6707    0.0000 </r>
       <r>   20.7865    0.0000 </r>
       <r>   22.3120    0.0000 </r>
       <r>   23.2583    0.0000 </r>
      </set>
      <set comment="kpoint 314">
       <r>   -4.1993    1.0000 </r>
       <r>    0.2615    1.0000 </r>
       <r>    2.5587    1.0000 </r>
       <r>    3.5226    1.0000 </r>
       <r>    7.7672    0.0000 </r>
       <r>    9.3298    0.0000 </r>
       <r>   10.2521    0.0000 </r>
       <r>   11.9914    0.0000 </r>
       <r>   14.8821    0.0000 </r>
       <r>   16.2519    0.0000 </r>
       <r>   17.3656    0.0000 </r>
       <r>   18.0582    0.0000 </r>
       <r>   19.6488    0.0000 </r>
       <r>   20.2642    0.0000 </r>
       <r>   21.8734    0.0000 </r>
       <r>   23.6153    0.0000 </r>
      </set>
      <set comment="kpoint 315">
       <r>   -3.8710    1.0000 </r>
       <r>   -0.0280    1.0000 </r>
       <r>    2.6567    1.0000 </r>
       <r>    3.0428    1.0000 </r>
       <r>    7.0548    0.0000 </r>
       <r>    7.9056    0.0000 </r>
       <r>   11.9284    0.0000 </r>
       <r>   13.3239    0.0000 </r>
       <r>   15.6529    0.0000 </r>
       <r>   16.7948    0.0000 </r>
       <r>   17.3234    0.0000 </r>
       <r>   18.7717    0.0000 </r>
       <r>   19.6279    0.0000 </r>
       <r>   20.2998    0.0000 </r>
       <r>   21.7098    0.0000 </r>
       <r>   22.3035    0.0000 </r>
      </set>
      <set comment="kpoint 316">
       <r>   -3.3669    1.0000 </r>
       <r>   -0.6946    1.0000 </r>
       <r>    2.5965    1.0000 </r>
       <r>    3.0091    1.0000 </r>
       <r>    6.5023    0.0000 </r>
       <r>    7.3273    0.0000 </r>
       <r>   13.6749    0.0000 </r>
       <r>   13.6859    0.0000 </r>
       <r>   16.9904    0.0000 </r>
       <r>   17.0162    0.0000 </r>
       <r>   17.2965    0.0000 </r>
       <r>   17.5060    0.0000 </r>
       <r>   20.0365    0.0000 </r>
       <r>   20.5866    0.0000 </r>
       <r>   21.2355    0.0000 </r>
       <r>   23.2938    0.0000 </r>
      </set>
      <set comment="kpoint 317">
       <r>   -2.7212    1.0000 </r>
       <r>   -1.4096    1.0000 </r>
       <r>    2.4684    1.0000 </r>
       <r>    2.5880    1.0000 </r>
       <r>    6.9898    0.0000 </r>
       <r>    7.2591    0.0000 </r>
       <r>   13.4414    0.0000 </r>
       <r>   14.8431    0.0000 </r>
       <r>   15.4579    0.0000 </r>
       <r>   16.8746    0.0000 </r>
       <r>   17.5806    0.0000 </r>
       <r>   19.0645    0.0000 </r>
       <r>   19.2572    0.0000 </r>
       <r>   20.8496    0.0000 </r>
       <r>   22.0968    0.0000 </r>
       <r>   23.4659    0.0000 </r>
      </set>
      <set comment="kpoint 318">
       <r>   -2.2237    1.0000 </r>
       <r>   -1.8531    1.0000 </r>
       <r>    1.8205    1.0000 </r>
       <r>    2.6630    1.0000 </r>
       <r>    7.2731    0.0000 </r>
       <r>    8.4973    0.0000 </r>
       <r>   12.9981    0.0000 </r>
       <r>   13.2291    0.0000 </r>
       <r>   15.2534    0.0000 </r>
       <r>   15.8911    0.0000 </r>
       <r>   18.4837    0.0000 </r>
       <r>   19.2757    0.0000 </r>
       <r>   20.9867    0.0000 </r>
       <r>   21.6464    0.0000 </r>
       <r>   22.2069    0.0000 </r>
       <r>   22.6070    0.0000 </r>
      </set>
      <set comment="kpoint 319">
       <r>   -2.7418    1.0000 </r>
       <r>   -1.3322    1.0000 </r>
       <r>    1.5150    1.0000 </r>
       <r>    2.9846    1.0000 </r>
       <r>    7.6153    0.0000 </r>
       <r>   10.2576    0.0000 </r>
       <r>   11.2893    0.0000 </r>
       <r>   12.8650    0.0000 </r>
       <r>   13.6352    0.0000 </r>
       <r>   15.6664    0.0000 </r>
       <r>   18.5995    0.0000 </r>
       <r>   19.8164    0.0000 </r>
       <r>   21.0554    0.0000 </r>
       <r>   21.5157    0.0000 </r>
       <r>   22.7165    0.0000 </r>
       <r>   23.6650    0.0000 </r>
      </set>
      <set comment="kpoint 320">
       <r>   -3.2779    1.0000 </r>
       <r>   -1.0731    1.0000 </r>
       <r>    1.9500    1.0000 </r>
       <r>    3.4604    1.0000 </r>
       <r>    8.1101    0.0000 </r>
       <r>    9.6133    0.0000 </r>
       <r>   11.8307    0.0000 </r>
       <r>   12.3397    0.0000 </r>
       <r>   12.8280    0.0000 </r>
       <r>   15.5668    0.0000 </r>
       <r>   17.7153    0.0000 </r>
       <r>   18.5589    0.0000 </r>
       <r>   21.0899    0.0000 </r>
       <r>   21.5476    0.0000 </r>
       <r>   22.7859    0.0000 </r>
       <r>   23.7395    0.0000 </r>
      </set>
      <set comment="kpoint 321">
       <r>   -3.7402    1.0000 </r>
       <r>   -0.9807    1.0000 </r>
       <r>    2.9152    1.0000 </r>
       <r>    3.9631    1.0000 </r>
       <r>    8.2616    0.0000 </r>
       <r>    8.7798    0.0000 </r>
       <r>   10.3272    0.0000 </r>
       <r>   12.7766    0.0000 </r>
       <r>   14.3048    0.0000 </r>
       <r>   15.4414    0.0000 </r>
       <r>   16.7010    0.0000 </r>
       <r>   18.0712    0.0000 </r>
       <r>   18.9792    0.0000 </r>
       <r>   20.7700    0.0000 </r>
       <r>   23.1884    0.0000 </r>
       <r>   24.9636    0.0000 </r>
      </set>
      <set comment="kpoint 322">
       <r>   -4.4851    1.0000 </r>
       <r>    0.4010    1.0000 </r>
       <r>    2.5223    1.0000 </r>
       <r>    4.5433    1.0000 </r>
       <r>    8.2512    0.0000 </r>
       <r>    9.8378    0.0000 </r>
       <r>    9.9493    0.0000 </r>
       <r>   11.8981    0.0000 </r>
       <r>   12.1515    0.0000 </r>
       <r>   15.6600    0.0000 </r>
       <r>   17.3570    0.0000 </r>
       <r>   17.6299    0.0000 </r>
       <r>   19.4275    0.0000 </r>
       <r>   21.4550    0.0000 </r>
       <r>   22.1177    0.0000 </r>
       <r>   23.0619    0.0000 </r>
      </set>
      <set comment="kpoint 323">
       <r>   -4.4378    1.0000 </r>
       <r>    0.5731    1.0000 </r>
       <r>    2.3157    1.0000 </r>
       <r>    4.1535    1.0000 </r>
       <r>    8.8856    0.0000 </r>
       <r>    9.0073    0.0000 </r>
       <r>   10.2587    0.0000 </r>
       <r>   11.3107    0.0000 </r>
       <r>   13.1288    0.0000 </r>
       <r>   16.0001    0.0000 </r>
       <r>   17.4603    0.0000 </r>
       <r>   18.0429    0.0000 </r>
       <r>   19.0459    0.0000 </r>
       <r>   21.3284    0.0000 </r>
       <r>   21.6501    0.0000 </r>
       <r>   24.1640    0.0000 </r>
      </set>
      <set comment="kpoint 324">
       <r>   -4.1997    1.0000 </r>
       <r>    0.2670    1.0000 </r>
       <r>    2.5548    1.0000 </r>
       <r>    3.5209    1.0000 </r>
       <r>    7.7598    0.0000 </r>
       <r>    9.3373    0.0000 </r>
       <r>   10.2521    0.0000 </r>
       <r>   11.9831    0.0000 </r>
       <r>   14.8912    0.0000 </r>
       <r>   16.2498    0.0000 </r>
       <r>   17.3647    0.0000 </r>
       <r>   18.0544    0.0000 </r>
       <r>   19.6589    0.0000 </r>
       <r>   20.2651    0.0000 </r>
       <r>   21.8772    0.0000 </r>
       <r>   23.6161    0.0000 </r>
      </set>
      <set comment="kpoint 325">
       <r>   -3.7799    1.0000 </r>
       <r>   -0.2477    1.0000 </r>
       <r>    2.3745    1.0000 </r>
       <r>    3.3225    1.0000 </r>
       <r>    6.9751    0.0000 </r>
       <r>    8.8931    0.0000 </r>
       <r>   11.8280    0.0000 </r>
       <r>   12.0494    0.0000 </r>
       <r>   16.5645    0.0000 </r>
       <r>   16.8263    0.0000 </r>
       <r>   17.2055    0.0000 </r>
       <r>   17.3385    0.0000 </r>
       <r>   19.2042    0.0000 </r>
       <r>   21.1242    0.0000 </r>
       <r>   22.2489    0.0000 </r>
       <r>   23.8524    0.0000 </r>
      </set>
      <set comment="kpoint 326">
       <r>   -3.2036    1.0000 </r>
       <r>   -0.8353    1.0000 </r>
       <r>    2.0286    1.0000 </r>
       <r>    2.8626    1.0000 </r>
       <r>    7.3943    0.0000 </r>
       <r>    8.7124    0.0000 </r>
       <r>   11.5771    0.0000 </r>
       <r>   13.6822    0.0000 </r>
       <r>   14.8661    0.0000 </r>
       <r>   16.7150    0.0000 </r>
       <r>   17.5823    0.0000 </r>
       <r>   19.3168    0.0000 </r>
       <r>   20.0584    0.0000 </r>
       <r>   20.6182    0.0000 </r>
       <r>   22.5398    0.0000 </r>
       <r>   23.0991    0.0000 </r>
      </set>
      <set comment="kpoint 327">
       <r>   -2.5409    1.0000 </r>
       <r>   -1.4530    1.0000 </r>
       <r>    1.8673    1.0000 </r>
       <r>    2.2417    1.0000 </r>
       <r>    8.6141    0.0000 </r>
       <r>    8.8209    0.0000 </r>
       <r>   11.1735    0.0000 </r>
       <r>   12.7588    0.0000 </r>
       <r>   15.1659    0.0000 </r>
       <r>   16.6086    0.0000 </r>
       <r>   17.9394    0.0000 </r>
       <r>   19.2569    0.0000 </r>
       <r>   21.0993    0.0000 </r>
       <r>   21.8600    0.0000 </r>
       <r>   22.4453    0.0000 </r>
       <r>   23.6061    0.0000 </r>
      </set>
      <set comment="kpoint 328">
       <r>   -2.3430    1.0000 </r>
       <r>   -1.6195    1.0000 </r>
       <r>    1.5918    1.0000 </r>
       <r>    2.2818    1.0000 </r>
       <r>    8.9657    0.0000 </r>
       <r>   10.2298    0.0000 </r>
       <r>   10.9477    0.0000 </r>
       <r>   10.9591    0.0000 </r>
       <r>   15.1841    0.0000 </r>
       <r>   16.2645    0.0000 </r>
       <r>   18.2434    0.0000 </r>
       <r>   19.4133    0.0000 </r>
       <r>   21.1814    0.0000 </r>
       <r>   22.1897    0.0000 </r>
       <r>   23.5391    0.0000 </r>
       <r>   23.6879    0.0000 </r>
      </set>
      <set comment="kpoint 329">
       <r>   -2.9431    1.0000 </r>
       <r>   -1.1090    1.0000 </r>
       <r>    1.6383    1.0000 </r>
       <r>    2.7557    1.0000 </r>
       <r>    9.0717    0.0000 </r>
       <r>    9.4170    0.0000 </r>
       <r>   10.6654    0.0000 </r>
       <r>   12.5125    0.0000 </r>
       <r>   13.6746    0.0000 </r>
       <r>   16.1911    0.0000 </r>
       <r>   18.0686    0.0000 </r>
       <r>   19.5278    0.0000 </r>
       <r>   20.9492    0.0000 </r>
       <r>   21.7817    0.0000 </r>
       <r>   22.4422    0.0000 </r>
       <r>   23.9983    0.0000 </r>
      </set>
      <set comment="kpoint 330">
       <r>   -3.5388    1.0000 </r>
       <r>   -0.7310    1.0000 </r>
       <r>    2.1760    1.0000 </r>
       <r>    3.3727    1.0000 </r>
       <r>    7.9011    0.0000 </r>
       <r>    9.8750    0.0000 </r>
       <r>   10.6743    0.0000 </r>
       <r>   11.9436    0.0000 </r>
       <r>   14.5778    0.0000 </r>
       <r>   16.2425    0.0000 </r>
       <r>   17.2638    0.0000 </r>
       <r>   18.5152    0.0000 </r>
       <r>   19.2723    0.0000 </r>
       <r>   21.8891    0.0000 </r>
       <r>   23.2445    0.0000 </r>
       <r>   23.9771    0.0000 </r>
      </set>
      <set comment="kpoint 331">
       <r>   -4.4854    1.0000 </r>
       <r>    0.4079    1.0000 </r>
       <r>    2.5151    1.0000 </r>
       <r>    4.5437    1.0000 </r>
       <r>    8.2496    0.0000 </r>
       <r>    9.8303    0.0000 </r>
       <r>    9.9429    0.0000 </r>
       <r>   11.9060    0.0000 </r>
       <r>   12.1592    0.0000 </r>
       <r>   15.6584    0.0000 </r>
       <r>   17.3543    0.0000 </r>
       <r>   17.6240    0.0000 </r>
       <r>   19.4360    0.0000 </r>
       <r>   21.4632    0.0000 </r>
       <r>   22.1273    0.0000 </r>
       <r>   23.0618    0.0000 </r>
      </set>
      <set comment="kpoint 332">
       <r>   -4.3429    1.0000 </r>
       <r>   -0.0075    1.0000 </r>
       <r>    3.0097    1.0000 </r>
       <r>    4.1656    1.0000 </r>
       <r>    8.2824    0.0000 </r>
       <r>    8.9650    0.0000 </r>
       <r>   10.3861    0.0000 </r>
       <r>   11.3374    0.0000 </r>
       <r>   14.2035    0.0000 </r>
       <r>   15.3808    0.0000 </r>
       <r>   17.1381    0.0000 </r>
       <r>   17.4605    0.0000 </r>
       <r>   19.6820    0.0000 </r>
       <r>   20.7940    0.0000 </r>
       <r>   22.3241    0.0000 </r>
       <r>   23.2618    0.0000 </r>
      </set>
      <set comment="kpoint 333">
       <r>   -4.0206    1.0000 </r>
       <r>   -0.3942    1.0000 </r>
       <r>    2.9131    1.0000 </r>
       <r>    3.7564    1.0000 </r>
       <r>    7.5486    0.0000 </r>
       <r>   10.0191    0.0000 </r>
       <r>   10.5873    0.0000 </r>
       <r>   10.8739    0.0000 </r>
       <r>   15.4839    0.0000 </r>
       <r>   16.4110    0.0000 </r>
       <r>   17.0475    0.0000 </r>
       <r>   17.2084    0.0000 </r>
       <r>   18.2544    0.0000 </r>
       <r>   21.6145    0.0000 </r>
       <r>   23.2196    0.0000 </r>
       <r>   23.3879    0.0000 </r>
      </set>
      <set comment="kpoint 334">
       <r>   -3.5409    1.0000 </r>
       <r>   -0.7206    1.0000 </r>
       <r>    2.1757    1.0000 </r>
       <r>    3.3632    1.0000 </r>
       <r>    7.8919    0.0000 </r>
       <r>    9.8650    0.0000 </r>
       <r>   10.6838    0.0000 </r>
       <r>   11.9437    0.0000 </r>
       <r>   14.5877    0.0000 </r>
       <r>   16.2388    0.0000 </r>
       <r>   17.2590    0.0000 </r>
       <r>   18.5115    0.0000 </r>
       <r>   19.2883    0.0000 </r>
       <r>   21.8949    0.0000 </r>
       <r>   23.2591    0.0000 </r>
       <r>   23.9792    0.0000 </r>
      </set>
      <set comment="kpoint 335">
       <r>   -2.9463    1.0000 </r>
       <r>   -1.0999    1.0000 </r>
       <r>    1.6394    1.0000 </r>
       <r>    2.7477    1.0000 </r>
       <r>    9.0597    0.0000 </r>
       <r>    9.4100    0.0000 </r>
       <r>   10.6750    0.0000 </r>
       <r>   12.5231    0.0000 </r>
       <r>   13.6746    0.0000 </r>
       <r>   16.1875    0.0000 </r>
       <r>   18.0654    0.0000 </r>
       <r>   19.5214    0.0000 </r>
       <r>   20.9525    0.0000 </r>
       <r>   21.7999    0.0000 </r>
       <r>   22.4482    0.0000 </r>
       <r>   24.0090    0.0000 </r>
      </set>
      <set comment="kpoint 336">
       <r>   -2.3468    1.0000 </r>
       <r>   -1.6139    1.0000 </r>
       <r>    1.5951    1.0000 </r>
       <r>    2.2762    1.0000 </r>
       <r>    8.9549    0.0000 </r>
       <r>   10.2401    0.0000 </r>
       <r>   10.9493    0.0000 </r>
       <r>   10.9584    0.0000 </r>
       <r>   15.1840    0.0000 </r>
       <r>   16.2623    0.0000 </r>
       <r>   18.2435    0.0000 </r>
       <r>   19.4142    0.0000 </r>
       <r>   21.1731    0.0000 </r>
       <r>   22.1965    0.0000 </r>
       <r>   23.5429    0.0000 </r>
       <r>   23.6952    0.0000 </r>
      </set>
      <set comment="kpoint 337">
       <r>   -2.5388    1.0000 </r>
       <r>   -1.4569    1.0000 </r>
       <r>    1.8660    1.0000 </r>
       <r>    2.2451    1.0000 </r>
       <r>    8.6120    0.0000 </r>
       <r>    8.8236    0.0000 </r>
       <r>   11.1837    0.0000 </r>
       <r>   12.7477    0.0000 </r>
       <r>   15.1654    0.0000 </r>
       <r>   16.6100    0.0000 </r>
       <r>   17.9391    0.0000 </r>
       <r>   19.2570    0.0000 </r>
       <r>   21.1069    0.0000 </r>
       <r>   21.8441    0.0000 </r>
       <r>   22.4457    0.0000 </r>
       <r>   23.6065    0.0000 </r>
      </set>
      <set comment="kpoint 338">
       <r>   -3.2020    1.0000 </r>
       <r>   -0.8412    1.0000 </r>
       <r>    2.0257    1.0000 </r>
       <r>    2.8706    1.0000 </r>
       <r>    7.4029    0.0000 </r>
       <r>    8.7037    0.0000 </r>
       <r>   11.5878    0.0000 </r>
       <r>   13.6821    0.0000 </r>
       <r>   14.8550    0.0000 </r>
       <r>   16.7166    0.0000 </r>
       <r>   17.5861    0.0000 </r>
       <r>   19.3027    0.0000 </r>
       <r>   20.0580    0.0000 </r>
       <r>   20.6205    0.0000 </r>
       <r>   22.5503    0.0000 </r>
       <r>   23.0960    0.0000 </r>
      </set>
      <set comment="kpoint 339">
       <r>   -4.3036    1.0000 </r>
       <r>   -0.4451    1.0000 </r>
       <r>    3.6721    1.0000 </r>
       <r>    4.5354    1.0000 </r>
       <r>    7.7664    0.0000 </r>
       <r>    9.1428    0.0000 </r>
       <r>    9.2195    0.0000 </r>
       <r>   13.3343    0.0000 </r>
       <r>   13.6053    0.0000 </r>
       <r>   14.7611    0.0000 </r>
       <r>   16.7535    0.0000 </r>
       <r>   17.4249    0.0000 </r>
       <r>   19.8670    0.0000 </r>
       <r>   20.0354    0.0000 </r>
       <r>   22.1847    0.0000 </r>
       <r>   23.6556    0.0000 </r>
      </set>
      <set comment="kpoint 340">
       <r>   -4.0951    1.0000 </r>
       <r>   -0.7857    1.0000 </r>
       <r>    3.8856    1.0000 </r>
       <r>    4.2069    1.0000 </r>
       <r>    7.6961    0.0000 </r>
       <r>    8.8913    0.0000 </r>
       <r>    9.4867    0.0000 </r>
       <r>   12.9527    0.0000 </r>
       <r>   14.3664    0.0000 </r>
       <r>   15.9347    0.0000 </r>
       <r>   16.6252    0.0000 </r>
       <r>   17.3001    0.0000 </r>
       <r>   18.0915    0.0000 </r>
       <r>   20.3709    0.0000 </r>
       <r>   22.9249    0.0000 </r>
       <r>   24.4755    0.0000 </r>
      </set>
      <set comment="kpoint 341">
       <r>   -3.7428    1.0000 </r>
       <r>   -0.9686    1.0000 </r>
       <r>    2.9144    1.0000 </r>
       <r>    3.9524    1.0000 </r>
       <r>    8.2542    0.0000 </r>
       <r>    8.7671    0.0000 </r>
       <r>   10.3277    0.0000 </r>
       <r>   12.7860    0.0000 </r>
       <r>   14.3101    0.0000 </r>
       <r>   15.4425    0.0000 </r>
       <r>   16.6975    0.0000 </r>
       <r>   18.0718    0.0000 </r>
       <r>   18.9896    0.0000 </r>
       <r>   20.7828    0.0000 </r>
       <r>   23.1940    0.0000 </r>
       <r>   24.9744    0.0000 </r>
      </set>
      <set comment="kpoint 342">
       <r>   -3.2813    1.0000 </r>
       <r>   -1.0611    1.0000 </r>
       <r>    1.9490    1.0000 </r>
       <r>    3.4513    1.0000 </r>
       <r>    8.1005    0.0000 </r>
       <r>    9.6030    0.0000 </r>
       <r>   11.8311    0.0000 </r>
       <r>   12.3531    0.0000 </r>
       <r>   12.8355    0.0000 </r>
       <r>   15.5616    0.0000 </r>
       <r>   17.7102    0.0000 </r>
       <r>   18.5557    0.0000 </r>
       <r>   21.1045    0.0000 </r>
       <r>   21.5663    0.0000 </r>
       <r>   22.7927    0.0000 </r>
       <r>   23.7404    0.0000 </r>
      </set>
      <set comment="kpoint 343">
       <r>   -2.7461    1.0000 </r>
       <r>   -1.3228    1.0000 </r>
       <r>    1.5167    1.0000 </r>
       <r>    2.9769    1.0000 </r>
       <r>    7.6056    0.0000 </r>
       <r>   10.2678    0.0000 </r>
       <r>   11.2801    0.0000 </r>
       <r>   12.8746    0.0000 </r>
       <r>   13.6353    0.0000 </r>
       <r>   15.6621    0.0000 </r>
       <r>   18.5981    0.0000 </r>
       <r>   19.8096    0.0000 </r>
       <r>   21.0658    0.0000 </r>
       <r>   21.5221    0.0000 </r>
       <r>   22.7240    0.0000 </r>
       <r>   23.6492    0.0000 </r>
      </set>
      <set comment="kpoint 344">
       <r>   -2.2292    1.0000 </r>
       <r>   -1.8466    1.0000 </r>
       <r>    1.8259    1.0000 </r>
       <r>    2.6562    1.0000 </r>
       <r>    7.2634    0.0000 </r>
       <r>    8.5079    0.0000 </r>
       <r>   13.0003    0.0000 </r>
       <r>   13.2269    0.0000 </r>
       <r>   15.2530    0.0000 </r>
       <r>   15.8881    0.0000 </r>
       <r>   18.4838    0.0000 </r>
       <r>   19.2790    0.0000 </r>
       <r>   20.9856    0.0000 </r>
       <r>   21.6438    0.0000 </r>
       <r>   22.2015    0.0000 </r>
       <r>   22.6150    0.0000 </r>
      </set>
      <set comment="kpoint 345">
       <r>   -2.7203    1.0000 </r>
       <r>   -1.4114    1.0000 </r>
       <r>    2.4683    1.0000 </r>
       <r>    2.5893    1.0000 </r>
       <r>    6.9885    0.0000 </r>
       <r>    7.2606    0.0000 </r>
       <r>   13.4522    0.0000 </r>
       <r>   14.8404    0.0000 </r>
       <r>   15.4478    0.0000 </r>
       <r>   16.8763    0.0000 </r>
       <r>   17.5802    0.0000 </r>
       <r>   19.0646    0.0000 </r>
       <r>   19.2416    0.0000 </r>
       <r>   20.8653    0.0000 </r>
       <r>   22.1079    0.0000 </r>
       <r>   23.4624    0.0000 </r>
      </set>
      <set comment="kpoint 346">
       <r>   -4.0230    1.0000 </r>
       <r>   -1.0831    1.0000 </r>
       <r>    4.4540    1.0000 </r>
       <r>    4.4625    1.0000 </r>
       <r>    7.1081    0.0000 </r>
       <r>    8.9828    0.0000 </r>
       <r>    8.9928    0.0000 </r>
       <r>   13.3501    0.0000 </r>
       <r>   15.5158    0.0000 </r>
       <r>   15.5182    0.0000 </r>
       <r>   16.4288    0.0000 </r>
       <r>   17.5260    0.0000 </r>
       <r>   17.5311    0.0000 </r>
       <r>   18.7490    0.0000 </r>
       <r>   23.7082    0.0000 </r>
       <r>   26.0000    0.0000 </r>
      </set>
      <set comment="kpoint 347">
       <r>   -3.8329    1.0000 </r>
       <r>   -1.1779    1.0000 </r>
       <r>    3.7110    1.0000 </r>
       <r>    4.3060    1.0000 </r>
       <r>    7.6672    0.0000 </r>
       <r>    8.9491    0.0000 </r>
       <r>    9.3050    0.0000 </r>
       <r>   13.6551    0.0000 </r>
       <r>   14.9077    0.0000 </r>
       <r>   15.2284    0.0000 </r>
       <r>   16.5019    0.0000 </r>
       <r>   17.8825    0.0000 </r>
       <r>   18.2171    0.0000 </r>
       <r>   19.0213    0.0000 </r>
       <r>   24.3095    0.0000 </r>
       <r>   25.4569    0.0000 </r>
      </set>
      <set comment="kpoint 348">
       <r>   -3.5502    1.0000 </r>
       <r>   -1.0881    1.0000 </r>
       <r>    2.5824    1.0000 </r>
       <r>    3.8847    1.0000 </r>
       <r>    7.6442    0.0000 </r>
       <r>    9.8940    0.0000 </r>
       <r>   10.3018    0.0000 </r>
       <r>   12.4830    0.0000 </r>
       <r>   14.6485    0.0000 </r>
       <r>   15.1037    0.0000 </r>
       <r>   17.0490    0.0000 </r>
       <r>   18.3068    0.0000 </r>
       <r>   18.9686    0.0000 </r>
       <r>   21.1705    0.0000 </r>
       <r>   24.1892    0.0000 </r>
       <r>   24.4379    0.0000 </r>
      </set>
      <set comment="kpoint 349">
       <r>   -3.1796    1.0000 </r>
       <r>   -1.0324    1.0000 </r>
       <r>    1.8100    1.0000 </r>
       <r>    3.4328    1.0000 </r>
       <r>    7.1070    0.0000 </r>
       <r>   10.3567    0.0000 </r>
       <r>   11.6592    0.0000 </r>
       <r>   11.7281    0.0000 </r>
       <r>   15.0322    0.0000 </r>
       <r>   15.1509    0.0000 </r>
       <r>   18.6665    0.0000 </r>
       <r>   18.6737    0.0000 </r>
       <r>   19.1951    0.0000 </r>
       <r>   23.0642    0.0000 </r>
       <r>   23.0799    0.0000 </r>
       <r>   23.5789    0.0000 </r>
      </set>
      <set comment="kpoint 350">
       <r>   -2.7063    1.0000 </r>
       <r>   -1.3993    1.0000 </r>
       <r>    1.8338    1.0000 </r>
       <r>    3.0808    1.0000 </r>
       <r>    6.6698    0.0000 </r>
       <r>    8.4964    0.0000 </r>
       <r>   13.4074    0.0000 </r>
       <r>   13.5400    0.0000 </r>
       <r>   15.2779    0.0000 </r>
       <r>   15.3658    0.0000 </r>
       <r>   18.8137    0.0000 </r>
       <r>   19.1512    0.0000 </r>
       <r>   20.7742    0.0000 </r>
       <r>   20.8405    0.0000 </r>
       <r>   21.4490    0.0000 </r>
       <r>   23.6006    0.0000 </r>
      </set>
      <set comment="kpoint 351">
       <r>   -2.1612    1.0000 </r>
       <r>   -2.0428    1.0000 </r>
       <r>    2.4337    1.0000 </r>
       <r>    2.8825    1.0000 </r>
       <r>    6.4365    0.0000 </r>
       <r>    7.0208    0.0000 </r>
       <r>   14.9588    0.0000 </r>
       <r>   15.1881    0.0000 </r>
       <r>   15.7063    0.0000 </r>
       <r>   15.8892    0.0000 </r>
       <r>   18.6976    0.0000 </r>
       <r>   18.7414    0.0000 </r>
       <r>   18.8149    0.0000 </r>
       <r>   19.3814    0.0000 </r>
       <r>   23.3509    0.0000 </r>
       <r>   23.6841    0.0000 </r>
      </set>
      <set comment="kpoint 352">
       <r>   -3.8327    1.0000 </r>
       <r>   -1.1781    1.0000 </r>
       <r>    3.7058    1.0000 </r>
       <r>    4.3118    1.0000 </r>
       <r>    7.6677    0.0000 </r>
       <r>    8.9543    0.0000 </r>
       <r>    9.2980    0.0000 </r>
       <r>   13.6552    0.0000 </r>
       <r>   14.9085    0.0000 </r>
       <r>   15.2302    0.0000 </r>
       <r>   16.4973    0.0000 </r>
       <r>   17.8865    0.0000 </r>
       <r>   18.2173    0.0000 </r>
       <r>   19.0196    0.0000 </r>
       <r>   24.3105    0.0000 </r>
       <r>   25.4569    0.0000 </r>
      </set>
      <set comment="kpoint 353">
       <r>   -3.7424    1.0000 </r>
       <r>   -0.9691    1.0000 </r>
       <r>    2.9092    1.0000 </r>
       <r>    3.9586    1.0000 </r>
       <r>    8.2516    0.0000 </r>
       <r>    8.7740    0.0000 </r>
       <r>   10.3212    0.0000 </r>
       <r>   12.7864    0.0000 </r>
       <r>   14.3093    0.0000 </r>
       <r>   15.4456    0.0000 </r>
       <r>   16.6961    0.0000 </r>
       <r>   18.0739    0.0000 </r>
       <r>   18.9875    0.0000 </r>
       <r>   20.7830    0.0000 </r>
       <r>   23.1946    0.0000 </r>
       <r>   24.9735    0.0000 </r>
      </set>
      <set comment="kpoint 354">
       <r>   -3.5403    1.0000 </r>
       <r>   -0.7217    1.0000 </r>
       <r>    2.1725    1.0000 </r>
       <r>    3.3676    1.0000 </r>
       <r>    7.8908    0.0000 </r>
       <r>    9.8691    0.0000 </r>
       <r>   10.6846    0.0000 </r>
       <r>   11.9383    0.0000 </r>
       <r>   14.5852    0.0000 </r>
       <r>   16.2429    0.0000 </r>
       <r>   17.2608    0.0000 </r>
       <r>   18.5126    0.0000 </r>
       <r>   19.2845    0.0000 </r>
       <r>   21.8937    0.0000 </r>
       <r>   23.2574    0.0000 </r>
       <r>   23.9772    0.0000 </r>
      </set>
      <set comment="kpoint 355">
       <r>   -3.2027    1.0000 </r>
       <r>   -0.8371    1.0000 </r>
       <r>    2.0273    1.0000 </r>
       <r>    2.8653    1.0000 </r>
       <r>    7.3936    0.0000 </r>
       <r>    8.7126    0.0000 </r>
       <r>   11.5813    0.0000 </r>
       <r>   13.6790    0.0000 </r>
       <r>   14.8618    0.0000 </r>
       <r>   16.7178    0.0000 </r>
       <r>   17.5856    0.0000 </r>
       <r>   19.3145    0.0000 </r>
       <r>   20.0552    0.0000 </r>
       <r>   20.6173    0.0000 </r>
       <r>   22.5448    0.0000 </r>
       <r>   23.0966    0.0000 </r>
      </set>
      <set comment="kpoint 356">
       <r>   -2.7200    1.0000 </r>
       <r>   -1.4114    1.0000 </r>
       <r>    2.4682    1.0000 </r>
       <r>    2.5892    1.0000 </r>
       <r>    6.9890    0.0000 </r>
       <r>    7.2596    0.0000 </r>
       <r>   13.4451    0.0000 </r>
       <r>   14.8440    0.0000 </r>
       <r>   15.4528    0.0000 </r>
       <r>   16.8752    0.0000 </r>
       <r>   17.5798    0.0000 </r>
       <r>   19.0642    0.0000 </r>
       <r>   19.2519    0.0000 </r>
       <r>   20.8558    0.0000 </r>
       <r>   22.1006    0.0000 </r>
       <r>   23.4624    0.0000 </r>
      </set>
      <set comment="kpoint 357">
       <r>   -3.8276    1.0000 </r>
       <r>   -0.6868    1.0000 </r>
       <r>    2.4294    1.0000 </r>
       <r>    4.1627    1.0000 </r>
       <r>    7.8929    0.0000 </r>
       <r>    9.8872    0.0000 </r>
       <r>   10.0737    0.0000 </r>
       <r>   13.2906    0.0000 </r>
       <r>   13.3961    0.0000 </r>
       <r>   14.2241    0.0000 </r>
       <r>   16.9273    0.0000 </r>
       <r>   19.3083    0.0000 </r>
       <r>   20.2814    0.0000 </r>
       <r>   20.4956    0.0000 </r>
       <r>   21.9326    0.0000 </r>
       <r>   24.2616    0.0000 </r>
      </set>
      <set comment="kpoint 358">
       <r>   -3.7749    1.0000 </r>
       <r>   -0.3896    1.0000 </r>
       <r>    1.9382    1.0000 </r>
       <r>    3.7467    1.0000 </r>
       <r>    8.4587    0.0000 </r>
       <r>    9.4158    0.0000 </r>
       <r>   11.1360    0.0000 </r>
       <r>   11.7593    0.0000 </r>
       <r>   14.0515    0.0000 </r>
       <r>   14.3158    0.0000 </r>
       <r>   17.9389    0.0000 </r>
       <r>   19.5451    0.0000 </r>
       <r>   20.0940    0.0000 </r>
       <r>   20.6067    0.0000 </r>
       <r>   22.9838    0.0000 </r>
       <r>   23.2633    0.0000 </r>
      </set>
      <set comment="kpoint 359">
       <r>   -3.5665    1.0000 </r>
       <r>   -0.4158    1.0000 </r>
       <r>    1.9140    1.0000 </r>
       <r>    3.0667    1.0000 </r>
       <r>    8.6919    0.0000 </r>
       <r>    9.3409    0.0000 </r>
       <r>    9.8808    0.0000 </r>
       <r>   13.2229    0.0000 </r>
       <r>   14.5023    0.0000 </r>
       <r>   15.0577    0.0000 </r>
       <r>   19.0717    0.0000 </r>
       <r>   19.3921    0.0000 </r>
       <r>   19.7203    0.0000 </r>
       <r>   20.1203    0.0000 </r>
       <r>   22.1740    0.0000 </r>
       <r>   23.5236    0.0000 </r>
      </set>
      <set comment="kpoint 360">
       <r>   -3.2017    1.0000 </r>
       <r>   -0.8410    1.0000 </r>
       <r>    2.0258    1.0000 </r>
       <r>    2.8700    1.0000 </r>
       <r>    7.4024    0.0000 </r>
       <r>    8.7033    0.0000 </r>
       <r>   11.5811    0.0000 </r>
       <r>   13.6871    0.0000 </r>
       <r>   14.8650    0.0000 </r>
       <r>   16.7074    0.0000 </r>
       <r>   17.5772    0.0000 </r>
       <r>   19.3136    0.0000 </r>
       <r>   20.0635    0.0000 </r>
       <r>   20.6210    0.0000 </r>
       <r>   22.5451    0.0000 </r>
       <r>   23.0937    0.0000 </r>
      </set>
      <set comment="kpoint 361">
       <r>   -3.8556    1.0000 </r>
       <r>   -0.2127    1.0000 </r>
       <r>    1.6904    1.0000 </r>
       <r>    4.1022    1.0000 </r>
       <r>    7.8304    0.0000 </r>
       <r>   10.7854    0.0000 </r>
       <r>   11.1269    0.0000 </r>
       <r>   11.9522    0.0000 </r>
       <r>   12.3327    0.0000 </r>
       <r>   14.2431    0.0000 </r>
       <r>   18.5904    0.0000 </r>
       <r>   19.2534    0.0000 </r>
       <r>   19.7104    0.0000 </r>
       <r>   22.2297    0.0000 </r>
       <r>   22.4339    0.0000 </r>
       <r>   22.9971    0.0000 </r>
      </set>
      <set comment="kpoint 362">
       <r>   -3.7740    1.0000 </r>
       <r>   -0.3960    1.0000 </r>
       <r>    1.9440    1.0000 </r>
       <r>    3.7468    1.0000 </r>
       <r>    8.4593    0.0000 </r>
       <r>    9.4247    0.0000 </r>
       <r>   11.1269    0.0000 </r>
       <r>   11.7677    0.0000 </r>
       <r>   14.0396    0.0000 </r>
       <r>   14.3192    0.0000 </r>
       <r>   17.9482    0.0000 </r>
       <r>   19.5476    0.0000 </r>
       <r>   20.0797    0.0000 </r>
       <r>   20.5988    0.0000 </r>
       <r>   22.9701    0.0000 </r>
       <r>   23.2721    0.0000 </r>
      </set>
      <set comment="kpoint 363">
       <r>   -3.5385    1.0000 </r>
       <r>   -0.7308    1.0000 </r>
       <r>    2.1770    1.0000 </r>
       <r>    3.3711    1.0000 </r>
       <r>    7.9004    0.0000 </r>
       <r>    9.8698    0.0000 </r>
       <r>   10.6733    0.0000 </r>
       <r>   11.9490    0.0000 </r>
       <r>   14.5879    0.0000 </r>
       <r>   16.2317    0.0000 </r>
       <r>   17.2571    0.0000 </r>
       <r>   18.5121    0.0000 </r>
       <r>   19.2860    0.0000 </r>
       <r>   21.8878    0.0000 </r>
       <r>   23.2495    0.0000 </r>
       <r>   23.9783    0.0000 </r>
      </set>
      <set comment="kpoint 364">
       <r>   -3.8260    1.0000 </r>
       <r>   -0.6967    1.0000 </r>
       <r>    2.4386    1.0000 </r>
       <r>    4.1622    1.0000 </r>
       <r>    7.8945    0.0000 </r>
       <r>    9.8958    0.0000 </r>
       <r>   10.0849    0.0000 </r>
       <r>   13.2806    0.0000 </r>
       <r>   13.3842    0.0000 </r>
       <r>   14.2251    0.0000 </r>
       <r>   16.9367    0.0000 </r>
       <r>   19.3107    0.0000 </r>
       <r>   20.2664    0.0000 </r>
       <r>   20.4832    0.0000 </r>
       <r>   21.9236    0.0000 </r>
       <r>   24.2602    0.0000 </r>
      </set>
      <set comment="kpoint 365">
       <r>   -3.7400    1.0000 </r>
       <r>   -0.9806    1.0000 </r>
       <r>    2.9177    1.0000 </r>
       <r>    3.9600    1.0000 </r>
       <r>    8.2608    0.0000 </r>
       <r>    8.7757    0.0000 </r>
       <r>   10.3317    0.0000 </r>
       <r>   12.7760    0.0000 </r>
       <r>   14.3130    0.0000 </r>
       <r>   15.4347    0.0000 </r>
       <r>   16.6983    0.0000 </r>
       <r>   18.0624    0.0000 </r>
       <r>   18.9917    0.0000 </r>
       <r>   20.7704    0.0000 </r>
       <r>   23.1858    0.0000 </r>
       <r>   24.9636    0.0000 </r>
      </set>
      <set comment="kpoint 366">
       <r>   -3.8299    1.0000 </r>
       <r>   -1.1903    1.0000 </r>
       <r>    3.7170    1.0000 </r>
       <r>    4.3107    1.0000 </r>
       <r>    7.6748    0.0000 </r>
       <r>    8.9569    0.0000 </r>
       <r>    9.3104    0.0000 </r>
       <r>   13.6636    0.0000 </r>
       <r>   14.8958    0.0000 </r>
       <r>   15.2164    0.0000 </r>
       <r>   16.5000    0.0000 </r>
       <r>   17.8722    0.0000 </r>
       <r>   18.2040    0.0000 </r>
       <r>   19.0292    0.0000 </r>
       <r>   24.2997    0.0000 </r>
       <r>   25.4490    0.0000 </r>
      </set>
     </set>
    </set>
   </array>
  </eigenvalues>
  <separator name="orbital magnetization" >
   <v name="MAGDIPOLOUT">      0.00000000      0.00000000      0.00000000</v>
  </separator>
  <dos>
   <i name="efermi">      5.93838817 </i>
   <total>
    <array>
     <dimension dim="1">gridpoints</dimension>
     <dimension dim="2">spin</dimension>
     <field>energy</field>
     <field>total</field>
     <field>integrated</field>
     <set>
      <set comment="spin 1">
       <r>    -7.9297     0.0000     0.0000 </r>
       <r>    -7.8025     0.0000     0.0000 </r>
       <r>    -7.6753     0.0000     0.0000 </r>
       <r>    -7.5482     0.0000     0.0000 </r>
       <r>    -7.4210     0.0000     0.0000 </r>
       <r>    -7.2938     0.0000     0.0000 </r>
       <r>    -7.1666     0.0000     0.0000 </r>
       <r>    -7.0395     0.0000     0.0000 </r>
       <r>    -6.9123     0.0000     0.0000 </r>
       <r>    -6.7851     0.0000     0.0000 </r>
       <r>    -6.6579     0.0000     0.0000 </r>
       <r>    -6.5307     0.0000     0.0000 </r>
       <r>    -6.4036     0.0000     0.0000 </r>
       <r>    -6.2764     0.0019     0.0002 </r>
       <r>    -6.1492     0.0318     0.0043 </r>
       <r>    -6.0220     0.1129     0.0186 </r>
       <r>    -5.8949     0.1490     0.0376 </r>
       <r>    -5.7677     0.2747     0.0725 </r>
       <r>    -5.6405     0.1755     0.0949 </r>
       <r>    -5.5133     0.3055     0.1337 </r>
       <r>    -5.3862     0.3749     0.1814 </r>
       <r>    -5.2590     0.3500     0.2259 </r>
       <r>    -5.1318     0.2603     0.2590 </r>
       <r>    -5.0046     0.4231     0.3128 </r>
       <r>    -4.8774     0.5830     0.3870 </r>
       <r>    -4.7503     0.4395     0.4429 </r>
       <r>    -4.6231     0.4209     0.4964 </r>
       <r>    -4.4959     0.3402     0.5397 </r>
       <r>    -4.3687     0.7561     0.6358 </r>
       <r>    -4.2416     0.7736     0.7342 </r>
       <r>    -4.1144     0.5849     0.8086 </r>
       <r>    -3.9872     0.4999     0.8722 </r>
       <r>    -3.8600     0.6906     0.9600 </r>
       <r>    -3.7329     1.3348     1.1297 </r>
       <r>    -3.6057     0.7573     1.2261 </r>
       <r>    -3.4785     0.7465     1.3210 </r>
       <r>    -3.3513     0.4440     1.3775 </r>
       <r>    -3.2241     0.9167     1.4940 </r>
       <r>    -3.0970     0.8990     1.6084 </r>
       <r>    -2.9698     0.3751     1.6561 </r>
       <r>    -2.8426     0.4069     1.7078 </r>
       <r>    -2.7154     0.6942     1.7961 </r>
       <r>    -2.5883     0.6209     1.8751 </r>
       <r>    -2.4611     0.2493     1.9068 </r>
       <r>    -2.3339     0.2020     1.9325 </r>
       <r>    -2.2067     0.3078     1.9716 </r>
       <r>    -2.0796     0.2440     2.0027 </r>
       <r>    -1.9524     0.1283     2.0190 </r>
       <r>    -1.8252     0.1733     2.0410 </r>
       <r>    -1.6980     0.1339     2.0581 </r>
       <r>    -1.5709     0.2036     2.0839 </r>
       <r>    -1.4437     0.4862     2.1458 </r>
       <r>    -1.3165     0.8718     2.2566 </r>
       <r>    -1.1893     0.5624     2.3282 </r>
       <r>    -1.0621     1.1765     2.4778 </r>
       <r>    -0.9350     1.3822     2.6536 </r>
       <r>    -0.8078     0.9810     2.7784 </r>
       <r>    -0.6806     0.9977     2.9052 </r>
       <r>    -0.5534     0.4392     2.9611 </r>
       <r>    -0.4263     0.5582     3.0321 </r>
       <r>    -0.2991     0.8280     3.1374 </r>
       <r>    -0.1719     0.3822     3.1860 </r>
       <r>    -0.0447     0.4195     3.2393 </r>
       <r>     0.0824     0.5390     3.3079 </r>
       <r>     0.2096     0.2321     3.3374 </r>
       <r>     0.3368     0.4809     3.3986 </r>
       <r>     0.4640     0.4571     3.4567 </r>
       <r>     0.5912     0.2463     3.4880 </r>
       <r>     0.7183     0.2136     3.5152 </r>
       <r>     0.8455     0.4586     3.5735 </r>
       <r>     0.9727     0.2743     3.6084 </r>
       <r>     1.0999     0.0200     3.6109 </r>
       <r>     1.2270     0.0997     3.6236 </r>
       <r>     1.3542     0.6857     3.7108 </r>
       <r>     1.4814     0.8041     3.8131 </r>
       <r>     1.6086     1.0148     3.9422 </r>
       <r>     1.7357     0.8232     4.0468 </r>
       <r>     1.8629     1.0902     4.1855 </r>
       <r>     1.9901     1.5521     4.3829 </r>
       <r>     2.1173     0.8922     4.4963 </r>
       <r>     2.2445     0.8795     4.6082 </r>
       <r>     2.3716     0.9634     4.7307 </r>
       <r>     2.4988     1.1420     4.8760 </r>
       <r>     2.6260     1.5622     5.0746 </r>
       <r>     2.7532     1.1216     5.2173 </r>
       <r>     2.8803     1.1098     5.3584 </r>
       <r>     3.0075     1.9298     5.6038 </r>
       <r>     3.1347     1.7422     5.8254 </r>
       <r>     3.2619     0.9096     5.9411 </r>
       <r>     3.3890     1.5844     6.1426 </r>
       <r>     3.5162     1.5833     6.3440 </r>
       <r>     3.6434     0.8514     6.4522 </r>
       <r>     3.7706     1.4320     6.6343 </r>
       <r>     3.8978     1.7607     6.8583 </r>
       <r>     4.0249     1.1929     7.0100 </r>
       <r>     4.1521     1.1318     7.1539 </r>
       <r>     4.2793     1.2999     7.3192 </r>
       <r>     4.4065     0.6802     7.4057 </r>
       <r>     4.5336     1.0730     7.5422 </r>
       <r>     4.6608     0.9423     7.6620 </r>
       <r>     4.7880     0.5900     7.7371 </r>
       <r>     4.9152     0.7327     7.8303 </r>
       <r>     5.0423     0.3599     7.8760 </r>
       <r>     5.1695     0.2997     7.9142 </r>
       <r>     5.2967     0.2741     7.9490 </r>
       <r>     5.4239     0.1184     7.9641 </r>
       <r>     5.5510     0.2080     7.9905 </r>
       <r>     5.6782     0.0656     7.9989 </r>
       <r>     5.8054     0.0086     8.0000 </r>
       <r>     5.9326     0.0002     8.0000 </r>
       <r>     6.0598     0.0002     8.0000 </r>
       <r>     6.1869     0.0145     8.0019 </r>
       <r>     6.3141     0.0882     8.0131 </r>
       <r>     6.4413     0.1613     8.0336 </r>
       <r>     6.5685     0.3015     8.0720 </r>
       <r>     6.6956     0.3281     8.1137 </r>
       <r>     6.8228     0.3122     8.1534 </r>
       <r>     6.9500     0.3671     8.2001 </r>
       <r>     7.0772     0.7655     8.2974 </r>
       <r>     7.2043     0.6297     8.3775 </r>
       <r>     7.3315     1.0411     8.5099 </r>
       <r>     7.4587     1.1589     8.6573 </r>
       <r>     7.5859     0.9412     8.7770 </r>
       <r>     7.7131     1.1780     8.9268 </r>
       <r>     7.8402     1.3927     9.1039 </r>
       <r>     7.9674     1.7760     9.3298 </r>
       <r>     8.0946     1.1804     9.4799 </r>
       <r>     8.2218     1.1826     9.6303 </r>
       <r>     8.3489     1.5730     9.8303 </r>
       <r>     8.4761     1.1035     9.9707 </r>
       <r>     8.6033     1.0675    10.1065 </r>
       <r>     8.7305     1.0436    10.2392 </r>
       <r>     8.8576     1.7509    10.4619 </r>
       <r>     8.9848     2.5494    10.7861 </r>
       <r>     9.1120     1.8404    11.0201 </r>
       <r>     9.2392     1.7288    11.2400 </r>
       <r>     9.3664     1.8273    11.4724 </r>
       <r>     9.4935     1.6562    11.6830 </r>
       <r>     9.6207     0.9042    11.7980 </r>
       <r>     9.7479     0.9016    11.9127 </r>
       <r>     9.8751     1.1830    12.0631 </r>
       <r>    10.0022     1.2968    12.2281 </r>
       <r>    10.1294     0.6987    12.3169 </r>
       <r>    10.2566     1.5727    12.5169 </r>
       <r>    10.3838     2.4538    12.8290 </r>
       <r>    10.5109     1.5964    13.0320 </r>
       <r>    10.6381     1.2929    13.1965 </r>
       <r>    10.7653     1.2482    13.3552 </r>
       <r>    10.8925     0.8306    13.4608 </r>
       <r>    11.0197     0.7585    13.5573 </r>
       <r>    11.1468     0.6794    13.6437 </r>
       <r>    11.2740     1.0768    13.7806 </r>
       <r>    11.4012     1.4960    13.9709 </r>
       <r>    11.5284     0.7911    14.0715 </r>
       <r>    11.6555     0.8625    14.1812 </r>
       <r>    11.7827     1.3556    14.3536 </r>
       <r>    11.9099     1.5136    14.5461 </r>
       <r>    12.0371     1.6388    14.7545 </r>
       <r>    12.1642     0.9251    14.8722 </r>
       <r>    12.2914     1.1364    15.0167 </r>
       <r>    12.4186     1.2184    15.1716 </r>
       <r>    12.5458     0.9436    15.2916 </r>
       <r>    12.6730     0.6297    15.3717 </r>
       <r>    12.8001     1.0355    15.5034 </r>
       <r>    12.9273     1.2506    15.6625 </r>
       <r>    13.0545     0.9161    15.7790 </r>
       <r>    13.1817     1.1653    15.9272 </r>
       <r>    13.3088     1.5476    16.1240 </r>
       <r>    13.4360     1.8005    16.3530 </r>
       <r>    13.5632     1.5087    16.5448 </r>
       <r>    13.6904     2.0194    16.8017 </r>
       <r>    13.8175     1.2427    16.9597 </r>
       <r>    13.9447     0.4719    17.0197 </r>
       <r>    14.0719     0.9812    17.1445 </r>
       <r>    14.1991     0.9087    17.2601 </r>
       <r>    14.3262     1.5174    17.4530 </r>
       <r>    14.4534     1.1758    17.6026 </r>
       <r>    14.5806     0.9812    17.7274 </r>
       <r>    14.7078     0.7964    17.8286 </r>
       <r>    14.8350     0.9106    17.9445 </r>
       <r>    14.9621     1.6247    18.1511 </r>
       <r>    15.0893     1.6058    18.3553 </r>
       <r>    15.2165     2.0445    18.6153 </r>
       <r>    15.3437     1.6305    18.8227 </r>
       <r>    15.4708     2.0951    19.0891 </r>
       <r>    15.5980     1.8013    19.3182 </r>
       <r>    15.7252     1.2000    19.4708 </r>
       <r>    15.8524     0.7286    19.5635 </r>
       <r>    15.9795     1.0187    19.6930 </r>
       <r>    16.1067     0.6734    19.7787 </r>
       <r>    16.2339     1.1847    19.9293 </r>
       <r>    16.3611     1.2495    20.0883 </r>
       <r>    16.4883     0.6545    20.1715 </r>
       <r>    16.6154     0.9129    20.2876 </r>
       <r>    16.7426     1.5272    20.4818 </r>
       <r>    16.8698     1.2706    20.6434 </r>
       <r>    16.9970     1.1811    20.7936 </r>
       <r>    17.1241     1.5250    20.9876 </r>
       <r>    17.2513     1.5424    21.1837 </r>
       <r>    17.3785     2.1769    21.4606 </r>
       <r>    17.5057     1.9857    21.7131 </r>
       <r>    17.6328     1.5057    21.9046 </r>
       <r>    17.7600     1.2178    22.0595 </r>
       <r>    17.8872     1.2223    22.2149 </r>
       <r>    18.0144     1.5545    22.4126 </r>
       <r>    18.1416     1.8435    22.6471 </r>
       <r>    18.2687     1.2038    22.8002 </r>
       <r>    18.3959     0.7656    22.8975 </r>
       <r>    18.5231     0.8868    23.0103 </r>
       <r>    18.6503     1.8367    23.2439 </r>
       <r>    18.7774     1.8666    23.4813 </r>
       <r>    18.9046     1.5453    23.6778 </r>
       <r>    19.0318     1.7293    23.8978 </r>
       <r>    19.1590     1.4654    24.0841 </r>
       <r>    19.2861     2.2451    24.3697 </r>
       <r>    19.4133     2.6493    24.7066 </r>
       <r>    19.5405     1.6673    24.9186 </r>
       <r>    19.6677     1.7340    25.1392 </r>
       <r>    19.7949     1.4010    25.3173 </r>
       <r>    19.9220     0.7979    25.4188 </r>
       <r>    20.0492     1.2078    25.5724 </r>
       <r>    20.1764     1.5873    25.7743 </r>
       <r>    20.3036     1.3012    25.9398 </r>
       <r>    20.4307     1.0253    26.0702 </r>
       <r>    20.5579     1.2460    26.2286 </r>
       <r>    20.6851     2.0063    26.4838 </r>
       <r>    20.8123     2.0215    26.7409 </r>
       <r>    20.9394     1.7607    26.9648 </r>
       <r>    21.0666     1.3849    27.1409 </r>
       <r>    21.1938     1.5518    27.3383 </r>
       <r>    21.3210     0.9602    27.4604 </r>
       <r>    21.4481     1.3828    27.6362 </r>
       <r>    21.5753     2.0628    27.8986 </r>
       <r>    21.7025     1.2856    28.0621 </r>
       <r>    21.8297     1.0549    28.1962 </r>
       <r>    21.9569     1.4578    28.3816 </r>
       <r>    22.0840     1.2012    28.5344 </r>
       <r>    22.2112     1.5033    28.7256 </r>
       <r>    22.3384     1.5505    28.9228 </r>
       <r>    22.4656     1.4410    29.1060 </r>
       <r>    22.5927     1.6015    29.3097 </r>
       <r>    22.7199     1.2597    29.4699 </r>
       <r>    22.8471     1.1450    29.6155 </r>
       <r>    22.9743     1.1792    29.7655 </r>
       <r>    23.1014     2.0265    30.0232 </r>
       <r>    23.2286     2.4742    30.3379 </r>
       <r>    23.3558     2.0429    30.5977 </r>
       <r>    23.4830     1.1426    30.7430 </r>
       <r>    23.6102     1.7482    30.9653 </r>
       <r>    23.7373     1.8513    31.2008 </r>
       <r>    23.8645     0.9047    31.3159 </r>
       <r>    23.9917     0.8824    31.4281 </r>
       <r>    24.1189     0.7959    31.5293 </r>
       <r>    24.2460     0.7695    31.6272 </r>
       <r>    24.3732     0.6504    31.7099 </r>
       <r>    24.5004     0.4627    31.7687 </r>
       <r>    24.6276     0.1700    31.7903 </r>
       <r>    24.7547     0.0340    31.7947 </r>
       <r>    24.8819     0.2503    31.8265 </r>
       <r>    25.0091     0.5627    31.8981 </r>
       <r>    25.1363     0.2372    31.9282 </r>
       <r>    25.2635     0.0103    31.9295 </r>
       <r>    25.3906     0.0552    31.9365 </r>
       <r>    25.5178     0.1787    31.9593 </r>
       <r>    25.6450     0.0476    31.9653 </r>
       <r>    25.7722     0.0009    31.9655 </r>
       <r>    25.8993     0.0090    31.9666 </r>
       <r>    26.0265     0.0560    31.9737 </r>
       <r>    26.1537     0.0284    31.9773 </r>
       <r>    26.2809     0.0010    31.9775 </r>
       <r>    26.4080     0.0000    31.9775 </r>
       <r>    26.5352     0.0000    31.9775 </r>
       <r>    26.6624     0.0000    31.9775 </r>
       <r>    26.7896     0.0039    31.9780 </r>
       <r>    26.9168     0.0373    31.9827 </r>
       <r>    27.0439     0.0281    31.9863 </r>
       <r>    27.1711     0.0026    31.9866 </r>
       <r>    27.2983     0.0283    31.9902 </r>
       <r>    27.4255     0.0560    31.9973 </r>
       <r>    27.5526     0.0091    31.9985 </r>
       <r>    27.6798     0.0001    31.9985 </r>
       <r>    27.8070     0.0000    31.9985 </r>
       <r>    27.9342     0.0000    31.9985 </r>
       <r>    28.0613     0.0000    31.9985 </r>
       <r>    28.1885     0.0000    31.9985 </r>
       <r>    28.3157     0.0001    31.9985 </r>
       <r>    28.4429     0.0029    31.9989 </r>
       <r>    28.5701     0.0073    31.9998 </r>
       <r>    28.6972     0.0015    32.0000 </r>
       <r>    28.8244     0.0000    32.0000 </r>
       <r>    28.9516     0.0000    32.0000 </r>
       <r>    29.0788     0.0000    32.0000 </r>
       <r>    29.2059     0.0000    32.0000 </r>
       <r>    29.3331     0.0000    32.0000 </r>
       <r>    29.4603     0.0000    32.0000 </r>
       <r>    29.5875     0.0000    32.0000 </r>
       <r>    29.7146     0.0000    32.0000 </r>
       <r>    29.8418     0.0000    32.0000 </r>
       <r>    29.9690     0.0000    32.0000 </r>
       <r>    30.0962     0.0000    32.0000 </r>
       <r>    30.2233     0.0000    32.0000 </r>
      </set>
     </set>
    </array>
   </total>
  </dos>
 </calculation>
 <structure name="finalpos" >
  <crystal>
   <varray name="basis" >
    <v>      -0.00070555       2.73309564       2.73314542 </v>
    <v>       2.73309564      -0.00070555       2.73314542 </v>
    <v>       2.73306441       2.73306441      -0.00067576 </v>
   </varray>
   <i name="volume">     40.84728556 </i>
   <varray name="rec_basis" >
    <v>      -0.18287291       0.18291814       0.18291680 </v>
    <v>       0.18291814      -0.18287291       0.18291680 </v>
    <v>       0.18292222       0.18292222      -0.18287167 </v>
   </varray>
  </crystal>
  <varray name="positions" >
   <v>       0.87502615       0.87502615       0.87722609 </v>
   <v>       0.12497385       0.12497385       0.12777391 </v>
  </varray>
 </structure>
</modeling>
