cd Si                                   
           1
     0.000000    2.750000    2.750000
     2.750000    0.000000    2.750000
     2.750000    2.750000    0.000000
   Si
   2
Direct configuration=     1
   0.87500000  0.87500000  0.87500000
   0.12500000  0.12500000  0.13000000
cd Si                                   
           1
    -0.007359    2.717190    2.717370
     2.717190   -0.007359    2.717370
     2.725032    2.725032   -0.015201
   Si
   2
Direct configuration=     2
   0.87494705  0.87494705  0.87809252
   0.12505295  0.12505295  0.12690748
cd Si                                   
           1
    -0.004539    2.729760    2.729871
     2.729760   -0.004539    2.729871
     2.734597    2.734597   -0.009377
   Si
   2
Direct configuration=     3
   0.87496424  0.87496424  0.87690026
   0.12503576  0.12503576  0.12809974
cd Si                                   
           1
    -0.001673    2.732254    2.732319
     2.732254   -0.001673    2.732319
     2.733451    2.733451   -0.002871
   Si
   2
Direct configuration=     4
   0.87501061  0.87501061  0.87714378
   0.12498939  0.12498939  0.12785622
cd Si                                   
           1
    -0.000706    2.733096    2.733145
     2.733096   -0.000706    2.733145
     2.733064    2.733064   -0.000676
   Si
   2
Direct configuration=     5
   0.87502615  0.87502615  0.87722609
   0.12497385  0.12497385  0.12777391
