Si64                                    
   1.00000000000000     
    10.9374559999999992    0.0000000000000000    0.0000000000000007
     0.0000000000000018   10.9374559999999992    0.0000000000000007
     0.0000000000000000    0.0000000000000000   10.9374559999999992
   Si
    64
Direct
  0.1107912967113357  0.4058622762309571  0.1067558659743711
  0.0989086009503463  0.3666365038333146  0.6682729585206958
  0.0655279540404775  0.8438950515894539  0.1970524262729990
  0.0805289324104023  0.8976415923536265  0.5718212264086344
  0.6320601084673778  0.3713686090630036  0.1014447983549873
  0.5922704937921505  0.4032575803260550  0.6469546422021508
  0.7108309229901023  0.9217787803177564  0.2009479830224434
  0.5825268894572284  0.8537424983565109  0.6124892515665211
 -0.0180779071915700  0.0194060574349860  0.3314325428555118
 -0.0403929443273559  0.0303572284370821  0.6873707144909983
  0.0616715000331741  0.5575555714058857  0.2550522977705645
  0.0610959846901332  0.5382461153121040  0.8258317604142499
  0.5135420220557172  0.0033677632492476  0.2391924888556156
  0.5247228535661705  0.0467153028534528  0.7522612723376605
  0.4871927555508517  0.4717962743643258  0.2104719462399639
  0.4838620902976640  0.5315514694994637  0.7970949119357390
  0.1483102404064851  0.1289630532734222  0.4164738070358530
  0.1007167151769671  0.0775811666279856  0.8540252135406101
  0.1626947826877601  0.5903159901584364  0.5136612914340472
  0.1735855119300107  0.7084434500713405  0.9500903539741017
  0.5957679398336996  0.1584414042315732  0.3563980823841320
  0.6906162605359605  0.1335910075748280  0.8556181976243424
  0.6073421090826576  0.5754347239115835  0.3688548629969068
  0.6685850569694174  0.6058104281742466  0.9025621102095112
  0.0315876630117712  0.1946401999969697  0.0375264300859492
 -0.0009294834879631  0.2924800445825096  0.4844615629772921
  0.0076506824945345  0.8574361279837351 -0.0243201253683689
 -0.0021546822404152  0.6962994673294320  0.5148771011805779
  0.5297073170946698  0.2519585486406946 -0.0329464552858147
  0.5071588366946974  0.2748868484024434  0.5199033655181575
  0.5043990808637321  0.7558064928009660  0.0301545043588252
  0.4989063864083149  0.6898375204476982  0.4804749559746682
  0.3695084922584420  0.3271644037877416  0.3286601548381525
  0.3815248451838528  0.3558624234717497  0.8616190823379675
  0.3923963299832651  0.8672424654301341  0.3448324635655060
  0.4073454569866848  0.8649580578640613  0.8164068038624570
  0.8886461977327315  0.3872896370969037  0.2979177580039277
  0.9064442804121970  0.3681983580318473  0.9019873900491021
  0.8953135522467927  0.8732548770103330  0.4661902315686500
  0.8711649053389940  0.8684871438662705  0.8229549308048157
  0.2881123172704614 -0.0443158910937619 -0.0541418276384744
  0.2840628438571056 -0.0127857100891620  0.4689279852452815
  0.2161628089873198  0.4635362525252946 -0.0650971050375881
  0.2798647215095532  0.4199007961015969  0.5546301793127982
  0.7912047146650146 -0.0147674116149681 -0.0130708110708767
  0.7388008779889121 -0.0021213374496439  0.5229702596616146
  0.7939719979652783  0.5389474790300361  0.0495716406345702
  0.7335215549827436  0.4509024176390768  0.4984041671733604
  0.3238113491837955  0.1780722722901902  0.0428818271325670
  0.3773287052311566  0.1279622367481720  0.6000175201141638
  0.3455912457799479  0.5989326707023566  0.0626988127329343
  0.3492394709183001  0.6253742463891208  0.6564174736408951
  0.8635332905393841  0.0905582607048202  0.1620617928734678
  0.8129566957201032  0.2071644722690380  0.5742274131008660
  0.9040833420131148  0.7281334868066573  0.1720841881470565
  0.8802016779959264  0.5577911560317923  0.6508011821237121
  0.1731358837292161  0.2197081005258813  0.1924706864935734
  0.2190824489371926  0.2370323175118070  0.7596705061686226
  0.2257618886092115  0.7174600196298477  0.2821827154272638
  0.2419300123404348  0.7857842987091206  0.7355649731662084
  0.7252413586905957  0.2295160646842554  0.2247498202052385
  0.7436756492187410  0.3243418927297658  0.7360875858505995
  0.6814063978101784  0.7009534062358884  0.1947969494198253
  0.7239687149568461  0.7043559875886856  0.7182609042278452
 
  0.32801745E-04  0.91257012E-02  0.32284089E-02
  0.13259572E-02 -0.36914788E-03 -0.23986870E-02
 -0.82285955E-02  0.25062063E-02  0.18642239E-01
 -0.53684816E-02  0.67964473E-02 -0.65122076E-02
 -0.44146970E-02 -0.31354658E-02 -0.92424766E-02
 -0.47735353E-02  0.30694183E-02 -0.75303250E-02
  0.11866657E-01  0.97191740E-02  0.10482056E-01
 -0.40482767E-02 -0.21020786E-02 -0.21216011E-03
  0.52449496E-02  0.59950853E-02  0.10446215E-01
  0.66404135E-03  0.21058845E-02 -0.36114756E-02
  0.41783103E-02 -0.16898706E-02 -0.11160366E-02
  0.56605211E-02  0.63141048E-02  0.77998761E-02
  0.77290669E-02  0.49012217E-02 -0.10308897E-01
  0.98062699E-02  0.55475804E-02 -0.46967072E-02
 -0.11378006E-01 -0.16015313E-01 -0.47290639E-02
 -0.80925556E-02 -0.25273381E-02  0.23159948E-02
 -0.73605895E-02  0.94037650E-04 -0.30179310E-02
 -0.13767400E-01  0.70769760E-02 -0.58761891E-02
  0.67690758E-03  0.20556565E-02  0.74170506E-02
  0.18013270E-02  0.63069936E-02  0.16521866E-01
  0.85131717E-02  0.89383540E-02  0.37135142E-02
 -0.23800602E-02 -0.44073385E-02  0.98408656E-03
  0.58173759E-02 -0.21141677E-02  0.78961490E-02
  0.64102263E-02 -0.11910277E-01  0.57521998E-02
 -0.90326597E-02 -0.15557401E-01  0.72566580E-02
 -0.94830264E-02  0.49115468E-02  0.23912193E-02
  0.11766250E-01  0.77294207E-02 -0.24446789E-02
  0.65273171E-02 -0.86693803E-02  0.65834659E-03
  0.39747336E-02  0.13256287E-01 -0.40542438E-02
 -0.95497687E-02 -0.10232096E-02  0.11403487E-01
 -0.36151355E-02 -0.33703168E-02  0.12976351E-01
  0.13240475E-02 -0.84242003E-02  0.72251878E-02
 -0.20282609E-04 -0.17088806E-02 -0.72594510E-02
 -0.64483851E-02 -0.54819109E-02 -0.12146913E-01
 -0.79826279E-02  0.34845441E-02 -0.46043923E-02
  0.91020656E-02  0.30318832E-02 -0.13101178E-01
  0.98436935E-02 -0.47333787E-02 -0.48323760E-03
  0.11443887E-01  0.62493650E-02  0.69246975E-02
 -0.10166165E-02 -0.30840226E-03  0.12980933E-01
 -0.51075885E-03  0.29545265E-02 -0.10183165E-01
  0.36991218E-02 -0.69559913E-02  0.21093141E-02
  0.37303412E-02 -0.16756988E-04  0.78056768E-03
 -0.47354191E-02 -0.75696985E-03 -0.50952625E-02
  0.36794513E-02 -0.19532605E-01  0.10208965E-01
  0.59296217E-02 -0.45551716E-02  0.11182022E-02
 -0.61826655E-02  0.41248644E-02 -0.73600038E-02
  0.11542151E-01 -0.34019324E-03  0.97148603E-02
 -0.75020802E-02 -0.69247724E-02 -0.14775433E-02
 -0.33990533E-02  0.82060446E-02 -0.90453061E-02
  0.99936176E-02 -0.21154110E-02 -0.12847833E-01
  0.43209303E-02  0.24859499E-02 -0.89567827E-02
  0.15501704E-02 -0.95146795E-02  0.83179420E-02
  0.48090415E-02 -0.76353023E-02 -0.45629512E-03
 -0.14753361E-02  0.15126650E-01 -0.16626613E-01
 -0.50645712E-02  0.13331026E-01  0.25320615E-02
 -0.71575111E-02 -0.67014919E-02  0.34670540E-02
 -0.23501934E-02  0.27518978E-02 -0.11638274E-01
  0.27129468E-02 -0.51352064E-02  0.97867835E-02
 -0.15677989E-01 -0.83238151E-02  0.43792214E-02
 -0.37034383E-02 -0.12006007E-02 -0.62957635E-02
  0.32527869E-02 -0.36542369E-02  0.28718156E-02
  0.33574539E-02  0.11876976E-01  0.43247354E-02
 -0.76337568E-02 -0.62988191E-02 -0.18254675E-01
  0.66260290E-04  0.31362777E-02 -0.50442892E-02
 
           1
   3.00000000000000     
 -0.10940255E+01  0.31251504E-01  0.32722810E-01 -0.11260127E+01
  0.11080029E+00  0.40836534E+00  0.10764138E+00
  0.99272294E-01  0.36653525E+00  0.66761503E+00
  0.63270959E-01  0.84458247E+00  0.20216575E+00
  0.79056429E-01  0.89950577E+00  0.57003501E+00
  0.63084922E+00  0.37050859E+00  0.98909709E-01
  0.59096118E+00  0.40409948E+00  0.64488917E+00
  0.71408579E+00  0.92444462E+00  0.20382307E+00
  0.58141650E+00  0.85316593E+00  0.61243106E+00
  0.98336071E+00  0.21050430E-01  0.33429780E+00
  0.95978919E+00  0.30934845E-01  0.68638013E+00
  0.62817555E-01  0.55709206E+00  0.25474618E+00
  0.62648591E-01  0.53997799E+00  0.82797116E+00
  0.51566200E+00  0.47121037E-02  0.23636489E+00
  0.52741258E+00  0.48236931E-01  0.75097303E+00
  0.48407192E+00  0.46740349E+00  0.20917483E+00
  0.48164241E+00  0.53085825E+00  0.79773016E+00
  0.14629133E+00  0.12898885E+00  0.41564603E+00
  0.96940499E-01  0.79522288E-01  0.85241345E+00
  0.16288045E+00  0.59087983E+00  0.51569569E+00
  0.17407959E+00  0.71017338E+00  0.95462208E+00
  0.59810299E+00  0.16089308E+00  0.35741665E+00
  0.68996344E+00  0.13238213E+00  0.85588812E+00
  0.60893774E+00  0.57485484E+00  0.37102067E+00
  0.67034330E+00  0.60254360E+00  0.90413986E+00
  0.29110124E-01  0.19037301E+00  0.39516836E-01
  0.99646945E+00  0.29382722E+00  0.48511744E+00
  0.10878010E-01  0.85955621E+00  0.97500933E+00
  0.99963567E+00  0.69392157E+00  0.51505768E+00
  0.53079753E+00  0.25559457E+00  0.96594152E+00
  0.50453946E+00  0.27460620E+00  0.52303119E+00
  0.50340750E+00  0.75488206E+00  0.33713746E-01
  0.49926956E+00  0.68752687E+00  0.48245673E+00
  0.36950293E+00  0.32669568E+00  0.32666898E+00
  0.37975614E+00  0.35435881E+00  0.85828734E+00
  0.39020680E+00  0.86819823E+00  0.34356954E+00
  0.40984203E+00  0.86578966E+00  0.81281332E+00
  0.89134619E+00  0.38599133E+00  0.29778521E+00
  0.90958319E+00  0.36991248E+00  0.90388674E+00
  0.89503471E+00  0.87317029E+00  0.46975073E+00
  0.87102481E+00  0.86929753E+00  0.82016182E+00
  0.28912694E+00  0.95377617E+00  0.94643673E+00
  0.28508603E+00  0.98720969E+00  0.46914208E+00
  0.21486395E+00  0.46332863E+00  0.93350533E+00
  0.28087395E+00  0.41454326E+00  0.55743036E+00
  0.79283113E+00  0.98398316E+00  0.98723590E+00
  0.73710505E+00  0.99901006E+00  0.52095151E+00
  0.79713786E+00  0.53885417E+00  0.52236299E-01
  0.73146383E+00  0.44900304E+00  0.49799890E+00
  0.32287903E+00  0.18032308E+00  0.40400819E-01
  0.38006982E+00  0.12738201E+00  0.59649353E+00
  0.34677642E+00  0.59961453E+00  0.60242085E-01
  0.34966466E+00  0.62276450E+00  0.65869898E+00
  0.86485235E+00  0.88463998E-01  0.16193664E+00
  0.81255203E+00  0.21131351E+00  0.56966695E+00
  0.90269420E+00  0.73179001E+00  0.17277870E+00
  0.87823847E+00  0.55595303E+00  0.65175215E+00
  0.17249126E+00  0.22046291E+00  0.18927846E+00
  0.21982657E+00  0.23562380E+00  0.76235489E+00
  0.22146162E+00  0.71517691E+00  0.28338388E+00
  0.24091421E+00  0.78545499E+00  0.73383813E+00
  0.72613356E+00  0.22851376E+00  0.22553752E+00
  0.74459655E+00  0.32759959E+00  0.73727380E+00
  0.67931256E+00  0.69922572E+00  0.18978993E+00
  0.72398689E+00  0.70521623E+00  0.71687732E+00
  0.00000000E+00  0.00000000E+00  0.00000000E+00
  0.00000000E+00  0.00000000E+00  0.00000000E+00
  0.00000000E+00  0.00000000E+00  0.00000000E+00
  0.00000000E+00  0.00000000E+00  0.00000000E+00
  0.00000000E+00  0.00000000E+00  0.00000000E+00
  0.00000000E+00  0.00000000E+00  0.00000000E+00
  0.00000000E+00  0.00000000E+00  0.00000000E+00
  0.00000000E+00  0.00000000E+00  0.00000000E+00
  0.00000000E+00  0.00000000E+00  0.00000000E+00
  0.00000000E+00  0.00000000E+00  0.00000000E+00
  0.00000000E+00  0.00000000E+00  0.00000000E+00
  0.00000000E+00  0.00000000E+00  0.00000000E+00
  0.00000000E+00  0.00000000E+00  0.00000000E+00
  0.00000000E+00  0.00000000E+00  0.00000000E+00
  0.00000000E+00  0.00000000E+00  0.00000000E+00
  0.00000000E+00  0.00000000E+00  0.00000000E+00
  0.00000000E+00  0.00000000E+00  0.00000000E+00
  0.00000000E+00  0.00000000E+00  0.00000000E+00
  0.00000000E+00  0.00000000E+00  0.00000000E+00
  0.00000000E+00  0.00000000E+00  0.00000000E+00
  0.00000000E+00  0.00000000E+00  0.00000000E+00
  0.00000000E+00  0.00000000E+00  0.00000000E+00
  0.00000000E+00  0.00000000E+00  0.00000000E+00
  0.00000000E+00  0.00000000E+00  0.00000000E+00
  0.00000000E+00  0.00000000E+00  0.00000000E+00
  0.00000000E+00  0.00000000E+00  0.00000000E+00
  0.00000000E+00  0.00000000E+00  0.00000000E+00
  0.00000000E+00  0.00000000E+00  0.00000000E+00
  0.00000000E+00  0.00000000E+00  0.00000000E+00
  0.00000000E+00  0.00000000E+00  0.00000000E+00
  0.00000000E+00  0.00000000E+00  0.00000000E+00
  0.00000000E+00  0.00000000E+00  0.00000000E+00
  0.00000000E+00  0.00000000E+00  0.00000000E+00
  0.00000000E+00  0.00000000E+00  0.00000000E+00
  0.00000000E+00  0.00000000E+00  0.00000000E+00
  0.00000000E+00  0.00000000E+00  0.00000000E+00
  0.00000000E+00  0.00000000E+00  0.00000000E+00
  0.00000000E+00  0.00000000E+00  0.00000000E+00
  0.00000000E+00  0.00000000E+00  0.00000000E+00
  0.00000000E+00  0.00000000E+00  0.00000000E+00
  0.00000000E+00  0.00000000E+00  0.00000000E+00
  0.00000000E+00  0.00000000E+00  0.00000000E+00
  0.00000000E+00  0.00000000E+00  0.00000000E+00
  0.00000000E+00  0.00000000E+00  0.00000000E+00
  0.00000000E+00  0.00000000E+00  0.00000000E+00
  0.00000000E+00  0.00000000E+00  0.00000000E+00
  0.00000000E+00  0.00000000E+00  0.00000000E+00
  0.00000000E+00  0.00000000E+00  0.00000000E+00
  0.00000000E+00  0.00000000E+00  0.00000000E+00
  0.00000000E+00  0.00000000E+00  0.00000000E+00
  0.00000000E+00  0.00000000E+00  0.00000000E+00
  0.00000000E+00  0.00000000E+00  0.00000000E+00
  0.00000000E+00  0.00000000E+00  0.00000000E+00
  0.00000000E+00  0.00000000E+00  0.00000000E+00
  0.00000000E+00  0.00000000E+00  0.00000000E+00
  0.00000000E+00  0.00000000E+00  0.00000000E+00
  0.00000000E+00  0.00000000E+00  0.00000000E+00
  0.00000000E+00  0.00000000E+00  0.00000000E+00
  0.00000000E+00  0.00000000E+00  0.00000000E+00
  0.00000000E+00  0.00000000E+00  0.00000000E+00
  0.00000000E+00  0.00000000E+00  0.00000000E+00
  0.00000000E+00  0.00000000E+00  0.00000000E+00
  0.00000000E+00  0.00000000E+00  0.00000000E+00
  0.00000000E+00  0.00000000E+00  0.00000000E+00
  0.00000000E+00  0.00000000E+00  0.00000000E+00
  0.00000000E+00  0.00000000E+00  0.00000000E+00
  0.00000000E+00  0.00000000E+00  0.00000000E+00
  0.00000000E+00  0.00000000E+00  0.00000000E+00
  0.00000000E+00  0.00000000E+00  0.00000000E+00
  0.00000000E+00  0.00000000E+00  0.00000000E+00
  0.00000000E+00  0.00000000E+00  0.00000000E+00
  0.00000000E+00  0.00000000E+00  0.00000000E+00
  0.00000000E+00  0.00000000E+00  0.00000000E+00
  0.00000000E+00  0.00000000E+00  0.00000000E+00
  0.00000000E+00  0.00000000E+00  0.00000000E+00
  0.00000000E+00  0.00000000E+00  0.00000000E+00
  0.00000000E+00  0.00000000E+00  0.00000000E+00
  0.00000000E+00  0.00000000E+00  0.00000000E+00
  0.00000000E+00  0.00000000E+00  0.00000000E+00
  0.00000000E+00  0.00000000E+00  0.00000000E+00
  0.00000000E+00  0.00000000E+00  0.00000000E+00
  0.00000000E+00  0.00000000E+00  0.00000000E+00
  0.00000000E+00  0.00000000E+00  0.00000000E+00
  0.00000000E+00  0.00000000E+00  0.00000000E+00
  0.00000000E+00  0.00000000E+00  0.00000000E+00
  0.00000000E+00  0.00000000E+00  0.00000000E+00
  0.00000000E+00  0.00000000E+00  0.00000000E+00
  0.00000000E+00  0.00000000E+00  0.00000000E+00
  0.00000000E+00  0.00000000E+00  0.00000000E+00
  0.00000000E+00  0.00000000E+00  0.00000000E+00
  0.00000000E+00  0.00000000E+00  0.00000000E+00
  0.00000000E+00  0.00000000E+00  0.00000000E+00
  0.00000000E+00  0.00000000E+00  0.00000000E+00
  0.00000000E+00  0.00000000E+00  0.00000000E+00
  0.00000000E+00  0.00000000E+00  0.00000000E+00
  0.00000000E+00  0.00000000E+00  0.00000000E+00
  0.00000000E+00  0.00000000E+00  0.00000000E+00
  0.00000000E+00  0.00000000E+00  0.00000000E+00
  0.00000000E+00  0.00000000E+00  0.00000000E+00
  0.00000000E+00  0.00000000E+00  0.00000000E+00
  0.00000000E+00  0.00000000E+00  0.00000000E+00
  0.00000000E+00  0.00000000E+00  0.00000000E+00
  0.00000000E+00  0.00000000E+00  0.00000000E+00
  0.00000000E+00  0.00000000E+00  0.00000000E+00
  0.00000000E+00  0.00000000E+00  0.00000000E+00
  0.00000000E+00  0.00000000E+00  0.00000000E+00
  0.00000000E+00  0.00000000E+00  0.00000000E+00
  0.00000000E+00  0.00000000E+00  0.00000000E+00
  0.00000000E+00  0.00000000E+00  0.00000000E+00
  0.00000000E+00  0.00000000E+00  0.00000000E+00
  0.00000000E+00  0.00000000E+00  0.00000000E+00
  0.00000000E+00  0.00000000E+00  0.00000000E+00
  0.00000000E+00  0.00000000E+00  0.00000000E+00
  0.00000000E+00  0.00000000E+00  0.00000000E+00
  0.00000000E+00  0.00000000E+00  0.00000000E+00
  0.00000000E+00  0.00000000E+00  0.00000000E+00
  0.00000000E+00  0.00000000E+00  0.00000000E+00
  0.00000000E+00  0.00000000E+00  0.00000000E+00
  0.00000000E+00  0.00000000E+00  0.00000000E+00
  0.00000000E+00  0.00000000E+00  0.00000000E+00
  0.00000000E+00  0.00000000E+00  0.00000000E+00
  0.00000000E+00  0.00000000E+00  0.00000000E+00
  0.00000000E+00  0.00000000E+00  0.00000000E+00
  0.00000000E+00  0.00000000E+00  0.00000000E+00
  0.00000000E+00  0.00000000E+00  0.00000000E+00
  0.00000000E+00  0.00000000E+00  0.00000000E+00
  0.00000000E+00  0.00000000E+00  0.00000000E+00
  0.00000000E+00  0.00000000E+00  0.00000000E+00
