  64  64   0   0
  0.2044415E+02  0.1093746E-08  0.1093746E-08  0.1093746E-08  0.3000000E-14
   2000.00000000000     
  CAR 
 cd Si                                   
     10.17925757     -7.47387817  301      5.77130241      1.00000000
     -7.474  0.0000E+00  0.0000E+00
     -7.415  0.0000E+00  0.0000E+00
     -7.356  0.0000E+00  0.0000E+00
     -7.297  0.0000E+00  0.0000E+00
     -7.239  0.0000E+00  0.0000E+00
     -7.180  0.0000E+00  0.0000E+00
     -7.121  0.0000E+00  0.0000E+00
     -7.062  0.3452E-14  0.2072E-15
     -7.003  0.2759E-11  0.1660E-12
     -6.944  0.1108E-08  0.6676E-10
     -6.885  0.2191E-06  0.1323E-07
     -6.827  0.2142E-04  0.1299E-05
     -6.768  0.1041E-02  0.6376E-04
     -6.709  0.2533E-01  0.1582E-02
     -6.650  0.3113E+00  0.2022E-01
     -6.591  0.1950E+01  0.1368E+00
     -6.532  0.6283E+01  0.5118E+00
     -6.474  0.1050E+02  0.1138E+01
     -6.415  0.9169E+01  0.1683E+01
     -6.356  0.4197E+01  0.1932E+01
     -6.297  0.1009E+01  0.1992E+01
     -6.238  0.1272E+00  0.1999E+01
     -6.179  0.8396E-02  0.2000E+01
     -6.120  0.3369E-03  0.2000E+01
     -6.062  0.1258E-02  0.2000E+01
     -6.003  0.1800E-01  0.2001E+01
     -5.944  0.1506E+00  0.2010E+01
     -5.885  0.7725E+00  0.2056E+01
     -5.826  0.2517E+01  0.2205E+01
     -5.767  0.5421E+01  0.2528E+01
     -5.709  0.8704E+01  0.3045E+01
     -5.650  0.1287E+02  0.3809E+01
     -5.591  0.1862E+02  0.4915E+01
     -5.532  0.2358E+02  0.6319E+01
     -5.473  0.2547E+02  0.7841E+01
     -5.414  0.2431E+02  0.9295E+01
     -5.356  0.2122E+02  0.1056E+02
     -5.297  0.1779E+02  0.1162E+02
     -5.238  0.1452E+02  0.1248E+02
     -5.179  0.1134E+02  0.1316E+02
     -5.120  0.8006E+01  0.1363E+02
     -5.061  0.4596E+01  0.1390E+02
     -5.002  0.2828E+01  0.1407E+02
     -4.944  0.4145E+01  0.1432E+02
     -4.885  0.8028E+01  0.1479E+02
     -4.826  0.1320E+02  0.1558E+02
     -4.767  0.1848E+02  0.1668E+02
     -4.708  0.2303E+02  0.1805E+02
     -4.649  0.2771E+02  0.1971E+02
     -4.591  0.3368E+02  0.2173E+02
     -4.532  0.3776E+02  0.2399E+02
     -4.473  0.3692E+02  0.2620E+02
     -4.414  0.3398E+02  0.2823E+02
     -4.355  0.3226E+02  0.3015E+02
     -4.296  0.3166E+02  0.3204E+02
     -4.237  0.3093E+02  0.3388E+02
     -4.179  0.2995E+02  0.3566E+02
     -4.120  0.2846E+02  0.3736E+02
     -4.061  0.2618E+02  0.3891E+02
     -4.002  0.2349E+02  0.4031E+02
     -3.943  0.2039E+02  0.4152E+02
     -3.884  0.1715E+02  0.4253E+02
     -3.826  0.1361E+02  0.4334E+02
     -3.767  0.9695E+01  0.4392E+02
     -3.708  0.6357E+01  0.4429E+02
     -3.649  0.4348E+01  0.4455E+02
     -3.590  0.3459E+01  0.4475E+02
     -3.531  0.3186E+01  0.4494E+02
     -3.473  0.3216E+01  0.4513E+02
     -3.414  0.3238E+01  0.4532E+02
     -3.355  0.3131E+01  0.4550E+02
     -3.296  0.2937E+01  0.4567E+02
     -3.237  0.2477E+01  0.4582E+02
     -3.178  0.1725E+01  0.4592E+02
     -3.119  0.9240E+00  0.4598E+02
     -3.061  0.3514E+00  0.4600E+02
     -3.002  0.2122E+00  0.4601E+02
     -2.943  0.7065E+00  0.4605E+02
     -2.884  0.2196E+01  0.4618E+02
     -2.825  0.4939E+01  0.4647E+02
     -2.766  0.9189E+01  0.4702E+02
     -2.708  0.1512E+02  0.4793E+02
     -2.649  0.2224E+02  0.4926E+02
     -2.590  0.2970E+02  0.5104E+02
     -2.531  0.3610E+02  0.5320E+02
     -2.472  0.4028E+02  0.5561E+02
     -2.413  0.4140E+02  0.5809E+02
     -2.354  0.3928E+02  0.6044E+02
     -2.296  0.3602E+02  0.6259E+02
     -2.237  0.3324E+02  0.6458E+02
     -2.178  0.3163E+02  0.6646E+02
     -2.119  0.3195E+02  0.6836E+02
     -2.060  0.3229E+02  0.7028E+02
     -2.001  0.3028E+02  0.7208E+02
     -1.943  0.2735E+02  0.7371E+02
     -1.884  0.2511E+02  0.7520E+02
     -1.825  0.2321E+02  0.7657E+02
     -1.766  0.2196E+02  0.7788E+02
     -1.707  0.2074E+02  0.7911E+02
     -1.648  0.1861E+02  0.8021E+02
     -1.589  0.1714E+02  0.8123E+02
     -1.531  0.1751E+02  0.8227E+02
     -1.472  0.1849E+02  0.8337E+02
     -1.413  0.1828E+02  0.8446E+02
     -1.354  0.1596E+02  0.8541E+02
     -1.295  0.1241E+02  0.8615E+02
     -1.236  0.9093E+01  0.8668E+02
     -1.178  0.6721E+01  0.8708E+02
     -1.119  0.5698E+01  0.8742E+02
     -1.060  0.5859E+01  0.8776E+02
     -1.001  0.6383E+01  0.8814E+02
     -0.942  0.6828E+01  0.8854E+02
     -0.883  0.7120E+01  0.8896E+02
     -0.825  0.6604E+01  0.8935E+02
     -0.766  0.4981E+01  0.8964E+02
     -0.707  0.3169E+01  0.8983E+02
     -0.648  0.2170E+01  0.8996E+02
     -0.589  0.2399E+01  0.9010E+02
     -0.530  0.4294E+01  0.9035E+02
     -0.471  0.8970E+01  0.9089E+02
     -0.413  0.1737E+02  0.9194E+02
     -0.354  0.2663E+02  0.9354E+02
     -0.295  0.3188E+02  0.9545E+02
     -0.236  0.3312E+02  0.9743E+02
     -0.177  0.3139E+02  0.9931E+02
     -0.118  0.2775E+02  0.1010E+03
     -0.060  0.2571E+02  0.1025E+03
     -0.001  0.2666E+02  0.1041E+03
      0.058  0.2813E+02  0.1058E+03
      0.117  0.2734E+02  0.1074E+03
      0.176  0.2375E+02  0.1088E+03
      0.235  0.1835E+02  0.1099E+03
      0.294  0.1277E+02  0.1106E+03
      0.352  0.9149E+01  0.1112E+03
      0.411  0.8104E+01  0.1116E+03
      0.470  0.8764E+01  0.1122E+03
      0.529  0.9535E+01  0.1127E+03
      0.588  0.9009E+01  0.1133E+03
      0.647  0.6938E+01  0.1137E+03
      0.705  0.4336E+01  0.1139E+03
      0.764  0.2767E+01  0.1141E+03
      0.823  0.2610E+01  0.1142E+03
      0.882  0.3331E+01  0.1144E+03
      0.941  0.5067E+01  0.1147E+03
      1.000  0.7971E+01  0.1152E+03
      1.058  0.1248E+02  0.1159E+03
      1.117  0.1958E+02  0.1171E+03
      1.176  0.2939E+02  0.1189E+03
      1.235  0.4071E+02  0.1213E+03
      1.294  0.4983E+02  0.1243E+03
      1.353  0.5344E+02  0.1275E+03
      1.412  0.5429E+02  0.1308E+03
      1.470  0.5749E+02  0.1342E+03
      1.529  0.6039E+02  0.1378E+03
      1.588  0.5841E+02  0.1413E+03
      1.647  0.5525E+02  0.1446E+03
      1.706  0.5448E+02  0.1478E+03
      1.765  0.5326E+02  0.1510E+03
      1.823  0.4889E+02  0.1539E+03
      1.882  0.4337E+02  0.1565E+03
      1.941  0.3924E+02  0.1588E+03
      2.000  0.3544E+02  0.1609E+03
      2.059  0.3088E+02  0.1628E+03
      2.118  0.2745E+02  0.1644E+03
      2.177  0.2688E+02  0.1660E+03
      2.235  0.2606E+02  0.1676E+03
      2.294  0.2288E+02  0.1689E+03
      2.353  0.2031E+02  0.1701E+03
      2.412  0.2042E+02  0.1713E+03
      2.471  0.2260E+02  0.1727E+03
      2.530  0.2492E+02  0.1742E+03
      2.588  0.2526E+02  0.1757E+03
      2.647  0.2307E+02  0.1770E+03
      2.706  0.1950E+02  0.1782E+03
      2.765  0.1636E+02  0.1792E+03
      2.824  0.1442E+02  0.1800E+03
      2.883  0.1360E+02  0.1808E+03
      2.941  0.1449E+02  0.1817E+03
      3.000  0.1804E+02  0.1827E+03
      3.059  0.2392E+02  0.1842E+03
      3.118  0.2812E+02  0.1859E+03
      3.177  0.2719E+02  0.1875E+03
      3.236  0.2445E+02  0.1890E+03
      3.295  0.2370E+02  0.1904E+03
      3.353  0.2537E+02  0.1919E+03
      3.412  0.2993E+02  0.1937E+03
      3.471  0.3518E+02  0.1958E+03
      3.530  0.3857E+02  0.1981E+03
      3.589  0.4220E+02  0.2006E+03
      3.648  0.4576E+02  0.2033E+03
      3.706  0.4617E+02  0.2061E+03
      3.765  0.4409E+02  0.2087E+03
      3.824  0.4128E+02  0.2112E+03
      3.883  0.3803E+02  0.2135E+03
      3.942  0.3511E+02  0.2156E+03
      4.001  0.3466E+02  0.2176E+03
      4.060  0.3721E+02  0.2198E+03
      4.118  0.3956E+02  0.2222E+03
      4.177  0.3901E+02  0.2245E+03
      4.236  0.3731E+02  0.2267E+03
      4.295  0.3624E+02  0.2289E+03
      4.354  0.3516E+02  0.2310E+03
      4.413  0.3332E+02  0.2330E+03
      4.471  0.3045E+02  0.2348E+03
      4.530  0.2744E+02  0.2364E+03
      4.589  0.2501E+02  0.2379E+03
      4.648  0.2236E+02  0.2392E+03
      4.707  0.1957E+02  0.2403E+03
      4.766  0.1796E+02  0.2414E+03
      4.824  0.1779E+02  0.2425E+03
      4.883  0.1778E+02  0.2435E+03
      4.942  0.1613E+02  0.2445E+03
      5.001  0.1376E+02  0.2453E+03
      5.060  0.1341E+02  0.2461E+03
      5.119  0.1463E+02  0.2469E+03
      5.178  0.1497E+02  0.2478E+03
      5.236  0.1487E+02  0.2487E+03
      5.295  0.1561E+02  0.2496E+03
      5.354  0.1588E+02  0.2506E+03
      5.413  0.1523E+02  0.2515E+03
      5.472  0.1556E+02  0.2524E+03
      5.531  0.1803E+02  0.2535E+03
      5.589  0.2127E+02  0.2547E+03
      5.648  0.2256E+02  0.2561E+03
      5.707  0.2252E+02  0.2574E+03
      5.766  0.2356E+02  0.2588E+03
      5.825  0.2508E+02  0.2603E+03
      5.884  0.2665E+02  0.2619E+03
      5.943  0.2936E+02  0.2637E+03
      6.001  0.3159E+02  0.2655E+03
      6.060  0.3045E+02  0.2674E+03
      6.119  0.2768E+02  0.2690E+03
      6.178  0.2551E+02  0.2705E+03
      6.237  0.2463E+02  0.2720E+03
      6.296  0.2698E+02  0.2736E+03
      6.354  0.3087E+02  0.2754E+03
      6.413  0.3199E+02  0.2773E+03
      6.472  0.3064E+02  0.2792E+03
      6.531  0.3062E+02  0.2810E+03
      6.590  0.3116E+02  0.2828E+03
      6.649  0.2794E+02  0.2845E+03
      6.707  0.2187E+02  0.2858E+03
      6.766  0.1697E+02  0.2868E+03
      6.825  0.1376E+02  0.2876E+03
      6.884  0.1065E+02  0.2882E+03
      6.943  0.8037E+01  0.2887E+03
      7.002  0.7595E+01  0.2891E+03
      7.061  0.9989E+01  0.2897E+03
      7.119  0.1612E+02  0.2907E+03
      7.178  0.2649E+02  0.2923E+03
      7.237  0.3673E+02  0.2945E+03
      7.296  0.4124E+02  0.2969E+03
      7.355  0.4151E+02  0.2994E+03
      7.414  0.4142E+02  0.3019E+03
      7.472  0.4161E+02  0.3044E+03
      7.531  0.4078E+02  0.3068E+03
      7.590  0.3782E+02  0.3091E+03
      7.649  0.3396E+02  0.3111E+03
      7.708  0.3113E+02  0.3129E+03
      7.767  0.2889E+02  0.3146E+03
      7.826  0.2786E+02  0.3163E+03
      7.884  0.3071E+02  0.3181E+03
      7.943  0.3492E+02  0.3202E+03
      8.002  0.3637E+02  0.3224E+03
      8.061  0.3593E+02  0.3245E+03
      8.120  0.3490E+02  0.3266E+03
      8.179  0.3209E+02  0.3285E+03
      8.237  0.2776E+02  0.3302E+03
      8.296  0.2533E+02  0.3317E+03
      8.355  0.2523E+02  0.3332E+03
      8.414  0.2436E+02  0.3346E+03
      8.473  0.2269E+02  0.3360E+03
      8.532  0.2251E+02  0.3373E+03
      8.590  0.2355E+02  0.3387E+03
      8.649  0.2476E+02  0.3402E+03
      8.708  0.2531E+02  0.3417E+03
      8.767  0.2404E+02  0.3431E+03
      8.826  0.2190E+02  0.3444E+03
      8.885  0.1915E+02  0.3456E+03
      8.944  0.1524E+02  0.3465E+03
      9.002  0.1274E+02  0.3472E+03
      9.061  0.1399E+02  0.3480E+03
      9.120  0.1798E+02  0.3491E+03
      9.179  0.2051E+02  0.3503E+03
      9.238  0.1669E+02  0.3513E+03
      9.297  0.8345E+01  0.3518E+03
      9.355  0.2347E+01  0.3520E+03
      9.414  0.3535E+00  0.3520E+03
      9.473  0.2772E-01  0.3520E+03
      9.532  0.1111E-02  0.3520E+03
      9.591  0.2245E-04  0.3520E+03
      9.650  0.2268E-06  0.3520E+03
      9.709  0.1136E-08  0.3520E+03
      9.767  0.2811E-11  0.3520E+03
      9.826  0.2448E-14  0.3520E+03
      9.885  0.0000E+00  0.3520E+03
      9.944  0.0000E+00  0.3520E+03
     10.003  0.0000E+00  0.3520E+03
     10.062  0.0000E+00  0.3520E+03
     10.120  0.0000E+00  0.3520E+03
     10.179  0.0000E+00  0.3520E+03
     10.23955108     -7.49461966  301      5.78007966      1.00000000
     -7.495  0.0000E+00  0.0000E+00
     -7.436  0.0000E+00  0.0000E+00
     -7.376  0.0000E+00  0.0000E+00
     -7.317  0.0000E+00  0.0000E+00
     -7.258  0.0000E+00  0.0000E+00
     -7.199  0.0000E+00  0.0000E+00
     -7.140  0.0000E+00  0.0000E+00
     -7.081  0.6260E-16  0.3701E-17
     -7.022  0.5096E-13  0.3016E-14
     -6.963  0.2046E-10  0.1212E-11
     -6.903  0.4138E-08  0.2458E-09
     -6.844  0.4226E-06  0.2523E-07
     -6.785  0.2187E-04  0.1318E-05
     -6.726  0.5753E-03  0.3532E-04
     -6.667  0.7726E-02  0.4920E-03
     -6.608  0.5320E-01  0.3637E-02
     -6.549  0.1886E+00  0.1479E-01
     -6.490  0.3451E+00  0.3519E-01
     -6.431  0.3267E+00  0.5450E-01
     -6.371  0.1599E+00  0.6395E-01
     -6.312  0.4037E-01  0.6634E-01
     -6.253  0.5246E-02  0.6665E-01
     -6.194  0.3552E-03  0.6667E-01
     -6.135  0.2127E-03  0.6668E-01
     -6.076  0.3403E-02  0.6688E-01
     -6.017  0.2955E-01  0.6863E-01
     -5.958  0.1329E+00  0.7648E-01
     -5.899  0.3183E+00  0.9530E-01
     -5.839  0.4493E+00  0.1219E+00
     -5.780  0.4842E+00  0.1505E+00
     -5.721  0.5081E+00  0.1805E+00
     -5.662  0.5112E+00  0.2107E+00
     -5.603  0.4675E+00  0.2384E+00
     -5.544  0.3185E+00  0.2572E+00
     -5.485  0.1293E+00  0.2648E+00
     -5.426  0.3396E-01  0.2668E+00
     -5.367  0.4760E-01  0.2697E+00
     -5.307  0.1726E+00  0.2799E+00
     -5.248  0.3656E+00  0.3015E+00
     -5.189  0.5030E+00  0.3312E+00
     -5.130  0.6275E+00  0.3683E+00
     -5.071  0.7316E+00  0.4116E+00
     -5.012  0.6072E+00  0.4475E+00
     -4.953  0.4106E+00  0.4717E+00
     -4.894  0.4935E+00  0.5009E+00
     -4.834  0.7041E+00  0.5425E+00
     -4.775  0.6372E+00  0.5802E+00
     -4.716  0.4228E+00  0.6052E+00
     -4.657  0.4122E+00  0.6296E+00
     -4.598  0.5272E+00  0.6607E+00
     -4.539  0.5967E+00  0.6960E+00
     -4.480  0.6366E+00  0.7336E+00
     -4.421  0.6922E+00  0.7745E+00
     -4.362  0.7615E+00  0.8196E+00
     -4.302  0.7993E+00  0.8668E+00
     -4.243  0.7941E+00  0.9137E+00
     -4.184  0.7752E+00  0.9596E+00
     -4.125  0.7598E+00  0.1004E+01
     -4.066  0.7266E+00  0.1047E+01
     -4.007  0.6721E+00  0.1087E+01
     -3.948  0.6140E+00  0.1123E+01
     -3.889  0.5766E+00  0.1158E+01
     -3.830  0.5631E+00  0.1191E+01
     -3.770  0.5464E+00  0.1223E+01
     -3.711  0.5108E+00  0.1253E+01
     -3.652  0.4725E+00  0.1281E+01
     -3.593  0.4455E+00  0.1308E+01
     -3.534  0.3640E+00  0.1329E+01
     -3.475  0.3375E+00  0.1349E+01
     -3.416  0.4407E+00  0.1375E+01
     -3.357  0.5240E+00  0.1406E+01
     -3.298  0.5438E+00  0.1438E+01
     -3.238  0.5318E+00  0.1470E+01
     -3.179  0.4925E+00  0.1499E+01
     -3.120  0.3658E+00  0.1520E+01
     -3.061  0.1695E+00  0.1530E+01
     -3.002  0.4288E-01  0.1533E+01
     -2.943  0.5791E-02  0.1533E+01
     -2.884  0.2783E-02  0.1533E+01
     -2.825  0.2285E-01  0.1535E+01
     -2.766  0.1124E+00  0.1541E+01
     -2.706  0.2933E+00  0.1559E+01
     -2.647  0.4467E+00  0.1585E+01
     -2.588  0.5239E+00  0.1616E+01
     -2.529  0.6265E+00  0.1653E+01
     -2.470  0.6605E+00  0.1692E+01
     -2.411  0.5445E+00  0.1724E+01
     -2.352  0.5254E+00  0.1756E+01
     -2.293  0.7248E+00  0.1798E+01
     -2.233  0.8265E+00  0.1847E+01
     -2.174  0.7609E+00  0.1892E+01
     -2.115  0.7707E+00  0.1938E+01
     -2.056  0.8785E+00  0.1990E+01
     -1.997  0.9781E+00  0.2048E+01
     -1.938  0.9029E+00  0.2101E+01
     -1.879  0.7125E+00  0.2143E+01
     -1.820  0.7430E+00  0.2187E+01
     -1.761  0.1004E+01  0.2246E+01
     -1.701  0.1251E+01  0.2320E+01
     -1.642  0.1241E+01  0.2394E+01
     -1.583  0.9055E+00  0.2447E+01
     -1.524  0.6160E+00  0.2484E+01
     -1.465  0.6329E+00  0.2521E+01
     -1.406  0.6613E+00  0.2560E+01
     -1.347  0.4790E+00  0.2588E+01
     -1.288  0.3300E+00  0.2608E+01
     -1.229  0.4703E+00  0.2636E+01
     -1.169  0.6866E+00  0.2676E+01
     -1.110  0.6050E+00  0.2712E+01
     -1.051  0.3515E+00  0.2733E+01
     -0.992  0.3123E+00  0.2751E+01
     -0.933  0.5141E+00  0.2782E+01
     -0.874  0.7208E+00  0.2824E+01
     -0.815  0.8018E+00  0.2872E+01
     -0.756  0.7533E+00  0.2916E+01
     -0.697  0.6771E+00  0.2956E+01
     -0.637  0.6555E+00  0.2995E+01
     -0.578  0.5954E+00  0.3030E+01
     -0.519  0.4139E+00  0.3055E+01
     -0.460  0.2435E+00  0.3069E+01
     -0.401  0.2893E+00  0.3086E+01
     -0.342  0.4934E+00  0.3115E+01
     -0.283  0.6038E+00  0.3151E+01
     -0.224  0.5010E+00  0.3181E+01
     -0.164  0.3158E+00  0.3199E+01
     -0.105  0.2917E+00  0.3216E+01
     -0.046  0.4343E+00  0.3242E+01
      0.013  0.5972E+00  0.3277E+01
      0.072  0.8220E+00  0.3326E+01
      0.131  0.1030E+01  0.3387E+01
      0.190  0.1013E+01  0.3447E+01
      0.249  0.8540E+00  0.3497E+01
      0.308  0.7109E+00  0.3539E+01
      0.368  0.5593E+00  0.3572E+01
      0.427  0.3562E+00  0.3593E+01
      0.486  0.2620E+00  0.3609E+01
      0.545  0.4295E+00  0.3634E+01
      0.604  0.7347E+00  0.3678E+01
      0.663  0.9048E+00  0.3731E+01
      0.722  0.7470E+00  0.3775E+01
      0.781  0.4621E+00  0.3803E+01
      0.840  0.4206E+00  0.3828E+01
      0.900  0.5547E+00  0.3860E+01
      0.959  0.5885E+00  0.3895E+01
      1.018  0.4677E+00  0.3923E+01
      1.077  0.3721E+00  0.3945E+01
      1.136  0.4182E+00  0.3970E+01
      1.195  0.4704E+00  0.3997E+01
      1.254  0.5031E+00  0.4027E+01
      1.313  0.5854E+00  0.4062E+01
      1.372  0.7451E+00  0.4106E+01
      1.432  0.9958E+00  0.4165E+01
      1.491  0.1256E+01  0.4239E+01
      1.550  0.1495E+01  0.4327E+01
      1.609  0.1580E+01  0.4421E+01
      1.668  0.1420E+01  0.4505E+01
      1.727  0.1221E+01  0.4577E+01
      1.786  0.9962E+00  0.4636E+01
      1.845  0.7951E+00  0.4683E+01
      1.904  0.8892E+00  0.4735E+01
      1.964  0.1124E+01  0.4802E+01
      2.023  0.1136E+01  0.4869E+01
      2.082  0.9358E+00  0.4924E+01
      2.141  0.8649E+00  0.4975E+01
      2.200  0.9678E+00  0.5032E+01
      2.259  0.9936E+00  0.5091E+01
      2.318  0.9071E+00  0.5145E+01
      2.377  0.7102E+00  0.5187E+01
      2.437  0.5733E+00  0.5221E+01
      2.496  0.6712E+00  0.5260E+01
      2.555  0.8718E+00  0.5312E+01
      2.614  0.1015E+01  0.5372E+01
      2.673  0.9731E+00  0.5429E+01
      2.732  0.7975E+00  0.5477E+01
      2.791  0.7229E+00  0.5519E+01
      2.850  0.7443E+00  0.5563E+01
      2.909  0.7960E+00  0.5610E+01
      2.969  0.9459E+00  0.5666E+01
      3.028  0.1075E+01  0.5730E+01
      3.087  0.1032E+01  0.5791E+01
      3.146  0.8663E+00  0.5842E+01
      3.205  0.7315E+00  0.5885E+01
      3.264  0.8124E+00  0.5933E+01
      3.323  0.1090E+01  0.5998E+01
      3.382  0.1240E+01  0.6071E+01
      3.441  0.1041E+01  0.6133E+01
      3.501  0.8015E+00  0.6180E+01
      3.560  0.8282E+00  0.6229E+01
      3.619  0.1081E+01  0.6293E+01
      3.678  0.1281E+01  0.6369E+01
      3.737  0.1255E+01  0.6443E+01
      3.796  0.1096E+01  0.6507E+01
      3.855  0.9011E+00  0.6561E+01
      3.914  0.7399E+00  0.6605E+01
      3.973  0.7255E+00  0.6647E+01
      4.033  0.8161E+00  0.6696E+01
      4.092  0.9174E+00  0.6750E+01
      4.151  0.1073E+01  0.6813E+01
      4.210  0.1198E+01  0.6884E+01
      4.269  0.1110E+01  0.6950E+01
      4.328  0.9639E+00  0.7007E+01
      4.387  0.1029E+01  0.7068E+01
      4.446  0.1181E+01  0.7137E+01
      4.506  0.1207E+01  0.7209E+01
      4.565  0.1187E+01  0.7279E+01
      4.624  0.1264E+01  0.7354E+01
      4.683  0.1291E+01  0.7430E+01
      4.742  0.1183E+01  0.7500E+01
      4.801  0.1089E+01  0.7564E+01
      4.860  0.1015E+01  0.7624E+01
      4.919  0.8943E+00  0.7677E+01
      4.978  0.6632E+00  0.7716E+01
      5.038  0.5145E+00  0.7747E+01
      5.097  0.7095E+00  0.7789E+01
      5.156  0.1033E+01  0.7850E+01
      5.215  0.1115E+01  0.7916E+01
      5.274  0.1021E+01  0.7976E+01
      5.333  0.8877E+00  0.8029E+01
      5.392  0.7598E+00  0.8073E+01
      5.451  0.8545E+00  0.8124E+01
      5.510  0.1035E+01  0.8185E+01
      5.570  0.9999E+00  0.8244E+01
      5.629  0.1032E+01  0.8305E+01
      5.688  0.1380E+01  0.8387E+01
      5.747  0.1620E+01  0.8483E+01
      5.806  0.1466E+01  0.8569E+01
      5.865  0.1174E+01  0.8639E+01
      5.924  0.9520E+00  0.8695E+01
      5.983  0.8280E+00  0.8744E+01
      6.042  0.7741E+00  0.8790E+01
      6.102  0.7046E+00  0.8831E+01
      6.161  0.6293E+00  0.8868E+01
      6.220  0.7473E+00  0.8913E+01
      6.279  0.1056E+01  0.8975E+01
      6.338  0.1238E+01  0.9048E+01
      6.397  0.1165E+01  0.9117E+01
      6.456  0.1107E+01  0.9182E+01
      6.515  0.1222E+01  0.9255E+01
      6.574  0.1215E+01  0.9327E+01
      6.634  0.9084E+00  0.9380E+01
      6.693  0.6648E+00  0.9420E+01
      6.752  0.8106E+00  0.9467E+01
      6.811  0.1066E+01  0.9531E+01
      6.870  0.1091E+01  0.9595E+01
      6.929  0.1003E+01  0.9654E+01
      6.988  0.1023E+01  0.9715E+01
      7.047  0.1159E+01  0.9783E+01
      7.107  0.1285E+01  0.9859E+01
      7.166  0.1284E+01  0.9935E+01
      7.225  0.1152E+01  0.1000E+02
      7.284  0.9697E+00  0.1006E+02
      7.343  0.8948E+00  0.1011E+02
      7.402  0.9921E+00  0.1017E+02
      7.461  0.1152E+01  0.1024E+02
      7.520  0.1226E+01  0.1031E+02
      7.579  0.1159E+01  0.1038E+02
      7.639  0.9402E+00  0.1044E+02
      7.698  0.6952E+00  0.1048E+02
      7.757  0.6522E+00  0.1052E+02
      7.816  0.7068E+00  0.1056E+02
      7.875  0.7420E+00  0.1060E+02
      7.934  0.9228E+00  0.1066E+02
      7.993  0.1111E+01  0.1072E+02
      8.052  0.9572E+00  0.1078E+02
      8.111  0.7452E+00  0.1082E+02
      8.171  0.8036E+00  0.1087E+02
      8.230  0.8721E+00  0.1092E+02
      8.289  0.8378E+00  0.1097E+02
      8.348  0.8268E+00  0.1102E+02
      8.407  0.8101E+00  0.1107E+02
      8.466  0.7785E+00  0.1111E+02
      8.525  0.8007E+00  0.1116E+02
      8.584  0.9045E+00  0.1122E+02
      8.643  0.1034E+01  0.1128E+02
      8.703  0.1070E+01  0.1134E+02
      8.762  0.9293E+00  0.1139E+02
      8.821  0.7756E+00  0.1144E+02
      8.880  0.7291E+00  0.1148E+02
      8.939  0.6954E+00  0.1152E+02
      8.998  0.6494E+00  0.1156E+02
      9.057  0.6154E+00  0.1160E+02
      9.116  0.5840E+00  0.1163E+02
      9.176  0.5431E+00  0.1167E+02
      9.235  0.4979E+00  0.1170E+02
      9.294  0.3877E+00  0.1172E+02
      9.353  0.1941E+00  0.1173E+02
      9.412  0.5358E-01  0.1173E+02
      9.471  0.7739E-02  0.1173E+02
      9.530  0.5755E-03  0.1173E+02
      9.589  0.2187E-04  0.1173E+02
      9.648  0.4226E-06  0.1173E+02
      9.708  0.4138E-08  0.1173E+02
      9.767  0.2046E-10  0.1173E+02
      9.826  0.5108E-13  0.1173E+02
      9.885  0.0000E+00  0.1173E+02
      9.944  0.0000E+00  0.1173E+02
     10.003  0.0000E+00  0.1173E+02
     10.062  0.0000E+00  0.1173E+02
     10.121  0.0000E+00  0.1173E+02
     10.180  0.0000E+00  0.1173E+02
     10.240  0.0000E+00  0.1173E+02
