   64   64   30    1
  0.2044415E+02  0.1093746E-08  0.1093746E-08  0.1093746E-08  0.3000000E-14
   2000.00000000000     
  CAR 
 cd Si                                   
    256      1    176
 
  0.0000000E+00  0.0000000E+00  0.0000000E+00  0.1000000E+01
    1       -6.494620   1.000000
    2       -5.883081   1.000000
    3       -5.746946   1.000000
    4       -5.620232   1.000000
    5       -5.246568   1.000000
    6       -5.112615   1.000000
    7       -5.063074   1.000000
    8       -4.864846   1.000000
    9       -4.829013   1.000000
   10       -4.641945   1.000000
   11       -4.530892   1.000000
   12       -4.425798   1.000000
   13       -4.343206   1.000000
   14       -4.263139   1.000000
   15       -4.174419   1.000000
   16       -4.089667   1.000000
   17       -3.990481   1.000000
   18       -3.872945   1.000000
   19       -3.754021   1.000000
   20       -3.613930   1.000000
   21       -3.427579   1.000000
   22       -3.307301   1.000000
   23       -3.182368   1.000000
   24       -2.682798   1.000000
   25       -2.547682   1.000000
   26       -2.471658   1.000000
   27       -2.300879   1.000000
   28       -2.275742   1.000000
   29       -2.157081   1.000000
   30       -2.077306   1.000000
   31       -1.992256   1.000000
   32       -1.973712   1.000000
   33       -1.827373   1.000000
   34       -1.761430   1.000000
   35       -1.708056   1.000000
   36       -1.665894   1.000000
   37       -1.640222   1.000000
   38       -1.481197   1.000000
   39       -1.413285   1.000000
   40       -1.205588   1.000000
   41       -1.160110   1.000000
   42       -0.943967   1.000000
   43       -0.857457   1.000000
   44       -0.788310   1.000000
   45       -0.677840   1.000000
   46       -0.584024   1.000000
   47       -0.357103   1.000000
   48       -0.266658   1.000000
   49       -0.057757   1.000000
   50        0.067482   1.000000
   51        0.110444   1.000000
   52        0.162944   1.000000
   53        0.247395   1.000000
   54        0.344078   1.000000
   55        0.561573   1.000000
   56        0.646897   1.000000
   57        0.671688   1.000000
   58        0.862698   1.000000
   59        0.957185   1.000000
   60        1.132479   1.000000
   61        1.270005   1.000000
   62        1.384815   1.000000
   63        1.438586   1.000000
   64        1.490813   1.000000
   65        1.558626   1.000000
   66        1.570979   1.000000
   67        1.591370   1.000000
   68        1.659428   1.000000
   69        1.735954   1.000000
   70        1.743573   1.000000
   71        1.891706   1.000000
   72        1.936373   1.000000
   73        1.990714   1.000000
   74        2.029159   1.000000
   75        2.167690   1.000000
   76        2.173786   1.000000
   77        2.279203   1.000000
   78        2.321247   1.000000
   79        2.470600   1.000000
   80        2.550367   1.000000
   81        2.617672   1.000000
   82        2.652535   1.000000
   83        2.771504   1.000000
   84        2.850523   1.000000
   85        2.961455   1.000000
   86        2.987314   1.000000
   87        3.062775   1.000000
   88        3.118334   1.000000
   89        3.233541   1.000000
   90        3.327711   1.000000
   91        3.352798   1.000000
   92        3.372247   1.000000
   93        3.480545   1.000000
   94        3.590472   1.000000
   95        3.625519   1.000000
   96        3.675192   1.000000
   97        3.719557   1.000000
   98        3.783989   1.000000
   99        3.848816   1.000000
  100        3.964924   1.000000
  101        4.037254   1.000000
  102        4.118625   1.000000
  103        4.188921   1.000000
  104        4.199279   1.000000
  105        4.274419   1.000000
  106        4.383540   1.000000
  107        4.402616   1.000000
  108        4.478928   1.000000
  109        4.510074   1.000000
  110        4.614065   1.000000
  111        4.620158   1.000000
  112        4.669318   1.000000
  113        4.750022   1.000000
  114        4.792055   1.000000
  115        4.873789   1.000000
  116        4.927170   1.000000
  117        5.098805   1.000000
  118        5.149801   1.000000
  119        5.179976   1.000000
  120        5.274882   1.000000
  121        5.315685   1.000000
  122        5.460837   0.999997
  123        5.479667   0.999989
  124        5.541816   0.999624
  125        5.663584   0.950272
  126        5.684911   0.910832
  127        5.709240   0.841786
  128        5.742776   0.701093
  129        5.795533   0.413504
  130        5.849921   0.161647
  131        5.924192   0.020772
  132        6.013555   0.000480
  133        6.094212   0.000004
  134        6.231629   0.000000
  135        6.275773   0.000000
  136        6.333598   0.000000
  137        6.355632   0.000000
  138        6.462836   0.000000
  139        6.497024   0.000000
  140        6.564383   0.000000
  141        6.570115   0.000000
  142        6.736950   0.000000
  143        6.794551   0.000000
  144        6.824646   0.000000
  145        6.909579   0.000000
  146        6.978409   0.000000
  147        7.047329   0.000000
  148        7.083050   0.000000
  149        7.135775   0.000000
  150        7.186586   0.000000
  151        7.240538   0.000000
  152        7.335137   0.000000
  153        7.404537   0.000000
  154        7.467748   0.000000
  155        7.494839   0.000000
  156        7.579035   0.000000
  157        7.600087   0.000000
  158        7.743274   0.000000
  159        7.820148   0.000000
  160        7.947141   0.000000
  161        7.969235   0.000000
  162        8.001978   0.000000
  163        8.150660   0.000000
  164        8.187425   0.000000
  165        8.288196   0.000000
  166        8.359813   0.000000
  167        8.445815   0.000000
  168        8.539988   0.000000
  169        8.605685   0.000000
  170        8.680613   0.000000
  171        8.701343   0.000000
  172        8.814834   0.000000
  173        8.898711   0.000000
  174        9.002695   0.000000
  175        9.112775   0.000000
  176        9.239551   0.000000
