       N       E                     dE             d eps       ncg     rms          rms(c)
RMM:   1     0.815211658298E+03    0.81521E+03   -0.38583E+04   176   0.440E+02
RMM:   2    -0.228457996435E+02   -0.83806E+03   -0.83799E+03   176   0.112E+02
RMM:   3    -0.225095278085E+03   -0.20225E+03   -0.20253E+03   176   0.528E+01
RMM:   4    -0.296732552915E+03   -0.71637E+02   -0.61044E+02   176   0.322E+01
RMM:   5    -0.325429764397E+03   -0.28697E+02   -0.24180E+02   176   0.173E+01
RMM:   6    -0.337251908040E+03   -0.11822E+02   -0.99959E+01   176   0.111E+01
RMM:   7    -0.341767198732E+03   -0.45153E+01   -0.41442E+01   176   0.634E+00
RMM:   8    -0.343628265283E+03   -0.18611E+01   -0.17125E+01   176   0.402E+00
RMM:   9    -0.344907682207E+03   -0.12794E+01   -0.12447E+01   373   0.233E+00
RMM:  10    -0.344960471814E+03   -0.52790E-01   -0.45927E-01   365   0.448E-01
RMM:  11    -0.344963884014E+03   -0.34122E-02   -0.25034E-02   334   0.107E-01
RMM:  12    -0.344964074397E+03   -0.19038E-03   -0.17292E-03   247   0.253E-02    0.358E+01
RMM:  13    -0.340710752059E+03    0.42533E+01   -0.22820E+00   352   0.210E+00    0.221E+01
RMM:  14    -0.338767123077E+03    0.19436E+01   -0.56293E+00   352   0.347E+00    0.103E+00
RMM:  15    -0.338788074187E+03   -0.20951E-01   -0.96218E-02   352   0.507E-01    0.459E-01
RMM:  16    -0.338800566666E+03   -0.12492E-01   -0.19828E-02   352   0.246E-01    0.257E-01
RMM:  17    -0.338801246146E+03   -0.67948E-03   -0.13010E-03   349   0.629E-02    0.123E-01
RMM:  18    -0.338801494148E+03   -0.24800E-03   -0.54697E-04   271   0.404E-02    0.452E-02
RMM:  19    -0.338801480263E+03    0.13885E-04   -0.13579E-05   200   0.734E-03
    1 T=  2000. E= -.32251462E+03 F= -.33880148E+03 E0= -.33880148E+03  EK= 0.16287E+02 SP= 0.00E+00 SK= 0.00E+00
       N       E                     dE             d eps       ncg     rms          rms(c)
RMM:   1    -0.338073893664E+03    0.72760E+00   -0.25051E+01   352   0.723E+00    0.145E+00
RMM:   2    -0.338102082343E+03   -0.28189E-01   -0.54194E-01   352   0.109E+00    0.111E+00
RMM:   3    -0.338088753454E+03    0.13329E-01   -0.44904E-02   354   0.316E-01    0.519E-01
RMM:   4    -0.338089180361E+03   -0.42691E-03   -0.12082E-02   352   0.137E-01    0.127E-01
RMM:   5    -0.338088720701E+03    0.45966E-03   -0.14102E-03   352   0.483E-02    0.269E-02
RMM:   6    -0.338088710538E+03    0.10163E-04   -0.12523E-04   227   0.143E-02
    2 T=  1912. E= -.32251993E+03 F= -.33808871E+03 E0= -.33808871E+03  EK= 0.15569E+02 SP= 0.19E-07 SK= 0.92E-15
       N       E                     dE             d eps       ncg     rms          rms(c)
RMM:   1    -0.336067255576E+03    0.20215E+01   -0.55216E-01   352   0.128E+00    0.328E-01
RMM:   2    -0.336068471376E+03   -0.12158E-02   -0.15106E-02   355   0.170E-01    0.135E-01
RMM:   3    -0.336068570853E+03   -0.99477E-04   -0.13628E-03   377   0.520E-02    0.846E-02
RMM:   4    -0.336068608898E+03   -0.38045E-04   -0.99258E-05   223   0.160E-02
    3 T=  1671. E= -.32248817E+03 F= -.33606861E+03 E0= -.33606811E+03  EK= 0.13611E+02 SP= -.33E-01 SK= 0.29E-02
       N       E                     dE             d eps       ncg     rms          rms(c)
RMM:   1    -0.333247567694E+03    0.28210E+01   -0.91169E-01   352   0.163E+00    0.401E-01
RMM:   2    -0.333250013434E+03   -0.24457E-02   -0.28539E-02   355   0.229E-01    0.207E-01
RMM:   3    -0.333250106922E+03   -0.93488E-04   -0.26160E-03   375   0.699E-02    0.110E-01
RMM:   4    -0.333250131200E+03   -0.24279E-04   -0.19065E-04   234   0.217E-02
    4 T=  1346. E= -.32244408E+03 F= -.33325013E+03 E0= -.33324020E+03  EK= 0.10957E+02 SP= -.19E+00 SK= 0.40E-01
       N       E                     dE             d eps       ncg     rms          rms(c)
RMM:   1    -0.330369987852E+03    0.28801E+01   -0.46580E-01   352   0.102E+00    0.290E-01
RMM:   2    -0.330371860213E+03   -0.18724E-02   -0.24968E-02   361   0.190E-01    0.123E-01
RMM:   3    -0.330372005816E+03   -0.14560E-03   -0.18491E-03   368   0.533E-02    0.677E-02
RMM:   4    -0.330372039447E+03   -0.33630E-04   -0.14976E-04   229   0.211E-02
    5 T=  1027. E= -.32240188E+03 F= -.33037204E+03 E0= -.33033548E+03  EK= 0.83618E+01 SP= -.60E+00 SK= 0.21E+00
       N       E                     dE             d eps       ncg     rms          rms(c)
RMM:   1    -0.328160556761E+03    0.22114E+01   -0.34900E-01   352   0.757E-01    0.285E-01
RMM:   2    -0.328160560917E+03   -0.41560E-05   -0.24141E-02   361   0.176E-01    0.119E-01
RMM:   3    -0.328160449910E+03    0.11101E-03   -0.22238E-03   361   0.563E-02    0.536E-02
RMM:   4    -0.328160453965E+03   -0.40548E-05   -0.22519E-04   243   0.207E-02
    6 T=   800. E= -.32238191E+03 F= -.32816045E+03 E0= -.32810641E+03  EK= 0.65182E+01 SP= -.14E+01 SK= 0.63E+00
       N       E                     dE             d eps       ncg     rms          rms(c)
RMM:   1    -0.327012153187E+03    0.11483E+01   -0.18542E-01   352   0.512E-01    0.258E-01
RMM:   2    -0.327011176312E+03    0.97688E-03   -0.15936E-02   364   0.139E-01    0.116E-01
RMM:   3    -0.327011115750E+03    0.60562E-04   -0.17245E-03   357   0.496E-02    0.544E-02
RMM:   4    -0.327011144553E+03   -0.28802E-04   -0.17413E-04   230   0.207E-02
    7 T=   714. E= -.32238947E+03 F= -.32701114E+03 E0= -.32695324E+03  EK= 0.58151E+01 SP= -.26E+01 SK= 0.14E+01
       N       E                     dE             d eps       ncg     rms          rms(c)
RMM:   1    -0.326887899124E+03    0.12322E+00   -0.10361E-01   354   0.375E-01    0.944E-02
RMM:   2    -0.326888454816E+03   -0.55569E-03   -0.69412E-03   368   0.902E-02    0.494E-02
RMM:   3    -0.326888481871E+03   -0.27056E-04   -0.41770E-04   265   0.234E-02
    8 T=   773. E= -.32241369E+03 F= -.32688848E+03 E0= -.32683292E+03  EK= 0.62939E+01 SP= -.43E+01 SK= 0.25E+01
       N       E                     dE             d eps       ncg     rms          rms(c)
RMM:   1    -0.327446340828E+03   -0.55789E+00   -0.87432E-02   353   0.393E-01    0.115E-01
RMM:   2    -0.327446670455E+03   -0.32963E-03   -0.54218E-03   363   0.815E-02    0.637E-02
RMM:   3    -0.327446680188E+03   -0.97331E-05   -0.41355E-04   263   0.245E-02
    9 T=   952. E= -.32244427E+03 F= -.32744668E+03 E0= -.32739675E+03  EK= 0.77564E+01 SP= -.65E+01 SK= 0.38E+01
       N       E                     dE             d eps       ncg     rms          rms(c)
RMM:   1    -0.328221076310E+03   -0.77441E+00   -0.12103E-01   352   0.477E-01    0.147E-01
RMM:   2    -0.328221498137E+03   -0.42183E-03   -0.75224E-03   359   0.950E-02    0.780E-02
RMM:   3    -0.328221497737E+03    0.39962E-06   -0.59357E-04   291   0.295E-02
   10 T=  1217. E= -.32247006E+03 F= -.32822150E+03 E0= -.32817999E+03  EK= 0.99087E+01 SP= -.91E+01 SK= 0.49E+01
       N       E                     dE             d eps       ncg     rms          rms(c)
RMM:   1    -0.328796989053E+03   -0.57549E+00   -0.16331E-01   352   0.542E-01    0.157E-01
RMM:   2    -0.328797646741E+03   -0.65769E-03   -0.98860E-03   360   0.111E-01    0.795E-02
RMM:   3    -0.328797659874E+03   -0.13134E-04   -0.67509E-04   293   0.318E-02
   11 T=  1529. E= -.32249202E+03 F= -.32879766E+03 E0= -.32876488E+03  EK= 0.12453E+02 SP= -.12E+02 SK= 0.58E+01
       N       E                     dE             d eps       ncg     rms          rms(c)
RMM:   1    -0.328861906075E+03   -0.64259E-01   -0.20497E-01   352   0.579E-01    0.163E-01
RMM:   2    -0.328862930854E+03   -0.10248E-02   -0.12363E-02   361   0.125E-01    0.814E-02
RMM:   3    -0.328862981600E+03   -0.50746E-04   -0.74934E-04   302   0.332E-02
   12 T=  1856. E= -.32250722E+03 F= -.32886298E+03 E0= -.32883444E+03  EK= 0.15112E+02 SP= -.15E+02 SK= 0.63E+01
       N       E                     dE             d eps       ncg     rms          rms(c)
RMM:   1    -0.328222603446E+03    0.64033E+00   -0.24787E-01   352   0.614E-01    0.161E-01
RMM:   2    -0.328223818614E+03   -0.12152E-02   -0.15158E-02   362   0.138E-01    0.794E-02
RMM:   3    -0.328223895363E+03   -0.76749E-04   -0.99324E-04   316   0.362E-02
   13 T=  2163. E= -.32251817E+03 F= -.32822390E+03 E0= -.32819055E+03  EK= 0.17614E+02 SP= -.18E+02 SK= 0.62E+01
       N       E                     dE             d eps       ncg     rms          rms(c)
RMM:   1    -0.326796546432E+03    0.14273E+01   -0.27455E-01   352   0.655E-01    0.178E-01
RMM:   2    -0.326797551867E+03   -0.10054E-02   -0.17808E-02   361   0.150E-01    0.922E-02
RMM:   3    -0.326797640433E+03   -0.88566E-04   -0.13343E-03   345   0.408E-02    0.545E-02
RMM:   4    -0.326797660205E+03   -0.19772E-04   -0.97999E-05   222   0.164E-02
   14 T=  2419. E= -.32252237E+03 F= -.32679766E+03 E0= -.32674979E+03  EK= 0.19700E+02 SP= -.21E+02 SK= 0.57E+01
       N       E                     dE             d eps       ncg     rms          rms(c)
RMM:   1    -0.324626697668E+03    0.21709E+01   -0.35131E-01   352   0.723E-01    0.189E-01
RMM:   2    -0.324628109657E+03   -0.14120E-02   -0.21742E-02   360   0.167E-01    0.938E-02
RMM:   3    -0.324628180568E+03   -0.70911E-04   -0.15517E-03   365   0.456E-02    0.523E-02
RMM:   4    -0.324628194798E+03   -0.14230E-04   -0.12185E-04   223   0.173E-02
   15 T=  2599. E= -.32252279E+03 F= -.32462819E+03 E0= -.32456370E+03  EK= 0.21168E+02 SP= -.24E+02 SK= 0.49E+01
       N       E                     dE             d eps       ncg     rms          rms(c)
RMM:   1    -0.321854717768E+03    0.27735E+01   -0.28172E-01   352   0.727E-01    0.276E-01
RMM:   2    -0.321853360342E+03    0.13574E-02   -0.21680E-02   363   0.164E-01    0.134E-01
RMM:   3    -0.321853276329E+03    0.84013E-04   -0.21604E-03   364   0.547E-02    0.709E-02
RMM:   4    -0.321853294427E+03   -0.18098E-04   -0.25052E-04   240   0.232E-02
   16 T=  2691. E= -.32252028E+03 F= -.32185329E+03 E0= -.32177674E+03  EK= 0.21913E+02 SP= -.27E+02 SK= 0.40E+01
       N       E                     dE             d eps       ncg     rms          rms(c)
RMM:   1    -0.318663488883E+03    0.31898E+01   -0.31105E-01   352   0.786E-01    0.304E-01
RMM:   2    -0.318661098178E+03    0.23907E-02   -0.24512E-02   363   0.175E-01    0.158E-01
RMM:   3    -0.318660956089E+03    0.14209E-03   -0.27732E-03   366   0.598E-02    0.846E-02
RMM:   4    -0.318660962201E+03   -0.61121E-05   -0.33824E-04   245   0.271E-02
   17 T=  2693. E= -.32251886E+03 F= -.31866096E+03 E0= -.31858489E+03  EK= 0.21931E+02 SP= -.29E+02 SK= 0.32E+01
       N       E                     dE             d eps       ncg     rms          rms(c)
RMM:   1    -0.315276750825E+03    0.33842E+01   -0.31387E-01   352   0.844E-01    0.328E-01
RMM:   2    -0.315273847609E+03    0.29032E-02   -0.24383E-02   359   0.176E-01    0.166E-01
RMM:   3    -0.315273586623E+03    0.26099E-03   -0.26445E-03   367   0.621E-02    0.915E-02
RMM:   4    -0.315273583718E+03    0.29048E-05   -0.47951E-04   297   0.301E-02
   18 T=  2622. E= -.32251183E+03 F= -.31527358E+03 E0= -.31520932E+03  EK= 0.21349E+02 SP= -.31E+02 SK= 0.25E+01
       N       E                     dE             d eps       ncg     rms          rms(c)
RMM:   1    -0.312007308694E+03    0.32663E+01   -0.37160E-01   352   0.925E-01    0.283E-01
RMM:   2    -0.312006676376E+03    0.63232E-03   -0.23836E-02   358   0.176E-01    0.152E-01
RMM:   3    -0.312006606638E+03    0.69738E-04   -0.23396E-03   378   0.581E-02    0.885E-02
RMM:   4    -0.312006610412E+03   -0.37742E-05   -0.29151E-04   243   0.245E-02
   19 T=  2515. E= -.32249452E+03 F= -.31200661E+03 E0= -.31194932E+03  EK= 0.20478E+02 SP= -.33E+02 SK= 0.19E+01
       N       E                     dE             d eps       ncg     rms          rms(c)
RMM:   1    -0.309263984352E+03    0.27426E+01   -0.42147E-01   352   0.966E-01    0.260E-01
RMM:   2    -0.309264458466E+03   -0.47411E-03   -0.26026E-02   359   0.181E-01    0.149E-01
RMM:   3    -0.309264433289E+03    0.25177E-04   -0.25943E-03   381   0.599E-02    0.858E-02
RMM:   4    -0.309264436735E+03   -0.34460E-05   -0.22621E-04   233   0.221E-02
   20 T=  2429. E= -.32247563E+03 F= -.30926444E+03 E0= -.30920591E+03  EK= 0.19780E+02 SP= -.35E+02 SK= 0.15E+01
       N       E                     dE             d eps       ncg     rms          rms(c)
RMM:   1    -0.307424349695E+03    0.18401E+01   -0.47916E-01   352   0.997E-01    0.260E-01
RMM:   2    -0.307425421273E+03   -0.10716E-02   -0.32360E-02   359   0.191E-01    0.147E-01
RMM:   3    -0.307425393737E+03    0.27536E-04   -0.27950E-03   383   0.596E-02    0.959E-02
RMM:   4    -0.307425369918E+03    0.23819E-04   -0.26045E-04   235   0.225E-02
   21 T=  2421. E= -.32247003E+03 F= -.30742537E+03 E0= -.30736479E+03  EK= 0.19715E+02 SP= -.36E+02 SK= 0.12E+01
       N       E                     dE             d eps       ncg     rms          rms(c)
RMM:   1    -0.306645257391E+03    0.78014E+00   -0.50575E-01   352   0.100E+00    0.271E-01
RMM:   2    -0.306646764757E+03   -0.15074E-02   -0.37053E-02   364   0.196E-01    0.151E-01
RMM:   3    -0.306646735393E+03    0.29364E-04   -0.28395E-03   380   0.575E-02    0.101E-01
RMM:   4    -0.306646704642E+03    0.30750E-04   -0.24180E-04   234   0.216E-02
   22 T=  2518. E= -.32248753E+03 F= -.30664670E+03 E0= -.30658642E+03  EK= 0.20507E+02 SP= -.37E+02 SK= 0.93E+00
       N       E                     dE             d eps       ncg     rms          rms(c)
RMM:   1    -0.306731057553E+03   -0.84322E-01   -0.41281E-01   352   0.958E-01    0.257E-01
RMM:   2    -0.306732050108E+03   -0.99256E-03   -0.25992E-02   358   0.177E-01    0.139E-01
RMM:   3    -0.306732101984E+03   -0.51876E-04   -0.23786E-03   387   0.544E-02    0.892E-02
RMM:   4    -0.306732095685E+03    0.62986E-05   -0.15073E-04   223   0.180E-02
   23 T=  2698. E= -.32252203E+03 F= -.30673210E+03 E0= -.30667105E+03  EK= 0.21967E+02 SP= -.38E+02 SK= 0.59E+00
       N       E                     dE             d eps       ncg     rms          rms(c)
RMM:   1    -0.307210711092E+03   -0.47861E+00   -0.45501E-01   352   0.981E-01    0.258E-01
RMM:   2    -0.307212488004E+03   -0.17769E-02   -0.29386E-02   358   0.184E-01    0.133E-01
RMM:   3    -0.307212603866E+03   -0.11586E-03   -0.25603E-03   390   0.563E-02    0.800E-02
RMM:   4    -0.307212615850E+03   -0.11984E-04   -0.12045E-04   223   0.166E-02
   24 T=  2890. E= -.32255970E+03 F= -.30721262E+03 E0= -.30714672E+03  EK= 0.23536E+02 SP= -.39E+02 SK= 0.27E+00
       N       E                     dE             d eps       ncg     rms          rms(c)
RMM:   1    -0.307580023717E+03   -0.36742E+00   -0.39421E-01   352   0.962E-01    0.265E-01
RMM:   2    -0.307581116379E+03   -0.10927E-02   -0.23019E-02   358   0.167E-01    0.130E-01
RMM:   3    -0.307581165181E+03   -0.48802E-04   -0.21069E-03   380   0.525E-02    0.755E-02
RMM:   4    -0.307581173433E+03   -0.82515E-05   -0.12228E-04   221   0.165E-02
   25 T=  3015. E= -.32258442E+03 F= -.30758117E+03 E0= -.30750921E+03  EK= 0.24550E+02 SP= -.40E+02 SK= 0.43E-01
       N       E                     dE             d eps       ncg     rms          rms(c)
RMM:   1    -0.307475975534E+03    0.10519E+00   -0.38936E-01   352   0.930E-01    0.265E-01
RMM:   2    -0.307477031049E+03   -0.10555E-02   -0.24251E-02   361   0.170E-01    0.129E-01
RMM:   3    -0.307477074513E+03   -0.43465E-04   -0.20232E-03   384   0.516E-02    0.831E-02
RMM:   4    -0.307477078496E+03   -0.39825E-05   -0.12588E-04   221   0.167E-02
   26 T=  3011. E= -.32258802E+03 F= -.30747708E+03 E0= -.30740179E+03  EK= 0.24523E+02 SP= -.40E+02 SK= 0.15E-01
       N       E                     dE             d eps       ncg     rms          rms(c)
RMM:   1    -0.306766735222E+03    0.71034E+00   -0.35666E-01   352   0.864E-01    0.248E-01
RMM:   2    -0.306767628727E+03   -0.89350E-03   -0.23842E-02   362   0.166E-01    0.123E-01
RMM:   3    -0.306767634382E+03   -0.56557E-05   -0.18561E-03   379   0.497E-02    0.815E-02
RMM:   4    -0.306767628425E+03    0.59575E-05   -0.13083E-04   221   0.169E-02
   27 T=  2864. E= -.32257110E+03 F= -.30676763E+03 E0= -.30668588E+03  EK= 0.23323E+02 SP= -.39E+02 SK= 0.18E+00
       N       E                     dE             d eps       ncg     rms          rms(c)
RMM:   1    -0.305570516403E+03    0.11971E+01   -0.34379E-01   352   0.821E-01    0.246E-01
RMM:   2    -0.305571137886E+03   -0.62148E-03   -0.24704E-02   363   0.169E-01    0.131E-01
RMM:   3    -0.305571126194E+03    0.11691E-04   -0.20780E-03   378   0.502E-02    0.865E-02
RMM:   4    -0.305571105884E+03    0.20310E-04   -0.15395E-04   222   0.181E-02
   28 T=  2605. E= -.32254375E+03 F= -.30557111E+03 E0= -.30548044E+03  EK= 0.21216E+02 SP= -.39E+02 SK= 0.44E+00
       N       E                     dE             d eps       ncg     rms          rms(c)
RMM:   1    -0.304158485040E+03    0.14126E+01   -0.34116E-01   352   0.806E-01    0.273E-01
RMM:   2    -0.304158338607E+03    0.14643E-03   -0.29646E-02   368   0.178E-01    0.140E-01
RMM:   3    -0.304158117510E+03    0.22110E-03   -0.21544E-03   368   0.521E-02    0.924E-02
RMM:   4    -0.304158074334E+03    0.43176E-04   -0.26553E-04   240   0.219E-02
   29 T=  2296. E= -.32251751E+03 F= -.30415807E+03 E0= -.30406529E+03  EK= 0.18698E+02 SP= -.38E+02 SK= 0.66E+00
       N       E                     dE             d eps       ncg     rms          rms(c)
RMM:   1    -0.302826912845E+03    0.13312E+01   -0.30982E-01   352   0.765E-01    0.231E-01
RMM:   2    -0.302827686362E+03   -0.77352E-03   -0.24449E-02   368   0.164E-01    0.125E-01
RMM:   3    -0.302827600356E+03    0.86006E-04   -0.17810E-03   362   0.474E-02    0.838E-02
RMM:   4    -0.302827575614E+03    0.24741E-04   -0.19010E-04   225   0.203E-02
   30 T=  1998. E= -.32249908E+03 F= -.30282758E+03 E0= -.30273046E+03  EK= 0.16269E+02 SP= -.37E+02 SK= 0.74E+00
