cd Si                                   
           1
    10.937456    0.000000    0.000000
     0.000000   10.937456    0.000000
     0.000000    0.000000   10.937456
   Si
  64
Direct configuration=     1
   0.12500000  0.37500000  0.12500000
   0.12500000  0.37500000  0.62500000
   0.12500000  0.87500000  0.12500000
   0.12500000  0.87500000  0.62500000
   0.62500000  0.37500000  0.12500000
   0.62500000  0.37500000  0.62500000
   0.62500000  0.87500000  0.12500000
   0.62500000  0.87500000  0.62500000
   0.00000000  0.00000000  0.25000000
   0.00000000  0.00000000  0.75000000
   0.00000000  0.50000000  0.25000000
   0.00000000  0.50000000  0.75000000
   0.50000000  0.00000000  0.25000000
   0.50000000  0.00000000  0.75000000
   0.50000000  0.50000000  0.25000000
   0.50000000  0.50000000  0.75000000
   0.12500000  0.12500000  0.37500000
   0.12500000  0.12500000  0.87500000
   0.12500000  0.62500000  0.37500000
   0.12500000  0.62500000  0.87500000
   0.62500000  0.12500000  0.37500000
   0.62500000  0.12500000  0.87500000
   0.62500000  0.62500000  0.37500000
   0.62500000  0.62500000  0.87500000
   0.00000000  0.25000000  0.00000000
   0.00000000  0.25000000  0.50000000
   0.00000000  0.75000000  0.00000000
   0.00000000  0.75000000  0.50000000
   0.50000000  0.25000000  0.00000000
   0.50000000  0.25000000  0.50000000
   0.50000000  0.75000000  0.00000000
   0.50000000  0.75000000  0.50000000
   0.37500000  0.37500000  0.37500000
   0.37500000  0.37500000  0.87500000
   0.37500000  0.87500000  0.37500000
   0.37500000  0.87500000  0.87500000
   0.87500000  0.37500000  0.37500000
   0.87500000  0.37500000  0.87500000
   0.87500000  0.87500000  0.37500000
   0.87500000  0.87500000  0.87500000
   0.25000000  0.00000000  0.00000000
   0.25000000  0.00000000  0.50000000
   0.25000000  0.50000000  0.00000000
   0.25000000  0.50000000  0.50000000
   0.75000000  0.00000000  0.00000000
   0.75000000  0.00000000  0.50000000
   0.75000000  0.50000000  0.00000000
   0.75000000  0.50000000  0.50000000
   0.37500000  0.12500000  0.12500000
   0.37500000  0.12500000  0.62500000
   0.37500000  0.62500000  0.12500000
   0.37500000  0.62500000  0.62500000
   0.87500000  0.12500000  0.12500000
   0.87500000  0.12500000  0.62500000
   0.87500000  0.62500000  0.12500000
   0.87500000  0.62500000  0.62500000
   0.25000000  0.25000000  0.25000000
   0.25000000  0.25000000  0.75000000
   0.25000000  0.75000000  0.25000000
   0.25000000  0.75000000  0.75000000
   0.75000000  0.25000000  0.25000000
   0.75000000  0.25000000  0.75000000
   0.75000000  0.75000000  0.25000000
   0.75000000  0.75000000  0.75000000
Direct configuration=     2
   0.12450673  0.37599313  0.12701025
   0.12548606  0.37615928  0.62396474
   0.13004461  0.87735764  0.12591389
   0.12176131  0.87604672  0.62418364
   0.62264606  0.37573691  0.12231058
   0.62627629  0.37738829  0.62384596
   0.62250489  0.87461983  0.12203333
   0.62313469  0.87350090  0.62805962
   0.00202744 -0.00012274  0.25139559
  -0.00014943 -0.00244847  0.74883657
   0.00214839  0.50086520  0.25289023
  -0.00087957  0.50229617  0.75407951
   0.49614860  0.00089929  0.24495321
   0.50211764 -0.00055722  0.74931925
   0.49599872  0.49737431  0.24795850
   0.49703415  0.50375303  0.75096554
   0.12478077  0.12242228  0.37603980
   0.12299137  0.12402264  0.87204056
   0.12787789  0.62793482  0.37445666
   0.12310326  0.62685910  0.87525517
   0.62585569  0.12226752  0.37650602
   0.62454744  0.12235804  0.87419217
   0.62380094  0.62364194  0.37815066
   0.62842588  0.62611969  0.87545204
  -0.00177749  0.24728345 -0.00163849
  -0.00324719  0.25250497  0.49875582
  -0.00162893  0.75130938 -0.00020792
  -0.00013973  0.74992359  0.50287292
   0.50246175  0.24871968  0.00272665
   0.49828391  0.25055523  0.50215907
   0.50012198  0.75125838  0.00618630
   0.50298267  0.74857908  0.50074199
   0.37371608  0.37507398  0.37052750
   0.37724530  0.37227600  0.87443288
   0.37393586  0.87481327  0.37377391
   0.37510756  0.87551722  0.87418267
   0.87622574  0.37661197  0.37337463
   0.87655625  0.37653171  0.87852446
   0.87141492  0.87310976  0.37525666
   0.87193384  0.87612059  0.87171778
   0.25027598 -0.00641834  0.00221577
   0.25200527 -0.00154739  0.50044505
   0.25101372  0.50036394  0.00104797
   0.25312497  0.49534675  0.50320627
   0.75148955 -0.00068517 -0.00125860
   0.74775585 -0.00051643  0.49989772
   0.75300277  0.50198382 -0.00107251
   0.75102292  0.49967282  0.50082060
   0.37513658  0.12401314  0.12577789
   0.37634108  0.12458014  0.62296019
   0.37496978  0.62569497  0.12135607
   0.37245108  0.62590584  0.62509484
   0.87725207  0.12628576  0.12287948
   0.87664624  0.12673940  0.62325393
   0.87569798  0.62608717  0.12272645
   0.87370707  0.62142993  0.62709730
   0.25126460  0.25139716  0.24827734
   0.24811369  0.25110928  0.75221961
   0.24845452  0.74833294  0.25096965
   0.25267343  0.75282538  0.74796761
   0.74863976  0.25058475  0.25100608
   0.75115078  0.25220230  0.74943665
   0.75271718  0.75107333  0.25365437
   0.74971079  0.74886192  0.74681996
Direct configuration=     3
   0.12400075  0.37693737  0.12892403
   0.12584503  0.37728116  0.62305247
   0.13480586  0.87951392  0.12690453
   0.11870146  0.87706370  0.62338615
   0.62045020  0.37651128  0.11972488
   0.62743888  0.37976512  0.62278968
   0.62021193  0.87432404  0.11928721
   0.62135192  0.87202635  0.63098289
   0.00395514 -0.00028282  0.25273331
  -0.00037212 -0.00476428  0.74765512
   0.00425764  0.50181762  0.25566710
  -0.00169131  0.50449021  0.75805345
   0.49246759  0.00172620  0.24011544
   0.50409955 -0.00107616  0.74867028
   0.49213039  0.49491498  0.24591528
   0.49420427  0.50742858  0.75192253
   0.12462219  0.12000135  0.37710257
   0.12106062  0.12294347  0.86922962
   0.13068295  0.63069451  0.37412673
   0.12135791  0.62876533  0.87553142
   0.62655321  0.11962085  0.37792898
   0.62419464  0.11983886  0.87340519
   0.62266596  0.62223730  0.38113379
   0.63169752  0.62727172  0.87594174
  -0.00339945  0.24469785 -0.00323799
  -0.00631918  0.25494782  0.49750118
  -0.00318342  0.75273917 -0.00042751
  -0.00035400  0.74977863  0.50563938
   0.50483291  0.24736236  0.00529687
   0.49667641  0.25114932  0.50415003
   0.50025137  0.75244311  0.01201183
   0.50577951  0.74722699  0.50147793
   0.37248038  0.37506308  0.36625678
   0.37944966  0.36962920  0.87396240
   0.37296591  0.87455922  0.37255509
   0.37532473  0.87598443  0.87341795
   0.87735806  0.37822547  0.37175997
   0.87807314  0.37798714  0.88193555
   0.86804453  0.87134453  0.37561473
   0.86895318  0.87714631  0.86848464
   0.25060534 -0.01250426  0.00424207
   0.25392170 -0.00307184  0.50088154
   0.25196091  0.50066904  0.00196875
   0.25617939  0.49087725  0.50622533
   0.75291648 -0.00134504 -0.00249074
   0.74558163 -0.00107371  0.49989340
   0.75589005  0.50390972 -0.00207834
   0.75204478  0.49932491  0.50156769
   0.37517125  0.12310060  0.12642383
   0.37759499  0.12417491  0.62107504
   0.37487820  0.62635613  0.11791632
   0.37000328  0.62681276  0.62515404
   0.87939843  0.12748158  0.12090495
   0.87820363  0.12841772  0.62155306
   0.87642636  0.62716984  0.12063440
   0.87248991  0.61795301  0.62913923
   0.25239733  0.25265629  0.24659726
   0.24630299  0.25213866  0.75430045
   0.24706061  0.74673493  0.25183144
   0.25514167  0.75560524  0.74598805
   0.74730546  0.25115802  0.25193484
   0.75227692  0.25436405  0.74892026
   0.75519817  0.75201579  0.25710466
   0.74942462  0.74773912  0.74372922
Direct configuration=     4
   0.12348047  0.37779672  0.13065204
   0.12595643  0.37831818  0.62237448
   0.13899851  0.88126184  0.12811320
   0.11599626  0.87802482  0.62261110
   0.61855729  0.37737714  0.11734493
   0.62838050  0.38209246  0.62191892
   0.61832980  0.87425108  0.11697069
   0.61972262  0.87058724  0.63364146
   0.00569925 -0.00051317  0.25395783
  -0.00074050 -0.00682315  0.74644568
   0.00631323  0.50293713  0.25823989
  -0.00238882  0.50649906  0.76183824
   0.48913454  0.00236781  0.23569797
   0.50581350 -0.00151860  0.74808101
   0.48850833  0.49277075  0.24384141
   0.49162007  0.51096891  0.75287883
   0.12457942  0.11788479  0.37821096
   0.11925579  0.12169297  0.86667520
   0.13331004  0.63311787  0.37420964
   0.11990705  0.63075282  0.87585842
   0.62695311  0.11716495  0.37917331
   0.62403345  0.11756974  0.87267119
   0.62166344  0.62074009  0.38380730
   0.63468839  0.62847649  0.87648908
  -0.00472755  0.24235039 -0.00479410
  -0.00906452  0.25728016  0.49623125
  -0.00460235  0.75439057 -0.00068148
  -0.00071205  0.74949134  0.50820735
   0.50703289  0.24583749  0.00756552
   0.49527399  0.25182426  0.50582960
   0.50036106  0.75346884  0.01714160
   0.50822966  0.74600111  0.50221852
   0.37132320  0.37489795  0.36237607
   0.38158394  0.36712625  0.87365945
   0.37217043  0.87418329  0.37134063
   0.37574757  0.87636696  0.87274819
   0.87829999  0.37983257  0.37016859
   0.87952656  0.37929674  0.88513324
   0.86510393  0.86985222  0.37621247
   0.86612402  0.87799292  0.86532708
   0.25110465 -0.01794848  0.00586968
   0.25567106 -0.00456135  0.50129901
   0.25277334  0.50086021  0.00265251
   0.25914459  0.48673126  0.50890534
   0.75422154 -0.00195531 -0.00366950
   0.74354612 -0.00172055  0.50008324
   0.75855919  0.50573920 -0.00295717
   0.75306458  0.49893634  0.50215938
   0.37498296  0.12236573  0.12679148
   0.37867897  0.12378170  0.61948899
   0.37465985  0.62693991  0.11486766
   0.36776227  0.62771427  0.62513592
   0.88132186  0.12848782  0.11922918
   0.87958202  0.12997201  0.61994867
   0.87720812  0.62825053  0.11890381
   0.87141601  0.61464281  0.63108162
   0.25328445  0.25365384  0.24497471
   0.24461690  0.25303502  0.75613707
   0.24597138  0.74529124  0.25246001
   0.25723025  0.75831911  0.74410226
   0.74602506  0.25171146  0.25272127
   0.75336465  0.25645822  0.74848685
   0.75721728  0.75266252  0.26014232
   0.74914997  0.74664149  0.74079892
Direct configuration=     5
   0.12294548  0.37855407  0.13213019
   0.12571775  0.37922143  0.62202270
   0.14235988  0.88242443  0.12971635
   0.11379131  0.87890984  0.62185015
   0.61708016  0.37839034  0.11525280
   0.62901364  0.38434431  0.62130370
   0.61705986  0.87457307  0.11526196
   0.61829626  0.86918292  0.63592089
   0.00719525 -0.00084355  0.25502537
  -0.00132739 -0.00852277  0.74521361
   0.00831024  0.50428959  0.26054442
  -0.00294315  0.50825649  0.76537211
   0.48631078  0.00269192  0.23190208
   0.50714917 -0.00184808  0.74757915
   0.48523333  0.49106424  0.24168947
   0.48936402  0.51432637  0.75385705
   0.12469326  0.11617319  0.37939502
   0.11760630  0.12023530  0.86444210
   0.13564016  0.63506664  0.37488681
   0.11885344  0.63286871  0.87626382
   0.62694333  0.11498554  0.38014918
   0.62413946  0.11564389  0.87202338
   0.62085186  0.61911110  0.38606077
   0.63730820  0.62974909  0.87709668
  -0.00564292  0.24032131 -0.00632312
  -0.01135801  0.25946517  0.49494648
  -0.00584570  0.75634462 -0.00099475
  -0.00126974  0.74899166  0.51050986
   0.50899266  0.24405715  0.00941550
   0.49415892  0.25262458  0.50709679
   0.50039669  0.75424339  0.02129398
   0.51019890  0.74494953  0.50298361
   0.37026266  0.37452841  0.35906008
   0.38363287  0.36481537  0.87357076
   0.37161471  0.87364546  0.37012170
   0.37645355  0.87664254  0.87220073
   0.87896900  0.38143537  0.36859117
   0.88089998  0.38039546  0.88803277
   0.86278687  0.86878313  0.37719283
   0.86349860  0.87858913  0.86225587
   0.25192518 -0.02249728  0.00689106
   0.25719777 -0.00600824  0.50169261
   0.25339218  0.50088164  0.00301994
   0.26203875  0.48299652  0.51114384
   0.75536552 -0.00249894 -0.00477047
   0.74171030 -0.00250501  0.50055793
   0.76092419  0.50744010 -0.00365470
   0.75409117  0.49849217  0.50252815
   0.37444381  0.12193182  0.12672905
   0.37953397  0.12338436  0.61830447
   0.37425303  0.62740178  0.11234932
   0.36579309  0.62860436  0.62499457
   0.88292033  0.12921154  0.11797994
   0.88070889  0.13136036  0.61847705
   0.87806386  0.62934367  0.11766894
   0.87054734  0.61155558  0.63289419
   0.25383278  0.25428714  0.24340502
   0.24308575  0.25376666  0.75765759
   0.24532524  0.74408370  0.25273633
   0.25880110  0.76096800  0.74233324
   0.74481637  0.25224102  0.25332589
   0.75440936  0.25846950  0.74816050
   0.75858218  0.75283820  0.26257381
   0.74889623  0.74557099  0.73808773
Direct configuration=     6
   0.12239434  0.37921348  0.13330735
   0.12505671  0.37997118  0.62204653
   0.14470802  0.88289663  0.13184786
   0.11219656  0.87969879  0.62107374
   0.61608295  0.37959929  0.11348786
   0.62925825  0.38649588  0.62099456
   0.61655565  0.87543732  0.11427216
   0.61708622  0.86781004  0.63773233
   0.00839314 -0.00129638  0.25592173
  -0.00220128 -0.00978555  0.74397454
   0.01025984  0.50592576  0.26254944
  -0.00333969  0.50972194  0.76862865
   0.48411882  0.00256588  0.22888036
   0.50802109 -0.00203859  0.74718880
   0.48237007  0.48987011  0.23941109
   0.48748614  0.51745843  0.75489015
   0.12498969  0.11493935  0.38067140
   0.11612434  0.11855927  0.86255138
   0.13758505  0.63645896  0.37628666
   0.11826929  0.63515928  0.87676039
   0.62644106  0.11316108  0.38077018
   0.62456996  0.11414015  0.87147806
   0.62026920  0.61731915  0.38781079
   0.63949471  0.63110917  0.87775267
  -0.00605804  0.23865753 -0.00784444
  -0.01310670  0.26147963  0.49366168
  -0.00689398  0.75865861 -0.00137280
  -0.00206927  0.74821498  0.51251599
   0.51066853  0.24195659  0.01077960
   0.49338284  0.25359450  0.50790334
   0.50030324  0.75469530  0.02430623
   0.51158519  0.74410503  0.50379781
   0.36929701  0.37392698  0.35641652
   0.38558994  0.36272954  0.87370318
   0.37134314  0.87292299  0.36887567
   0.37749964  0.87679515  0.87178010
   0.87929886  0.38303824  0.36700059
   0.88219153  0.38124381  0.89057515
   0.86123063  0.86825092  0.37865825
   0.86110145  0.87888910  0.85925078
   0.25320018 -0.02601476  0.00716943
   0.25847420 -0.00741998  0.50206992
   0.25378115  0.50067714  0.00303399
   0.26490970  0.47968187  0.51292266
   0.75634083 -0.00296878 -0.00575909
   0.74012099 -0.00346282  0.50140855
   0.76293550  0.50899701 -0.00411847
   0.75514743  0.49797424  0.50262868
   0.37344267  0.12191357  0.12609375
   0.38011909  0.12297638  0.61758104
   0.37360485  0.62771016  0.11044932
   0.36413291  0.62948380  0.62467578
   0.88410955  0.12957838  0.11725527
   0.88151346  0.13255434  0.61716174
   0.87901062  0.63047899  0.11701336
   0.86992874  0.60872059  0.63455322
   0.25397595  0.25447555  0.24187209
   0.24173143  0.25432022  0.75881965
   0.24523362  0.74316330  0.25257071
   0.25976555  0.76356417  0.74070116
   0.74369205  0.25274186  0.25372778
   0.75541808  0.26038882  0.74796328
   0.75917119  0.75239579  0.26426244
   0.74868612  0.74452064  0.73564741
Direct configuration=     7
   0.12182359  0.37978900  0.13413878
   0.12393487  0.38057581  0.62246409
   0.14596721  0.88266644  0.13454662
   0.11126810  0.88037748  0.62024184
   0.61559157  0.38103356  0.11205731
   0.62905574  0.38854085  0.62102455
   0.61690192  0.87692643  0.11404597
   0.61608089  0.86646765  0.63901446
   0.00925667 -0.00187998  0.25666251
  -0.00341968 -0.01056055  0.74273557
   0.01217187  0.50787304  0.26424135
  -0.00356795  0.51088057  0.77161423
   0.48261333  0.00190045  0.22671652
   0.50837737 -0.00207196  0.74692720
   0.47995343  0.48921534  0.23696006
   0.48601463  0.52033429  0.75601862
   0.12547929  0.11423257  0.38204675
   0.11482363  0.11666397  0.86100517
   0.13909959  0.63726560  0.37848748
   0.11819925  0.63767536  0.87735621
   0.62539391  0.11174524  0.38097954
   0.62536652  0.11312203  0.87104416
   0.61992054  0.61534671  0.38900415
   0.64120918  0.63257988  0.87845105
  -0.00591681  0.23736499 -0.00936222
  -0.01425023  0.26330417  0.49239282
  -0.00774553  0.76137413 -0.00180998
  -0.00313495  0.74711051  0.51422263
   0.51204569  0.23950511  0.01162986
   0.49296967  0.25476659  0.50823945
   0.50005851  0.75479785  0.02610630
   0.51232168  0.74347605  0.50467807
   0.36842490  0.37307899  0.35449228
   0.38745115  0.36089246  0.87404553
   0.37138941  0.87200679  0.36758063
   0.37893001  0.87680651  0.87147363
   0.87924075  0.38465102  0.36535476
   0.88340070  0.38182068  0.89271464
   0.86049649  0.86830237  0.38064532
   0.85893506  0.87886691  0.85628135
   0.25499074 -0.02846662  0.00667316
   0.25950172 -0.00881362  0.50243779
   0.25392043  0.50019199  0.00268118
   0.26780571  0.47674390  0.51427737
   0.75716524 -0.00336540 -0.00660471
   0.73880645 -0.00460818  0.50270792
   0.76456963  0.51040687 -0.00429979
   0.75626083  0.49736232  0.50243343
   0.37191100  0.12237455  0.12478055
   0.38040830  0.12256488  0.61734902
   0.37267260  0.62784970  0.10920266
   0.36279995  0.63036075  0.62413305
   0.88484048  0.12954576  0.11711112
   0.88194133  0.13354585  0.61601192
   0.88005798  0.63169139  0.11699076
   0.86959281  0.60614535  0.63604647
   0.25366762  0.25416413  0.24036156
   0.24056439  0.25468383  0.75960453
   0.24575982  0.74252530  0.25192624
   0.26008502  0.76613162  0.73921175
   0.74265714  0.25320909  0.25391736
   0.75640577  0.26221124  0.74790981
   0.75894221  0.75125188  0.26515259
   0.74854085  0.74346852  0.73351499
Direct configuration=     8
   0.12122709  0.38029386  0.13459003
   0.12234071  0.38106445  0.62328253
   0.14615523  0.88180882  0.13773940
   0.11102448  0.88092481  0.61932391
   0.61560498  0.38269221  0.11094492
   0.62836854  0.39048757  0.62141977
   0.61811524  0.87903443  0.11457794
   0.61526202  0.86516684  0.63973440
   0.00976106 -0.00258530  0.25728809
  -0.00503124 -0.01081197  0.74147874
   0.01405653  0.51015895  0.26561671
  -0.00360482  0.51173316  0.77435156
   0.48178146  0.00068707  0.22542943
   0.50819576 -0.00193007  0.74680549
   0.47799187  0.48910697  0.23431691
   0.48496662  0.52293839  0.75728014
   0.12615985  0.11408177  0.38351999
   0.11372914  0.11454986  0.85980103
   0.14020404  0.63750479  0.38152778
   0.11866883  0.64046150  0.87805540
   0.62378159  0.11076247  0.38075712
   0.62656173  0.11263312  0.87071628
   0.61978886  0.61319004  0.38960959
   0.64242385  0.63418415  0.87919574
  -0.00518655  0.23641984 -0.01085494
  -0.01475502  0.26493067  0.49114122
  -0.00840308  0.76452083 -0.00229726
  -0.00447874  0.74564636  0.51564181
   0.51314852  0.23671034  0.01195889
   0.49291576  0.25614833  0.50810508
   0.49970317  0.75458912  0.02667815
   0.51236634  0.74304692  0.50560472
   0.36766216  0.37197338  0.35329500
   0.38920711  0.35931545  0.87457812
   0.37178344  0.87088951  0.36622849
   0.38078414  0.87664204  0.87125752
   0.87877391  0.38628135  0.36360811
   0.88451890  0.38211143  0.89442627
   0.86057132  0.86889554  0.38311957
   0.85699833  0.87850840  0.85332796
   0.25724481 -0.02989595  0.00547450
   0.26029524 -0.01020831  0.50278866
   0.25379697  0.49938535  0.00194658
   0.27074270  0.47411795  0.51526712
   0.75786369 -0.00369348 -0.00729241
   0.73776609 -0.00592680  0.50449453
   0.76582459  0.51167315 -0.00416257
   0.75744963  0.49663359  0.50192704
   0.36984423  0.12330102  0.12274648
   0.38038744  0.12217421  0.61762273
   0.37142007  0.62781448  0.10861704
   0.36179596  0.63124882  0.62334172
   0.88509444  0.12910108  0.11757339
   0.88195023  0.13434244  0.61502942
   0.88122603  0.63301795  0.11763230
   0.86956298  0.60382238  0.63737122
   0.25286153  0.25331682  0.23887426
   0.23958649  0.25483738  0.76000330
   0.24691629  0.74210251  0.25083028
   0.25974115  0.76869629  0.73786614
   0.74171122  0.25363777  0.25387923
   0.75738347  0.26393585  0.74800725
   0.75791712  0.74941404  0.26527190
   0.74847457  0.74238411  0.73170827
Direct configuration=     9
   0.12059184  0.38074213  0.13463728
   0.12028819  0.38147855  0.62450324
   0.14534975  0.88045803  0.14124739
   0.11144272  0.88132325  0.61830147
   0.61610920  0.38453766  0.11011474
   0.62717226  0.39235809  0.62220698
   0.62014708  0.88166545  0.11582178
   0.61459938  0.86393098  0.63988725
   0.00988389 -0.00338718  0.25786038
  -0.00706787 -0.01051793  0.74015631
   0.01591211  0.51278981  0.26666407
  -0.00341063  0.51229859  0.77686193
   0.48154760 -0.00099110  0.22498665
   0.50748593 -0.00159433  0.74682876
   0.47647397  0.48952833  0.23149463
   0.48436015  0.52526157  0.75870087
   0.12702492  0.11450527  0.38507889
   0.11288164  0.11221457  0.85894504
   0.14097589  0.63722642  0.38541377
   0.11969464  0.64355492  0.87886183
   0.62160970  0.11021399  0.38012134
   0.62818180  0.11270137  0.87047783
   0.61983548  0.61086005  0.38961348
   0.64311397  0.63593905  0.88000617
  -0.00386357  0.23577187 -0.01226844
  -0.01460290  0.26635590  0.48990120
  -0.00887306  0.76811528 -0.00281713
  -0.00609267  0.74381533  0.51679665
   0.51403029  0.23361988  0.01176333
   0.49320515  0.25771929  0.50749792
   0.49934263  0.75416148  0.02604085
   0.51169779  0.74277676  0.50652169
   0.36704282  0.37059866  0.35279683
   0.39084562  0.35800345  0.87528304
   0.37255497  0.86957010  0.36483278
   0.38310250  0.87625001  0.87110103
   0.87790378  0.38792761  0.36171826
   0.88553331  0.38210514  0.89570425
   0.86139098  0.86991315  0.38599009
   0.85528648  0.87781307  0.85038977
   0.25981371 -0.03038169  0.00372440
   0.26087924 -0.01161359  0.50309739
   0.25340465  0.49822715  0.00080923
   0.27370411  0.47174349  0.51595685
   0.75846661 -0.00396026 -0.00782292
   0.73697945 -0.00737629  0.50677298
   0.76670739  0.51279996 -0.00367811
   0.75871551  0.49575815  0.50111344
   0.36730304  0.12459937  0.12000548
   0.38004971  0.12184876  0.61839813
   0.36982161  0.62760727  0.10867617
   0.36111320  0.63216800  0.62230233
   0.88488201  0.12826109  0.11863734
   0.88149889  0.13496528  0.61421288
   0.88253397  0.63449965  0.11895142
   0.86985920  0.60174172  0.63852856
   0.25150427  0.25191672  0.23742948
   0.23880309  0.25475185  0.76000813
   0.24867140  0.74177176  0.24937315
   0.25872721  0.77126954  0.73666827
   0.74084473  0.25402462  0.25359368
   0.75835580  0.26556609  0.74825374
   0.75616177  0.74696744  0.26471549
   0.74849173  0.74122940  0.73022831
Direct configuration=    10
   0.11990136  0.38114717  0.13425983
   0.11781057  0.38186856  0.62612795
   0.14364336  0.87876049  0.14483975
   0.11245136  0.88156166  0.61716941
   0.61707808  0.38650267  0.10952322
   0.62546397  0.39419018  0.62340525
   0.62291236  0.88465911  0.11770964
   0.61405950  0.86280167  0.63949248
   0.00960155 -0.00424463  0.25846977
  -0.00953107 -0.00966958  0.73870082
   0.01773302  0.51575630  0.26736954
  -0.00293137  0.51260383  0.77916268
   0.48179863 -0.00298532  0.22532630
   0.50629409 -0.00104847  0.74700000
   0.47539004  0.49043146  0.22855830
   0.48421095  0.52730015  0.76029735
   0.12806067  0.11551566  0.38669624
   0.11233871  0.10965279  0.85844975
   0.14152480  0.63649582  0.39012287
   0.12128810  0.64698429  0.87977268
   0.61889389  0.11008522  0.37911822
   0.63025048  0.11333731  0.87029684
   0.62000500  0.60838078  0.38900773
   0.64325693  0.63785666  0.88090832
  -0.00196723  0.23535661 -0.01351225
  -0.01379326  0.26757509  0.48866531
  -0.00916023  0.77216151 -0.00334832
  -0.00795381  0.74162785  0.51771877
   0.51476276  0.23031046  0.01105343
   0.49381277  0.25942903  0.50641452
   0.49911632  0.75363131  0.02423837
   0.51031261  0.74260621  0.50733822
   0.36661507  0.36893937  0.35292762
   0.39234152  0.35696822  0.87613646
   0.37373697  0.86804621  0.36342338
   0.38591874  0.87556631  0.87096811
   0.87666484  0.38957826  0.35964079
   0.88641683  0.38179448  0.89654811
   0.86286517  0.87120031  0.38912956
   0.85380507  0.87679740  0.84749115
   0.26250099 -0.03000531  0.00159703
   0.26128694 -0.01302888  0.50331872
   0.25274464  0.49670280 -0.00075022
   0.27663919  0.46957019  0.51642078
   0.75901097 -0.00417287 -0.00821144
   0.73640403 -0.00888644  0.50951008
   0.76723766  0.51379130 -0.00282006
   0.76003824  0.49470611  0.50002196
   0.36438954  0.12612395  0.11660679
   0.37939111  0.12164752  0.61965620
   0.36786565  0.62724067  0.10932981
   0.36073494  0.63313502  0.62103926
   0.88423835  0.12706405  0.12027089
   0.88054902  0.13544908  0.61355669
   0.88400888  0.63617765  0.12094064
   0.87049076  0.59988267  0.63951322
   0.24953950  0.24996779  0.23607810
   0.23821661  0.25438670  0.75961390
   0.25096198  0.74138398  0.24769652
   0.25705202  0.77384830  0.73563370
   0.74004620  0.25436361  0.25303662
   0.75931532  0.26710767  0.74863937
   0.75376173  0.74405130  0.26361962
   0.74857659  0.73996072  0.72906369
Direct configuration=    11
   0.11914121  0.38151798  0.13343824
   0.11496621  0.38227928  0.62815407
   0.14112737  0.87684361  0.14828496
   0.11392963  0.88163481  0.61593128
   0.61848234  0.38849587  0.10912469
   0.62326623  0.39602275  0.62502519
   0.62630927  0.88782000  0.12016269
   0.61360568  0.86182636  0.63859083
   0.00888744 -0.00510006  0.25923091
  -0.01239973 -0.00827403  0.73702572
   0.01949880  0.51903806  0.26771238
  -0.00209730  0.51269413  0.78126848
   0.48241425 -0.00510903  0.22637471
   0.50470360 -0.00027751  0.74731996
   0.47472615  0.49174142  0.22560769
   0.48452708  0.52905064  0.76207254
   0.12925553  0.11710970  0.38832917
   0.11217149  0.10685727  0.85833079
   0.14197367  0.63536912  0.39560469
   0.12344424  0.65075674  0.88078292
   0.61567148  0.11035534  0.37781464
   0.63278314  0.11453765  0.87012833
   0.62022815  0.60578569  0.38779453
   0.64283359  0.63993242  0.88193437
   0.00046113  0.23510473 -0.01446017
  -0.01234638  0.26858664  0.48742218
  -0.00926921  0.77665348 -0.00385734
  -0.01001071  0.73912726  0.51845380
   0.51542055  0.22689991  0.00984689
   0.49470397  0.26120064  0.50486063
   0.49916054  0.75310917  0.02133999
   0.50823027  0.74246576  0.50793145
   0.36643420  0.36698133  0.35356856
   0.39365893  0.35622172  0.87710866
   0.37535244  0.86631798  0.36204467
   0.38923259  0.87452373  0.87082561
   0.87513002  0.39120108  0.35733467
   0.88713236  0.38118370  0.89696472
   0.86489227  0.87258998  0.39240599
   0.85256217  0.87548917  0.84467528
   0.26510106 -0.02883995 -0.00076364
   0.26156693 -0.01444026  0.50339062
   0.25183113  0.49481510 -0.00274141
   0.27947454  0.46756280  0.51674173
   0.75953774 -0.00434067 -0.00848208
   0.73599625 -0.01037190  0.51264149
   0.76744818  0.51464923 -0.00156539
   0.76137354  0.49345342  0.49871122
   0.36123083  0.12771230  0.11262102
   0.37840070  0.12164541  0.62136448
   0.36556876  0.62673217  0.11047292
   0.36063142  0.63416461  0.61960399
   0.88322029  0.12556898  0.12241429
   0.87906383  0.13584478  0.61304888
   0.88567341  0.63808740  0.12356979
   0.87145680  0.59822214  0.64031335
   0.24691572  0.24749890  0.23489998
   0.23782908  0.25369554  0.75881833
   0.25369173  0.74080003  0.24598031
   0.25476256  0.77639793  0.73479619
   0.73929624  0.25464586  0.25217985
   0.76024502  0.26857239  0.74914895
   0.75080133  0.74082435  0.26212789
   0.74868823  0.73853495  0.72819786
Direct configuration=    12
   0.11829978  0.38185978  0.13215764
   0.11183511  0.38274358  0.63057036
   0.13788908  0.87479826  0.15138122
   0.11569681  0.88155350  0.61459881
   0.62028521  0.39041564  0.10887985
   0.62062519  0.39789794  0.62706042
   0.63022989  0.89094284  0.12310555
   0.61319851  0.86105246  0.63724663
   0.00771713 -0.00588263  0.26027691
  -0.01561627 -0.00634885  0.73504903
   0.02119060  0.52259964  0.26767945
  -0.00083510  0.51262732  0.78319672
   0.48328458 -0.00717217  0.22805337
   0.50283707  0.00073376  0.74778749
   0.47448228  0.49336002  0.22277812
   0.48530199  0.53051462  0.76401603
   0.13059192  0.11926215  0.38992102
   0.11245172  0.10381422  0.85859306
   0.14244895  0.63387195  0.40180213
   0.12614106  0.65485894  0.88187465
   0.61199794  0.11100478  0.37628904
   0.63578713  0.11628332  0.86991007
   0.62042095  0.60311535  0.38598250
   0.64184373  0.64214604  0.88311328
   0.00336189  0.23496139 -0.01496913
  -0.01030884  0.26939124  0.48616449
  -0.00920320  0.78156134 -0.00430549
  -0.01219824  0.73637133  0.51904481
   0.51606303  0.22352254  0.00817156
   0.49584064  0.26294621  0.50285790
   0.49957423  0.75267120  0.01745457
   0.50550517  0.74229243  0.50815855
   0.36654085  0.36471022  0.35456041
   0.39476440  0.35577197  0.87816135
   0.37740960  0.86438394  0.36076058
   0.39300083  0.87307581  0.87063707
   0.87340844  0.39274861  0.35475592
   0.88764208  0.38028005  0.89697493
   0.86736748  0.87393500  0.39570468
   0.85157969  0.87394036  0.84200947
   0.26742360 -0.02696306 -0.00326902
   0.26177958 -0.01581441  0.50324173
   0.25068786  0.49258802 -0.00515863
   0.28211307  0.46570746  0.51701033
   0.76009486 -0.00447368 -0.00866625
   0.73572032 -0.01173639  0.51606809
   0.76739372  0.51538262  0.00010128
   0.76265023  0.49198471  0.49727318
   0.35795423  0.12921682  0.10812282
   0.37706510  0.12192117  0.62346839
   0.36298395  0.62608820  0.11192297
   0.36075314  0.63525426  0.61807759
   0.88190126  0.12383966  0.12498527
   0.87701467  0.13621913  0.61266766
   0.88754432  0.64025586  0.12677271
   0.87274956  0.59672621  0.64091515
   0.24360186  0.24456159  0.23398762
   0.23764249  0.25263212  0.75762530
   0.25672022  0.73994096  0.24442908
   0.25194575  0.77886054  0.73421080
   0.73857120  0.25485751  0.25100108
   0.76111426  0.26997203  0.74976385
   0.74735799  0.73745241  0.26037465
   0.74876345  0.73691016  0.72760933
Direct configuration=    13
   0.11737038  0.38217603  0.13041214
   0.10851935  0.38327878  0.63336013
   0.13402793  0.87267500  0.15397747
   0.11752530  0.88134741  0.61317179
   0.62243758  0.39215729  0.10875686
   0.61761332  0.39983994  0.62948640
   0.63458324  0.89384395  0.12646851
   0.61279086  0.86050869  0.63554164
   0.00607484 -0.00651389  0.26174369
  -0.01909901 -0.00392447  0.73270629
   0.02278705  0.52639119  0.26726365
   0.00091746  0.51247377  0.78496190
   0.48432372 -0.00900320  0.23027098
   0.50084717  0.00199596  0.74839417
   0.47467306  0.49516267  0.22022144
   0.48650383  0.53169207  0.76610173
   0.13204975  0.12191619  0.39141060
   0.11323911  0.10050585  0.85923436
   0.14306354  0.63200451  0.40863542
   0.12933541  0.65924890  0.88303501
   0.60795206  0.11201937  0.37463246
   0.63925565  0.11853338  0.86957018
   0.62049386  0.60040869  0.38359606
   0.64031625  0.64444577  0.88446363
   0.00666090  0.23487654 -0.01490427
  -0.00776343  0.26999936  0.48488913
  -0.00896905  0.78682799 -0.00464868
  -0.01443054  0.73344260  0.51953447
   0.51672490  0.22033116  0.00607073
   0.49718227  0.26457359  0.50046003
   0.50040863  0.75235093  0.01275174
   0.50223337  0.74203976  0.50787456
   0.36695456  0.36212108  0.35571716
   0.39562414  0.35562485  0.87924776
   0.37989468  0.86224586  0.35965166
   0.39712298  0.87121166  0.87036574
   0.87163722  0.39416163  0.35186153
   0.88791316  0.37910107  0.89661224
   0.87018382  0.87511616  0.39893792
   0.85089749  0.87221771  0.83957338
   0.26930912 -0.02447950 -0.00589757
   0.26200195 -0.01710433  0.50280342
   0.24934958  0.49007060 -0.00797125
   0.28445073  0.46400782  0.51732437
   0.76073359 -0.00458317 -0.00879833
   0.73555689 -0.01287832  0.51966592
   0.76715136  0.51600910  0.00218351
   0.76377569  0.49029981  0.49582969
   0.35467151  0.13054918  0.10320196
   0.37537878  0.12254097  0.62588279
   0.36020255  0.62529736  0.11341594
   0.36102729  0.63637784  0.61657006
   0.88035360  0.12193738  0.12789686
   0.87438487  0.13665760  0.61237698
   0.88962628  0.64270051  0.13043873
   0.87434102  0.59535456  0.64130795
   0.23960507  0.24123651  0.23342105
   0.23765125  0.25116504  0.75605423
   0.25985822  0.73881502  0.24325076
   0.24874262  0.78115166  0.73395051
   0.73784054  0.25498236  0.24948510
   0.76188404  0.27132161  0.75045380
   0.74350409  0.73409377  0.25846971
   0.74872253  0.73505082  0.72727219
Direct configuration=    14
   0.11635747  0.38246361  0.12821999
   0.10513709  0.38387877  0.63649035
   0.12966874  0.87048908  0.15597941
   0.11915159  0.88107178  0.61163580
   0.62487176  0.39361748  0.10874075
   0.61432432  0.40184506  0.63225321
   0.63928308  0.89637958  0.13017989
   0.61232396  0.86019619  0.63356984
   0.00395966 -0.00692331  0.26375233
  -0.02273612 -0.00106415  0.72998560
   0.02428639  0.53035719  0.26647842
   0.00319317  0.51230950  0.78658611
   0.48546625 -0.01046059  0.23290579
   0.49890697  0.00350841  0.74911722
   0.47532276  0.49700545  0.21808307
   0.48807663  0.53258542  0.76829433
   0.13360807  0.12497801  0.39275479
   0.11456696  0.09692869  0.86023485
   0.14391421  0.62974066  0.41600183
   0.13295359  0.66386002  0.88425724
   0.60363625  0.11339351  0.37293162
   0.64316687  0.12122538  0.86903782
   0.62035944  0.59770194  0.38067900
   0.63833970  0.64674777  0.88597834
   0.01027157  0.23480891 -0.01416094
  -0.00482182  0.27043490  0.48360379
  -0.00858126  0.79236642 -0.00485087
  -0.01662000  0.73043145  0.51995852
   0.51741940  0.21748111  0.00360449
   0.49868573  0.26599702  0.49776602
   0.50166481  0.75214291  0.00749565
   0.49855119  0.74169283  0.50694576
   0.36766165  0.35923858  0.35684281
   0.39621399  0.35577650  0.88031403
   0.38276628  0.85991125  0.35880252
   0.40143113  0.86898168  0.86996578
   0.86996690  0.39537925  0.34861601
   0.88792977  0.37768071  0.89593083
   0.87322826  0.87605949  0.40205854
   0.85056280  0.87041125  0.83744180
   0.27064198 -0.02155541 -0.00868270
   0.26232046 -0.01825440  0.50201353
   0.24786283  0.48733325 -0.01112352
   0.28638281  0.46247582  0.51777826
   0.76150210 -0.00468421 -0.00891129
   0.73551038 -0.01371486  0.52327594
   0.76681578  0.51656241  0.00466326
   0.76464688  0.48841547  0.49451777
   0.35147873  0.13170227  0.09797411
   0.37334790  0.12354195  0.62849870
   0.35734658  0.62431642  0.11462580
   0.36135356  0.63748507  0.61522145
   0.87865288  0.11992775  0.13105484
   0.87118328  0.13726573  0.61212698
   0.89190372  0.64543950  0.13443566
   0.87618503  0.59405798  0.64149123
   0.23497796  0.23761854  0.23323375
   0.23783540  0.24928687  0.75414156
   0.26286304  0.73752928  0.24264814
   0.24534668  0.78316906  0.73409285
   0.73707287  0.25499867  0.24762884
   0.76250880  0.27263628  0.75117701
   0.73931469  0.73088750  0.25648445
   0.74847644  0.73292938  0.72715103
Direct configuration=    15
   0.11527562  0.38272651  0.12562820
   0.10182023  0.38450622  0.63990495
   0.12494841  0.86825371  0.15735934
   0.12032439  0.88080319  0.60995267
   0.62749538  0.39470503  0.10883339
   0.61087800  0.40388549  0.63528322
   0.64424204  0.89845849  0.13417896
   0.61172954  0.86007743  0.63142737
   0.00140309 -0.00706513  0.26637369
  -0.02640319  0.00213744  0.72691625
   0.02571179  0.53442380  0.26536809
   0.00599156  0.51220749  0.78809796
   0.48667722 -0.01145562  0.23580928
   0.49718163  0.00525981  0.74991703
   0.47645833  0.49874023  0.21647474
   0.48993541  0.53320882  0.77054703
   0.13524433  0.12830514  0.39393891
   0.11643026  0.09311219  0.86155155
   0.14507294  0.62704808  0.42379184
   0.13690335  0.66861391  0.88555959
   0.59918547  0.11512087  0.37127254
   0.64748603  0.12426819  0.86825696
   0.61994561  0.59502356  0.37730402
   0.63608051  0.64892747  0.88760810
   0.01408653  0.23472101 -0.01267538
  -0.00163340  0.27073140  0.48233452
  -0.00805799  0.79806001 -0.00488705
  -0.01867995  0.72742742  0.52034017
   0.51813662  0.21510535  0.00084829
   0.50031632  0.26714243  0.49491353
   0.50329290  0.75200882  0.00204015
   0.49464585  0.74125983  0.50527445
   0.36860754  0.35612640  0.35775463
   0.39652029  0.35621045  0.88130012
   0.38594977  0.85740259  0.35829273
   0.40569874  0.86651601  0.86937574
   0.86853697  0.39635196  0.34500824
   0.88771352  0.37606536  0.89500285
   0.87638700  0.87674892  0.40506495
   0.85061818  0.86862987  0.83568255
   0.27134046 -0.01842982 -0.01170236
   0.26281548 -0.01921396  0.50082703
   0.24627440  0.48445953 -0.01454086
   0.28781615  0.46111935  0.51844634
   0.76243697 -0.00479850 -0.00903423
   0.73559698 -0.01418190  0.52673713
   0.76649212  0.51709653  0.00749067
   0.76517051  0.48636025  0.49346325
   0.34846487  0.13276087  0.09260650
   0.37100548  0.12494092  0.63117213
   0.35455112  0.62307835  0.11521474
   0.36160742  0.63850918  0.61419159
   0.87687384  0.11787782  0.13436695
   0.86744399  0.13816821  0.61185441
   0.89433287  0.64849318  0.13861240
   0.87820637  0.59278605  0.64148776
   0.22982183  0.23382461  0.23338716
   0.23815447  0.24702911  0.75195628
   0.26547319  0.73624080  0.24278571
   0.24198779  0.78479768  0.73469441
   0.73623856  0.25488125  0.24543984
   0.76293137  0.27393419  0.75186919
   0.73486573  0.72793666  0.25444537
   0.74794118  0.73052948  0.72720244
Direct configuration=    16
   0.11415510  0.38296975  0.12272250
   0.09870616  0.38508818  0.64351819
   0.12001700  0.86598398  0.15816140
   0.12083541  0.88063363  0.60807274
   0.63019881  0.39534749  0.10904928
   0.60740002  0.40590101  0.63847777
   0.64938158  0.90005247  0.13842520
   0.61093564  0.86007717  0.62920819
  -0.00151882 -0.00691620  0.26961399
  -0.02996722  0.00554839  0.72357211
   0.02711967  0.53849738  0.26401144
   0.00926986  0.51223833  0.78953672
   0.48794847 -0.01193373  0.23880929
   0.49581095  0.00723946  0.75074555
   0.47809402  0.50024230  0.21545206
   0.49197147  0.53359050  0.77281657
   0.13693330  0.13170907  0.39499193
   0.11877127  0.08912469  0.86311652
   0.14658211  0.62390858  0.43187982
   0.14107551  0.67341000  0.88700151
   0.59476723  0.11718967  0.36972572
   0.65214948  0.12754269  0.86719729
   0.61921292  0.59238556  0.37356944
   0.63379227  0.65080955  0.88925415
   0.01798578  0.23456362 -0.01044506
   0.00163548  0.27094836  0.48112630
  -0.00742647  0.80377487 -0.00476263
  -0.02053158  0.72451802  0.52066756
   0.51885340  0.21330782 -0.00211316
   0.50204672  0.26796655  0.49208382
   0.50519288  0.75190019 -0.00318914
   0.49073270  0.74076288  0.50282571
   0.36969463  0.35288410  0.35831649
   0.39653880  0.35689272  0.88214785
   0.38932932  0.85477071  0.35817607
   0.40966309  0.86401182  0.86850845
   0.86746226  0.39705836  0.34105424
   0.88732806  0.37431602  0.89392333
   0.87956531  0.87720373  0.40800804
   0.85108641  0.86697549  0.83431987
   0.27137677 -0.01540982 -0.01504246
   0.26354457 -0.01994508  0.49922598
   0.24462722  0.48154453 -0.01814529
   0.28868334  0.45993437  0.51937407
   0.76355995 -0.00495006 -0.00919122
   0.73584376 -0.01424164  0.52988323
   0.76628276  0.51768221  0.01059251
   0.76527070  0.48416635  0.49275331
   0.34569871  0.13388841  0.08729307
   0.36842842  0.12669883  0.63373711
   0.35192342  0.62151422  0.11491240
   0.36165835  0.63937950  0.61364141
   0.87506722  0.11585590  0.13774980
   0.86321690  0.13949946  0.61148448
   0.89684466  0.65189445  0.14280811
   0.88030505  0.59148548  0.64135133
   0.22428426  0.22998577  0.23376423
   0.23853489  0.24447739  0.74960182
   0.26745131  0.73511234  0.24376696
   0.23890381  0.78593982  0.73576593
   0.73531306  0.25459874  0.24294134
   0.76309459  0.27524182  0.75244992
   0.73023476  0.72529563  0.25232360
   0.74705253  0.72785621  0.72738125
Direct configuration=    17
   0.11303680  0.38319891  0.11962762
   0.09592974  0.38552649  0.64721629
   0.11501600  0.86369165  0.15849934
   0.12055575  0.88063816  0.60594270
   0.63285460  0.39548287  0.10940893
   0.60401810  0.40779838  0.64172446
   0.65462949  0.90118569  0.14290143
   0.60988226  0.86010274  0.62699759
  -0.00468125 -0.00646413  0.27343066
  -0.03328973  0.00900434  0.72007185
   0.02858939  0.54246806  0.26251193
   0.01296065  0.51247734  0.79096538
   0.48929901 -0.01189145  0.24174694
   0.49490370  0.00944509  0.75156132
   0.48021773  0.50143049  0.21502152
   0.49405474  0.53378029  0.77507268
   0.13864257  0.13495696  0.39599124
   0.12146469  0.08505890  0.86484119
   0.14844179  0.62032810  0.44011931
   0.14535098  0.67812943  0.88867726
   0.59056803  0.11956091  0.36832897
   0.65706793  0.13090226  0.86586249
   0.61814037  0.58979279  0.36960049
   0.63181862  0.65215549  0.89076001
   0.02184833  0.23428390 -0.00754810
   0.00480727  0.27117101  0.48003777
  -0.00670263  0.80938851 -0.00451652
  -0.02210259  0.72177588  0.52090024
   0.51955033  0.21216403 -0.00519108
   0.50385904  0.26846916  0.48948540
   0.50720727  0.75181039 -0.00771706
   0.48705042  0.74020190  0.49964501
   0.37079189  0.34962710  0.35842801
   0.39627694  0.35776083  0.88280530
   0.39276200  0.85209476  0.35844656
   0.41305809  0.86168518  0.86725254
   0.86681377  0.39749725  0.33681701
   0.88686748  0.37250338  0.89280614
   0.88267332  0.87745320  0.41096547
   0.85195713  0.86553777  0.83333409
   0.27078688 -0.01280406 -0.01877373
   0.26452389 -0.02041174  0.49721847
   0.24293423  0.47868570 -0.02187457
   0.28894915  0.45891238  0.52057384
   0.76487302 -0.00515496 -0.00941049
   0.73626925 -0.01388883  0.53257491
   0.76628423  0.51840999  0.01386934
   0.76491144  0.48187298  0.49242444
   0.34321389  0.13528359  0.08221331
   0.36575503  0.12869658  0.63600044
   0.34952643  0.61958521  0.11357098
   0.36140227  0.64003335  0.61370692
   0.87326443  0.11390481  0.14113005
   0.85857656  0.14138394  0.61093631
   0.89932872  0.65567133  0.14687253
   0.88235894  0.59008947  0.64115772
   0.21854208  0.22626447  0.23416833
   0.23886841  0.24179107  0.74723129
   0.26863258  0.73425771  0.24561301
   0.23629249  0.78656418  0.73725124
   0.73429619  0.25412995  0.24018941
   0.76294634  0.27660121  0.75282843
   0.72549652  0.72298116  0.25004689
   0.74577700  0.72495645  0.72764858
Direct configuration=    18
   0.11196724  0.38342907  0.11649258
   0.09360836  0.38570685  0.65085984
   0.11005576  0.86138323  0.15856253
   0.11944034  0.88085334  0.60354723
   0.63531763  0.39506216  0.10991479
   0.60086280  0.40946329  0.64489761
   0.65990074  0.90192625  0.14759600
   0.60852189  0.86006763  0.62486697
  -0.00792383 -0.00569701  0.27774689
  -0.03623516  0.01234779  0.71654612
   0.03021969  0.54621134  0.26099271
   0.01696100  0.51300012  0.79246973
   0.49075736 -0.01135891  0.24447802
   0.49454186  0.01188745  0.75233191
   0.48278556  0.50226469  0.21515044
   0.49604971  0.53384628  0.77730634
   0.14033336  0.13778487  0.39705613
   0.12429762  0.08103140  0.86660882
   0.15060768  0.61635361  0.44836600
   0.14959169  0.68264098  0.89071420
   0.58677177  0.12217008  0.36708691
   0.66210153  0.13416484  0.86430121
   0.61673146  0.58725908  0.36555644
   0.63054352  0.65267988  0.89193295
   0.02556171  0.23381983 -0.00411892
   0.00770630  0.27150462  0.47913016
  -0.00590457  0.81480030 -0.00424543
  -0.02330871  0.71928368  0.52097499
   0.52021534  0.21173930 -0.00830095
   0.50573957  0.26869859  0.48733456
   0.50912296  0.75179568 -0.01105932
   0.48385475  0.73950672  0.49588696
   0.37175876  0.34645659  0.35802657
   0.39576038  0.35872004  0.88322724
   0.39608370  0.84951904  0.35900428
   0.41564245  0.85973313  0.86548085
   0.86661554  0.39766588  0.33238790
   0.88644517  0.37070235  0.89177236
   0.88561850  0.87749895  0.41403812
   0.85319063  0.86437026  0.83267578
   0.26970481 -0.01087040 -0.02291447
   0.26573398 -0.02058098  0.49483597
   0.24120002  0.47598254 -0.02568471
   0.28862212  0.45803217  0.52203095
   0.76636651 -0.00541407 -0.00971939
   0.73687835 -0.01314677  0.53470711
   0.76658342  0.51937318  0.01720847
   0.76408589  0.47952129  0.49246090
   0.34101536  0.13711226  0.07749489
   0.36318919  0.13072745  0.63775175
   0.34738864  0.61730730  0.11118707
   0.36079334  0.64041056  0.61448273
   0.87148224  0.11203592  0.14443607
   0.85361685  0.14391801  0.61013930
   0.90165102  0.65984822  0.15067620
   0.88425020  0.58851634  0.64099301
   0.21279808  0.22285337  0.23434415
   0.23901190  0.23919473  0.74504225
   0.26894051  0.73370442  0.24823322
   0.23429122  0.78673017  0.73902190
   0.73320165  0.25346366  0.23726687
   0.76244371  0.27808314  0.75290667
   0.72072763  0.72099383  0.24753961
   0.74411130  0.72191038  0.72796194
Direct configuration=    19
   0.11099536  0.38370828  0.11348331
   0.09182723  0.38551505  0.65430734
   0.10521885  0.85908660  0.15860333
   0.11752839  0.88128573  0.60092100
   0.63744939  0.39406078  0.11053911
   0.59805947  0.41077424  0.64786469
   0.66510986  0.90238369  0.15247338
   0.60683038  0.85991085  0.62287512
  -0.01107266 -0.00461636  0.28245296
  -0.03868858  0.01544070  0.71311291
   0.03210568  0.54959974  0.25957276
   0.02116656  0.51387563  0.79414837
   0.49232999 -0.01041743  0.24688080
   0.49477432  0.01456690  0.75303392
   0.48569340  0.50272346  0.21575773
   0.49781002  0.53384875  0.77951414
   0.14197528  0.13994935  0.39833245
   0.12697616  0.07719927  0.86825175
   0.15300103  0.61206873  0.45647782
   0.15365183  0.68680245  0.89324403
   0.58354525  0.12494703  0.36597195
   0.66708821  0.13715470  0.86259467
   0.61501612  0.58480457  0.36161759
   0.63031875  0.65212631  0.89261331
   0.02900379  0.23309050 -0.00032267
   0.01016662  0.27205850  0.47845629
  -0.00507501  0.81993493 -0.00410188
  -0.02405778  0.71711094  0.52083568
   0.52084564  0.21207991 -0.01135529
   0.50764800  0.26874553  0.48583523
   0.51071222  0.75195928 -0.01281211
   0.48139538  0.73850623  0.49184065
   0.37247593  0.34345880  0.35708231
   0.39503509  0.35966717  0.88336461
   0.39910211  0.84728401  0.35963573
   0.41725008  0.85830557  0.86307389
   0.86686386  0.39757420  0.32787827
   0.88618432  0.36898803  0.89093567
   0.88830532  0.87733584  0.41731693
   0.85473522  0.86349996  0.83228336
   0.26836997 -0.00981605 -0.02739238
   0.26713633 -0.02044499  0.49213659
   0.23941889  0.47351850 -0.02954083
   0.28774607  0.45724058  0.52371970
   0.76802156 -0.00573366 -0.01012589
   0.73764290 -0.01208300  0.53621283
   0.76725117  0.52063944  0.02051043
   0.76280327  0.47713550  0.49280610
   0.33908718  0.13946389  0.07321304
   0.36098351  0.13254396  0.63876823
   0.34552126  0.61475686  0.10788969
   0.35984792  0.64048000  0.61601248
   0.86973927  0.11024639  0.14759161
   0.84844580  0.14717426  0.60904713
   0.90368138  0.66445269  0.15411855
   0.88587547  0.58669080  0.64094278
   0.20724580  0.21994504  0.23401831
   0.23879015  0.23694761  0.74325505
   0.26837617  0.73337603  0.25144939
   0.23297721  0.78657255  0.74087515
   0.73205172  0.25258815  0.23428121
   0.76156634  0.27977907  0.75258861
   0.71603120  0.71931557  0.24475160
   0.74208841  0.71881244  0.72827950
Direct configuration=    20
   0.11017838  0.38412934  0.11076379
   0.09063555  0.38486013  0.65743660
   0.10057416  0.85684326  0.15890931
   0.11492079  0.88192728  0.59812556
   0.63914822  0.39249889  0.11122142
   0.59572145  0.41163009  0.65048666
   0.67018375  0.90270369  0.15747337
   0.60482133  0.85961097  0.62105497
  -0.01397448 -0.00323470  0.28742137
  -0.04057805  0.01819478  0.70984996
   0.03431542  0.55251980  0.25835104
   0.02546883  0.51514816  0.79608688
   0.49399684 -0.00919745  0.24885003
   0.49561497  0.01746181  0.75365032
   0.48875655  0.50277134  0.21670129
   0.49918538  0.53382963  0.78169607
   0.14355704  0.14127255  0.39995580
   0.12914146  0.07376086  0.86955042
   0.15551791  0.60759726  0.46432411
   0.15739579  0.69050373  0.89639284
   0.58103605  0.12783520  0.36493815
   0.67186426  0.13969957  0.86086134
   0.61306861  0.58246860  0.35799354
   0.63136301  0.65036269  0.89275551
   0.03204392  0.23198854  0.00367588
   0.01204733  0.27292715  0.47805130
  -0.00428275  0.82473054 -0.00427110
  -0.02427271  0.71527626  0.52045521
   0.52144632  0.21320128 -0.01429254
   0.50951573  0.26872551  0.48515825
   0.51180095  0.75238747 -0.01276235
   0.47987515  0.73693676  0.48789583
   0.37287283  0.34069522  0.35559812
   0.39415649  0.36051064  0.88317029
   0.40161120  0.84570416  0.36004034
   0.41780956  0.85748035  0.85996957
   0.86753437  0.39725123  0.32340443
   0.88620329  0.36743401  0.89039168
   0.89065278  0.87696706  0.42087349
   0.85653036  0.86293112  0.83209188
   0.26713646 -0.00979232 -0.03202736
   0.26868192 -0.02002102  0.48920776
   0.23757196  0.47134976 -0.03341186
   0.28640490  0.45644347  0.52561571
   0.76982218 -0.00612567 -0.01061530
   0.73850361 -0.01080933  0.53706338
   0.76832338  0.52222457  0.02369724
   0.76109121  0.47472118  0.49338351
   0.33739151  0.14234504  0.06938446
   0.35939667  0.13391912  0.63884678
   0.34394094  0.61205158  0.10388741
   0.35863031  0.64024766  0.61828793
   0.86806592  0.10853523  0.15052841
   0.84319800  0.15118133  0.60763812
   0.90531970  0.66951208  0.15714027
   0.88716005  0.58456308  0.64108100
   0.20203962  0.21768630  0.23294720
   0.23801553  0.23528789  0.74207754
   0.26698296  0.73313262  0.25504079
   0.23238458  0.78625561  0.74256967
   0.73087428  0.25148654  0.23135892
   0.76032259  0.28180764  0.75179411
   0.71150935  0.71789290  0.24164546
   0.73977433  0.71575994  0.72855824
Direct configuration=    21
   0.10956407  0.38481260  0.10846373
   0.09004885  0.38368491  0.66016866
   0.09617224  0.85469035  0.15976497
   0.11174235  0.88277566  0.59522312
   0.64034798  0.39044817  0.11186736
   0.59392890  0.41195932  0.65264259
   0.67506731  0.90305037  0.16251655
   0.60254135  0.85917595  0.61941699
  -0.01650205 -0.00156390  0.29252156
  -0.04189230  0.02056501  0.70678844
   0.03687187  0.55489770  0.25738617
   0.02978329  0.51683147  0.79834557
   0.49573114 -0.00783435  0.25031168
   0.49704858  0.02054231  0.75416837
   0.49171883  0.50234514  0.21777326
   0.50003936  0.53381153  0.78384843
   0.14508478  0.14167220  0.40199225
   0.13040334  0.07095057  0.87026237
   0.15802387  0.60310800  0.47179676
   0.16071871  0.69367193  0.90025272
   0.57935397  0.13079068  0.36392420
   0.67627572  0.14163935  0.85923924
   0.61101823  0.58031599  0.35493445
   0.63367912  0.64743602  0.89248463
   0.03456462  0.23039301  0.00773290
   0.01325049  0.27416611  0.47793270
  -0.00359937  0.82916104 -0.00493599
  -0.02389808  0.71374372  0.51984469
   0.52203183  0.21509350 -0.01708081
   0.51124592  0.26876812  0.48543586
   0.51232665  0.75309119 -0.01095752
   0.47943292  0.73451038  0.48445362
   0.37293986  0.33819893  0.35361215
   0.39317467  0.36117639  0.88260601
   0.40341902  0.84510211  0.35990981
   0.41736441  0.85724170  0.85619714
   0.86859483  0.39673119  0.31907846
   0.88659747  0.36610453  0.89020782
   0.89260638  0.87641738  0.42475306
   0.85850917  0.86265873  0.83203159
   0.26643652 -0.01090805 -0.03654721
   0.27031779 -0.01934758  0.48615265
   0.23563879  0.46949799 -0.03726948
   0.28472512  0.45550126  0.52771336
   0.77175549 -0.00660427 -0.01116001
   0.73938463 -0.00946426  0.53727654
   0.76980103  0.52410331  0.02672821
   0.75899081  0.47227610  0.49410736
   0.33586495  0.14569966  0.06597540
   0.35862866  0.13469678  0.63784244
   0.34267534  0.60932665  0.09940918
   0.35722500  0.63974640  0.62124822
   0.86650007  0.10688987  0.15318457
   0.83803462  0.15591847  0.60590175
   0.90651290  0.67503559  0.15973302
   0.88805638  0.58212533  0.64145017
   0.19726816  0.21613717  0.23097822
   0.23655982  0.23436540  0.74165092
   0.26482098  0.73281517  0.25878803
   0.23250318  0.78593547  0.74387797
   0.72970306  0.25012764  0.22862940
   0.75874505  0.28430312  0.75047662
   0.70724673  0.71663785  0.23819707
   0.73727460  0.71284996  0.72874004
Direct configuration=    22
   0.10918424  0.38587448  0.10666389
   0.09004942  0.38199414  0.66247645
   0.09204152  0.85265117  0.16139717
   0.10813098  0.88382913  0.59227323
   0.64101151  0.38803302  0.11235844
   0.59271990  0.41172856  0.65423538
   0.67973550  0.90358689  0.16753437
   0.60005601  0.85863840  0.61795966
  -0.01856884  0.00037987  0.29763482
  -0.04267901  0.02255981  0.70391016
   0.03975017  0.55670819  0.25668999
   0.03405307  0.51890348  0.80094759
   0.49751471 -0.00644677  0.25122169
   0.49904636  0.02377124  0.75457600
   0.49429095  0.50134842  0.21871561
   0.50026433  0.53379649  0.78595414
   0.14656571  0.14117755  0.40440072
   0.13042002  0.06898071  0.87019524
   0.16035623  0.59881412  0.47882011
   0.16356510  0.69629506  0.90484739
   0.57855842  0.13379447  0.36286468
   0.68020377  0.14285325  0.85784715
   0.60903815  0.57843526  0.35271291
   0.63706523  0.64354765  0.89207322
   0.03648095  0.22819589  0.01174315
   0.01372962  0.27578375  0.47809803
  -0.00305466  0.83324813 -0.00622838
  -0.02291340  0.71241219  0.51904901
   0.52261930  0.21771319 -0.01970009
   0.51272224  0.26899374  0.48675618
   0.51233535  0.75399177 -0.00767637
   0.48010138  0.73101960  0.48178743
   0.37271705  0.33598301  0.35118982
   0.39212494  0.36160469  0.88165168
   0.40440055  0.84569005  0.35906028
   0.41606297  0.85749037  0.85187173
   0.87000424  0.39604308  0.31500229
   0.88742354  0.36505179  0.89041626
   0.89414015  0.87573722  0.42897144
   0.86059867  0.86266420  0.83202589
   0.26667312 -0.01319409 -0.04067219
   0.27199303 -0.01847640  0.48307804
   0.23360433  0.46796126 -0.04108926
   0.28288449  0.45422472  0.53002633
   0.77381304 -0.00717631 -0.01172707
   0.74021501 -0.00818065  0.53690749
   0.77165926  0.52620798  0.02958684
   0.75655285  0.46979889  0.49490143
   0.33443327  0.14943597  0.06291145
   0.35875361  0.13483632  0.63571461
   0.34175659  0.60671205  0.09466875
   0.35571455  0.63900897  0.62479414
   0.86508212  0.10529120  0.15551362
   0.83311035  0.16129676  0.60382226
   0.90727023  0.68099091  0.16193780
   0.88854065  0.57941504  0.64205842
   0.19295267  0.21526797  0.22808498
   0.23441847  0.23420006  0.74201134
   0.26195416  0.73228529  0.26250738
   0.23327540  0.78572397  0.74463882
   0.72857593  0.24847693  0.22621728
   0.75687668  0.28738832  0.74864734
   0.70329710  0.71544196  0.23439341
   0.73472677  0.71018566  0.72873846
Direct configuration=    23
   0.10904580  0.38739524  0.10539409
   0.09058546  0.37985747  0.66437668
   0.08816770  0.85073450  0.16392811
   0.10422606  0.88508227  0.58932217
   0.64112996  0.38541550  0.11255794
   0.59208909  0.41095504  0.65520065
   0.68418830  0.90446676  0.17246061
   0.59744745  0.85803701  0.61668240
  -0.02012878  0.00257234  0.30267012
  -0.04301875  0.02421680  0.70118678
   0.04287743  0.55796932  0.25623058
   0.03823760  0.52130197  0.80386946
   0.49934342 -0.00511237  0.25155118
   0.50155588  0.02710354  0.75486108
   0.49619318  0.49967162  0.21926204
   0.49979750  0.53377128  0.78798796
   0.14798711  0.13992400  0.40703253
   0.12903350  0.06797007  0.86928925
   0.16232948  0.59498165  0.48533329
   0.16592800  0.69842048  0.91009538
   0.57866557  0.13684164  0.36171726
   0.68355483  0.14327543  0.85676868
   0.60731840  0.57693403  0.35159259
   0.64121195  0.63896308  0.89185361
   0.03774808  0.22533017  0.01563409
   0.01349065  0.27773827  0.47852579
  -0.00261353  0.83703790 -0.00818156
  -0.02132942  0.71113923  0.51814618
   0.52323708  0.22099442 -0.02213136
   0.51382604  0.26948074  0.48914129
   0.51192324  0.75496035 -0.00332668
   0.48177739  0.72644132  0.47994865
   0.37227963  0.33404784  0.34842069
   0.39102574  0.36176019  0.88029608
   0.40454848  0.84746974  0.35752398
   0.41412554  0.85809836  0.84716469
   0.87172518  0.39521978  0.31126350
   0.88870063  0.36431052  0.89101889
   0.89525081  0.87500638  0.43350583
   0.86271210  0.86292182  0.83198507
   0.26806704 -0.01656249 -0.04421639
   0.27366394 -0.01746367  0.48009142
   0.23145778  0.46672722 -0.04483815
   0.28109984  0.45239467  0.53257583
   0.77598257 -0.00784297 -0.01227460
   0.74093595 -0.00705292  0.53603073
   0.77385221  0.52844792  0.03228260
   0.75383461  0.46729181  0.49570685
   0.33303295  0.15343347  0.06010339
   0.35971466  0.13441639  0.63254189
   0.34121085  0.60432338  0.08985554
   0.35417734  0.63806044  0.62879270
   0.86385604  0.10370772  0.15748631
   0.82856879  0.16718058  0.60137493
   0.90764095  0.68729297  0.16382477
   0.88861417  0.57650216  0.64288796
   0.18907823  0.21498252  0.22436091
   0.23173356  0.23467419  0.74308686
   0.25844509  0.73143950  0.26605414
   0.23458456  0.78566010  0.74479370
   0.72753307  0.24649827  0.22424420
   0.75476671  0.29113787  0.74639185
   0.69967978  0.71418193  0.23022819
   0.73227555  0.70786325  0.72845479
Direct configuration=    24
   0.10912232  0.38939205  0.10463330
   0.09157001  0.37741150  0.66590480
   0.08450173  0.84894930  0.16735513
   0.10017099  0.88652866  0.58641256
   0.64072019  0.38276534  0.11234477
   0.59197348  0.40971836  0.65551526
   0.68843966  0.90581744  0.17724191
   0.59480765  0.85740642  0.61558767
  -0.02116594  0.00497544  0.30755662
  -0.04300409  0.02558424  0.69860627
   0.04613845  0.55873399  0.25595050
   0.04229942  0.52392763  0.80704311
   0.50122118 -0.00385996  0.25127730
   0.50450399  0.03047531  0.75501140
   0.49722035  0.49723234  0.21920939
   0.49863449  0.53371215  0.78990624
   0.14928731  0.13812394  0.40967987
   0.12634176  0.06789640  0.86765157
   0.16376865  0.59188756  0.49127090
   0.16784504  0.70014519  0.91584013
   0.57964988  0.13994108  0.36048379
   0.68627736  0.14292983  0.85602367
   0.60601279  0.57590138  0.35175165
   0.64578921  0.63394742  0.89210444
   0.03837020  0.22180606  0.01936587
   0.01259030  0.27994100  0.47917758
  -0.00217020  0.84058195 -0.01069874
  -0.01919743  0.70977021  0.51723483
   0.52391410  0.22484368 -0.02435338
   0.51445394  0.27024161  0.49252043
   0.51119123  0.75586342  0.00166674
   0.48423672  0.72097192  0.47880673
   0.37171671  0.33238913  0.34541769
   0.38988138  0.36162782  0.87853657
   0.40395534  0.85020977  0.35552259
   0.41182772  0.85894419  0.84228513
   0.87371487  0.39429122  0.30792902
   0.89041036  0.36389931  0.89198772
   0.89595709  0.87432166  0.43829527
   0.86476023  0.86339759  0.83180371
   0.27054212 -0.02076829 -0.04715188
   0.27529990 -0.01638174  0.47730188
   0.22920551  0.46576698 -0.04847699
   0.27959216  0.44979656  0.53537780
   0.77824134 -0.00860113 -0.01276142
   0.74149267 -0.00612843  0.53473164
   0.77632070  0.53071394  0.03483648
   0.75089998  0.46476703  0.49647993
   0.33162726  0.15754584  0.05747344
   0.36136391  0.13359061  0.62850312
   0.34104563  0.60225562  0.08511966
   0.35269832  0.63691098  0.63309376
   0.86286250  0.10209817  0.15908729
   0.82453057  0.17339283  0.59852439
   0.90769530  0.69381406  0.16546057
   0.88829411  0.57347912  0.64389606
   0.18561669  0.21515639  0.21999065
   0.22876191  0.23556810  0.74473505
   0.25437888  0.73022162  0.26933673
   0.23625557  0.78572285  0.74437633
   0.72661112  0.24418355  0.22281061
   0.75247968  0.29553704  0.74387725
   0.69639253  0.71274329  0.22572027
   0.73005316  0.70597144  0.72779740
Direct configuration=    25
   0.10936250  0.39181054  0.10432088
   0.09288081  0.37484417  0.66709613
   0.08097999  0.84732337  0.17154960
   0.09611272  0.88814861  0.58358475
   0.63982752  0.38022754  0.11163281
   0.59224454  0.40816839  0.65519798
   0.69251748  0.90769844  0.18184064
   0.59223211  0.85677169  0.61467663
  -0.02168826  0.00752501  0.31224078
  -0.04272973  0.02671231  0.69618000
   0.04940024  0.55907829  0.25578664
   0.04619058  0.52665368  0.81037542
   0.50315228 -0.00267687  0.25039906
   0.50779050  0.03379972  0.75501760
   0.49729001  0.49402446  0.21849260
   0.49683846  0.53358995  0.79165400
   0.15035701  0.13603560  0.41212040
   0.12265246  0.06861444  0.86549858
   0.16455216  0.58974666  0.49656493
   0.16937716  0.70158698  0.92187671
   0.58143121  0.14310060  0.35921635
   0.68835966  0.14192669  0.85557737
   0.60519228  0.57535720  0.35319770
   0.65050097  0.62873242  0.89297351
   0.03838963  0.21771834  0.02292507
   0.01112137  0.28227805  0.47999978
  -0.00157671  0.84391454 -0.01356290
  -0.01659838  0.70816603  0.51640482
   0.52467424  0.22914460 -0.02633952
   0.51453541  0.27122164  0.49672226
   0.51022524  0.75658843  0.00693272
   0.48717812  0.71495481  0.47816716
   0.37111940  0.33099866  0.34231394
   0.38868723  0.36120920  0.87638773
   0.40276263  0.85354147  0.35333628
   0.40947976  0.85993096  0.83742743
   0.87592235  0.39327764  0.30504629
   0.89250168  0.36382511  0.89326892
   0.89629952  0.87377369  0.44324624
   0.86664702  0.86405457  0.83136621
   0.27378255 -0.02543593 -0.04953696
   0.27689148 -0.01532149  0.47480704
   0.22687029  0.46504396 -0.05195396
   0.27853820  0.44629380  0.53842509
   0.78055620 -0.00944317 -0.01314945
   0.74183387 -0.00539791  0.53310129
   0.77900150  0.53288868  0.03728561
   0.74783110  0.46224925  0.49718257
   0.33020758  0.16161993  0.05495683
   0.36352483  0.13253916  0.62383796
   0.34123678  0.60058538  0.08056825
   0.35137093  0.63555571  0.63753738
   0.86213688  0.10041641  0.16031882
   0.82109516  0.17972114  0.59525738
   0.90751016  0.70039280  0.16690094
   0.88760996  0.57044661  0.64502596
   0.18254438  0.21566229  0.21520090
   0.22580822  0.23662254  0.74679161
   0.24987182  0.72863172  0.27229609
   0.23807059  0.78585687  0.74348136
   0.72584245  0.24157690  0.22198423
   0.75011341  0.30045993  0.74133680
   0.69340412  0.71106234  0.22090590
   0.72815435  0.70457549  0.72672485
Direct configuration=    26
   0.10969935  0.39453600  0.10437251
   0.09436369  0.37236757  0.66797032
   0.07756372  0.84591393  0.17630462
   0.09220016  0.88991563  0.58088067
   0.63853414  0.37790181  0.11038869
   0.59271595  0.40650530  0.65430393
   0.69644728  0.91008144  0.18622377
   0.58980023  0.85614599  0.61394400
  -0.02171950  0.01014191  0.31668207
  -0.04228480  0.02764904  0.69393764
   0.05253118  0.55908983  0.25568421
   0.04986190  0.52935051  0.81376547
   0.50513875 -0.00153135  0.24894719
   0.51129177  0.03698032  0.75486740
   0.49646080  0.49014384  0.21719796
   0.49453544  0.53338200  0.79318208
   0.15106039  0.13392194  0.41415982
   0.11834768  0.06992307  0.86307237
   0.16468582  0.58862214  0.50117903
   0.17059608  0.70287477  0.92799252
   0.58386489  0.14630601  0.35800849
   0.68982164  0.14044319  0.85535893
   0.60483912  0.57522828  0.35572859
   0.65508654  0.62352025  0.89445118
   0.03787600  0.21322660  0.02630221
   0.00919047  0.28463377  0.48092521
  -0.00067775  0.84704939 -0.01648148
  -0.01365846  0.70624067  0.51572460
   0.52552591  0.23375890 -0.02806876
   0.51404179  0.27230332  0.50148370
   0.50910268  0.75705189  0.01218662
   0.49027382  0.70880081  0.47788494
   0.37056657  0.32986214  0.33922913
   0.38743423  0.36052644  0.87389187
   0.40111300  0.85705918  0.35120553
   0.40741508  0.86098312  0.83273571
   0.87829619  0.39219358  0.30265112
   0.89491000  0.36408497  0.89478923
   0.89634762  0.87341938  0.44824031
   0.86828034  0.86485095  0.83056562
   0.27735799 -0.03016494 -0.05143929
   0.27843960 -0.01437850  0.47269405
   0.22449442  0.46452038 -0.05522051
   0.27801409  0.44189813  0.54167091
   0.78288295 -0.01036492 -0.01340545
   0.74190932 -0.00480489  0.53123051
   0.78183754  0.53485464  0.03967760
   0.74471304  0.45977238  0.49777994
   0.32879360  0.16552956  0.05250464
   0.36603263  0.13142225  0.61882178
   0.34173724  0.59936697  0.07628511
   0.35028874  0.63397860  0.64195576
   0.86171523  0.09862888  0.16119689
   0.81831494  0.18594977  0.59158037
   0.90714984  0.70684860  0.16818143
   0.88659872  0.56750314  0.64622284
   0.17985763  0.21637870  0.21022366
   0.22315774  0.23757499  0.74912173
   0.24506125  0.72670932  0.27491255
   0.23979225  0.78600296  0.74222671
   0.72524861  0.23878550  0.22177055
   0.74782427  0.30568809  0.73903084
   0.69067205  0.70914486  0.21584016
   0.72662662  0.70369697  0.72526819
Direct configuration=    27
   0.11006491  0.39742075  0.10470199
   0.09584462  0.37018514  0.66853321
   0.07425438  0.84479565  0.18139200
   0.08857789  0.89179669  0.57833578
   0.63696110  0.37583852  0.10864078
   0.59315695  0.40496419  0.65291640
   0.70024213  0.91285481  0.19035625
   0.58757484  0.85553194  0.61337377
  -0.02130739  0.01272590  0.32084288
  -0.04175607  0.02843991  0.69191210
   0.05540805  0.55886323  0.25559326
   0.05326073  0.53190540  0.81711072
   0.50717811 -0.00037997  0.24698777
   0.51486513  0.03992289  0.75454224
   0.49488037  0.48577226  0.21553237
   0.49189781  0.53307353  0.79446618
   0.15126539  0.13201810  0.41565898
   0.11377804  0.07162573  0.86058188
   0.16431038  0.58839379  0.50512628
   0.17157340  0.70412622  0.93399563
   0.58675987  0.14951942  0.35698552
   0.69070565  0.13868566  0.85529457
   0.60489813  0.57536061  0.35898434
   0.65932761  0.61849627  0.89637914
   0.03689643  0.20852126  0.02948919
   0.00690847  0.28690259  0.48188244
   0.00064935  0.84997601 -0.01917349
  -0.01054100  0.70398530  0.51523584
   0.52646830  0.23852923 -0.02954262
   0.51299565  0.27334543  0.50649258
   0.50789542  0.75719975  0.01722277
   0.49322852  0.70291128  0.47790919
   0.37011417  0.32895159  0.33626228
   0.38611131  0.35961614  0.87110346
   0.39913954  0.86040307  0.34927814
   0.40595584  0.86204717  0.82828747
   0.88078728  0.39104362  0.30075913
   0.89756607  0.36466455  0.89647570
   0.89619091  0.87325667  0.45314287
   0.86957844  0.86573997  0.82932593
   0.28085143 -0.03460621 -0.05287691
   0.27995121 -0.01363869  0.47102770
   0.22214497  0.46415265 -0.05821954
   0.27798874  0.43678104  0.54502130
   0.78516406 -0.01136422 -0.01351319
   0.74167357 -0.00426692  0.52921052
   0.78477783  0.53650893  0.04206314
   0.74163806  0.45737563  0.49823529
   0.32741649  0.16917528  0.05009166
   0.36875841  0.13035606  0.61371978
   0.34248141  0.59862783  0.07232993
   0.34952428  0.63216570  0.64618581
   0.86162761  0.09672677  0.16175526
   0.81618173  0.19190148  0.58755376
   0.90664950  0.71299833  0.16932559
   0.88530304  0.56472973  0.64743585
   0.17756088  0.21720641  0.20528059
   0.22104885  0.23820562  0.75162602
   0.24010560  0.72453510  0.27718532
   0.24119065  0.78610498  0.74072381
   0.72485002  0.23598084  0.22210093
   0.74582157  0.31094089  0.73720204
   0.68814921  0.70706719  0.21060132
   0.72547415  0.70330533  0.72353909
Direct configuration=    28
   0.11040038  0.40033126  0.10524044
   0.09716429  0.36845314  0.66877229
   0.07109351  0.84404568  0.18662107
   0.08536261  0.89374538  0.57597429
   0.63525512  0.37405506  0.10647316
   0.59333463  0.40378311  0.65113740
   0.70390420  0.91584659  0.19420362
   0.58560422  0.85492702  0.61295072
  -0.02050945  0.01518297  0.32469857
  -0.04121895  0.02913143  0.69013282
   0.05793141  0.55848740  0.25547221
   0.05632106  0.53424653  0.82030961
   0.50926616  0.00081145  0.24462091
   0.51837122  0.04255188  0.75401586
   0.49271421  0.48112925  0.21373465
   0.48912071  0.53266156  0.79551564
   0.15088059  0.13049904  0.41654197
   0.10921072  0.07355130  0.85817854
   0.16366732  0.58880646  0.50846384
   0.17236821  0.70543611  0.93973681
   0.58987826  0.15267377  0.35628793
   0.69107689  0.13685219  0.85532963
   0.60533212  0.57556410  0.36253252
   0.66305261  0.61381393  0.89852689
   0.03550128  0.20377693  0.03245564
   0.00438838  0.28899976  0.48281416
   0.00247840  0.85267899 -0.02143084
  -0.00744403  0.70148334  0.51494338
   0.52749415  0.24327185 -0.03079546
   0.51145453  0.27420126  0.51142575
   0.50667575  0.75702062  0.02192108
   0.49577759  0.69763284  0.47828624
   0.36978800  0.32823035  0.33348470
   0.38470005  0.35851573  0.86808570
   0.39695964  0.86330607  0.34760220
   0.40536900  0.86308207  0.82410233
   0.88335855  0.38983398  0.29936109
   0.90040656  0.36555277  0.89826414
   0.89591957  0.87322937  0.45782869
   0.87048951  0.86667220  0.82761973
   0.28393273 -0.03851544 -0.05381973
   0.28142022 -0.01314145  0.46984328
   0.21990739  0.46389571 -0.06090053
   0.27835907  0.43122083  0.54836366
   0.78734310 -0.01243727 -0.01347722
   0.74108961 -0.00369540  0.52712356
   0.78778625  0.53776947  0.04449070
   0.73869394  0.45509131  0.49850814
   0.32610665  0.17249480  0.04770120
   0.37160167  0.12941282  0.60876353
   0.34340690  0.59835209  0.06873835
   0.34911038  0.63011436  0.65008383
   0.86189954  0.09472625  0.16203949
   0.81464430  0.19745431  0.58326160
   0.90600264  0.71867389  0.17035149
   0.88377100  0.56217539  0.64862148
   0.17566771  0.21806725  0.20056944
   0.21963890  0.23835873  0.75424698
   0.23515742  0.72220877  0.27912950
   0.24207739  0.78611746  0.73906593
   0.72467752  0.23337296  0.22283602
   0.74434079  0.31593598  0.73603996
   0.68579240  0.70493715  0.20528268
   0.72467349  0.70333531  0.72169676
Direct configuration=    29
   0.11065386  0.40316860  0.10594039
   0.09820480  0.36726347  0.66867817
   0.06815805  0.84372723  0.19186278
   0.08265319  0.89570975  0.57380266
   0.63357273  0.37256039  0.10402233
   0.59306742  0.40316835  0.64909673
   0.70743481  0.91887324  0.19773969
   0.58391871  0.85432979  0.61266015
  -0.01940280  0.01743219  0.32823262
  -0.04074410  0.02976166  0.68861773
   0.06003286  0.55803368  0.25529561
   0.05896068  0.53635226  0.82325018
   0.51139618  0.00206114  0.24197885
   0.52168771  0.04482178  0.75326546
   0.49011028  0.47641479  0.21200771
   0.48639161  0.53215259  0.79637352
   0.14987928  0.12946709  0.41679904
   0.10482202  0.07556947  0.85596718
   0.16303734  0.58954597  0.51127855
   0.17302643  0.70686593  0.94512037
   0.59296258  0.15567719  0.35605163
   0.69101736  0.13511162  0.85543751
   0.60613973  0.57564321  0.36594311
   0.66615465  0.60956952  0.90065238
   0.03372459  0.19912326  0.03515447
   0.00174060  0.29086855  0.48368323
   0.00482438  0.85515745 -0.02315097
  -0.00457864  0.69886909  0.51483213
   0.52858577  0.24780473 -0.03189862
   0.50948599  0.27474336  0.51597889
   0.50549816  0.75654033  0.02623089
   0.49771773  0.69322270  0.47910714
   0.36959182  0.32765291  0.33094018
   0.38317593  0.35725600  0.86490358
   0.39467823  0.86560807  0.34614654
   0.40582178  0.86405778  0.82015722
   0.88598306  0.38857597  0.29842794
   0.90337809  0.36673803  0.90011045
   0.89561190  0.87325601  0.46220041
   0.87100667  0.86760100  0.82547358
   0.28638546 -0.04176413 -0.05424125
   0.28281237 -0.01287669  0.46914869
   0.21787884  0.46370698 -0.06321239
   0.27901209  0.42551192  0.55159314
   0.78937076 -0.01357441 -0.01332046
   0.74013351 -0.00300501  0.52503100
   0.79085327  0.53858941  0.04698960
   0.73595991  0.45293250  0.49857035
   0.32489409  0.17546481  0.04530683
   0.37448348  0.12861960  0.60414524
   0.34445689  0.59848111  0.06552662
   0.34903212  0.62783903  0.65352520
   0.86253857  0.09265926  0.16211844
   0.81360911  0.20254756  0.57879018
   0.90516758  0.72374857  0.17127122
   0.88205562  0.55986147  0.64975030
   0.17419180  0.21890904  0.19625882
   0.21899110  0.23796416  0.75694488
   0.23034473  0.71982439  0.28078093
   0.24233326  0.78601189  0.73732570
   0.72478334  0.23116689  0.22378729
   0.74358874  0.32044516  0.73565900
   0.68355627  0.70287021  0.19998327
   0.72418564  0.70371012  0.71989598
Direct configuration=    30
   0.11079130  0.40586228  0.10675587
   0.09890860  0.36663650  0.66827296
   0.06552795  0.84389505  0.19705243
   0.08052893  0.89764159  0.57182123
   0.63206011  0.37136861  0.10144480
   0.59227049  0.40325758  0.64695464
   0.71083092  0.92177878  0.20094798
   0.58252689  0.85374250  0.61248925
  -0.01807791  0.01940606  0.33143254
  -0.04039294  0.03035723  0.68737071
   0.06167150  0.55755557  0.25505230
   0.06109598  0.53824612  0.82583176
   0.51354202  0.00336776  0.23919249
   0.52472285  0.04671530  0.75226127
   0.48719276  0.47179627  0.21047195
   0.48386209  0.53155147  0.79709491
   0.14831024  0.12896305  0.41647381
   0.10071672  0.07758117  0.85402521
   0.16269478  0.59031599  0.51366129
   0.17358551  0.70844345  0.95009035
   0.59576794  0.15844140  0.35639808
   0.69061626  0.13359101  0.85561820
   0.60734211  0.57543472  0.36885486
   0.66858506  0.60581043  0.90256211
   0.03158766  0.19464020  0.03752643
  -0.00092948  0.29248004  0.48446156
   0.00765068  0.85743613 -0.02432013
  -0.00215468  0.69629947  0.51487710
   0.52970732  0.25195855 -0.03294646
   0.50715884  0.27488685  0.51990337
   0.50439908  0.75580649  0.03015450
   0.49890639  0.68983752  0.48047496
   0.36950849  0.32716440  0.32866015
   0.38152485  0.35586242  0.86161908
   0.39239633  0.86724247  0.34483246
   0.40734546  0.86495806  0.81640680
   0.88864620  0.38728964  0.29791776
   0.90644428  0.36819836  0.90198739
   0.89531355  0.87325488  0.46619023
   0.87116491  0.86848714  0.82295493
   0.28811232 -0.04431589 -0.05414183
   0.28406284 -0.01278571  0.46892799
   0.21616281  0.46353625 -0.06509711
   0.27986472  0.41990080  0.55463018
   0.79120471 -0.01476741 -0.01307081
   0.73880088 -0.00212134  0.52297026
   0.79397200  0.53894748  0.04957164
   0.73352155  0.45090242  0.49840417
   0.32381135  0.17807227  0.04288183
   0.37732871  0.12796224  0.60001752
   0.34559125  0.59893267  0.06269881
   0.34923947  0.62537425  0.65641747
   0.86353329  0.09055826  0.16206179
   0.81295670  0.20716447  0.57422741
   0.90408334  0.72813349  0.17208419
   0.88020168  0.55779116  0.65080118
   0.17313588  0.21970810  0.19247069
   0.21908245  0.23703232  0.75967051
   0.22576189  0.71746002  0.28218272
   0.24193001  0.78578430  0.73556497
   0.72524136  0.22951606  0.22474982
   0.74367565  0.32434189  0.73608759
   0.68140640  0.70095341  0.19479695
   0.72396871  0.70435599  0.71826090
