perturbed cd Si                         
   5.50000000000000     
     0.000000    0.500000    0.500000
     0.500000    0.000000    0.500000
     0.500000    0.500000    0.000000
   Si
     2
Direct
  0.875000  0.875000  0.877502
  0.125000  0.125000  0.127498
 
   36   36   36
 0.22940184514E+02 0.22843934415E+02 0.22592117448E+02 0.22151770696E+02 0.21424424122E+02
 0.20316863893E+02 0.18896115039E+02 0.17422449102E+02 0.16281182182E+02 0.15825628285E+02
 0.16207673447E+02 0.17299763164E+02 0.18760361619E+02 0.20199314674E+02 0.21340527905E+02
 0.22099759102E+02 0.22560395325E+02 0.22827589338E+02 0.22937185279E+02 0.22899984136E+02
 0.22701803217E+02 0.22301195118E+02 0.21578471260E+02 0.20435244547E+02 0.18946831402E+02
 0.17393787628E+02 0.16188329396E+02 0.15707036808E+02 0.16111255479E+02 0.17264914336E+02
 0.18804195947E+02 0.20312598910E+02 0.21493235425E+02 0.22252070900E+02 0.22675499272E+02
 0.22889576101E+02 0.22843934415E+02 0.22988916633E+02 0.22914715584E+02 0.22451856311E+02
 0.21415715153E+02 0.19800098178E+02 0.17855280558E+02 0.16057964449E+02 0.14949192443E+02
 0.14898142541E+02 0.15922385676E+02 0.17679072894E+02 0.19632781568E+02 0.21292386755E+02
 0.22383770634E+02 0.22892060504E+02 0.22991889435E+02 0.22863729565E+02 0.22572059842E+02
 0.22145814345E+02 0.21589950621E+02 0.20893455415E+02 0.20016318588E+02 0.18933106312E+02
 0.17748484109E+02 0.16697169847E+02 0.16059450820E+02 0.16030508259E+02 0.16619384675E+02
 0.17644415565E+02 0.18827916503E+02 0.19926916587E+02 0.20823396477E+02 0.21533722692E+02
 0.22101369566E+02 0.22539092533E+02 0.22592117448E+02 0.22914715584E+02 0.22808101377E+02
 0.21990056162E+02 0.20345283447E+02 0.18050248944E+02 0.15600888847E+02 0.13685523385E+02
 0.12918967798E+02 0.13562433919E+02 0.15396047398E+02 0.17826571212E+02 0.20160120424E+02
 0.21875634032E+02 0.22766868417E+02 0.22927063316E+02 0.22631017582E+02 0.22111299587E+02
 0.21450979097E+02 0.20695094374E+02 0.19867004458E+02 0.18979523093E+02 0.18048635525E+02
 0.17099681842E+02 0.16226038769E+02 0.15587334337E+02 0.15338420341E+02 0.15547257050E+02
 0.16156443818E+02 0.17015955612E+02 0.17963328262E+02 0.18897505149E+02 0.19789652016E+02
 0.20623434638E+02 0.21386470731E+02 0.22057014183E+02 0.22151770696E+02 0.22451856311E+02
 0.21990056162E+02 0.20527713702E+02 0.18116045678E+02 0.15183837668E+02 0.12475714558E+02
 0.10808854699E+02 0.10732445344E+02 0.12272267067E+02 0.14918429148E+02 0.17863994173E+02
 0.20345697181E+02 0.21901006508E+02 0.22446378718E+02 0.22200225759E+02 0.21524620201E+02
 0.20663879001E+02 0.19708840037E+02 0.18717284548E+02 0.17726576502E+02 0.16764238518E+02
 0.15861956335E+02 0.15069411163E+02 0.14456577968E+02 0.14109920273E+02 0.14094300128E+02
 0.14412994121E+02 0.15005555524E+02 0.15785307447E+02 0.16680173835E+02 0.17638519415E+02
 0.18627680319E+02 0.19620560295E+02 0.20581103906E+02 0.21453486066E+02 0.21424424122E+02
 0.21415715153E+02 0.20345283447E+02 0.18116045678E+02 0.15018647552E+02 0.11742780462E+02
 0.92001779852E+01 0.81868748117E+01 0.90376437264E+01 0.11470542411E+02 0.14718439596E+02
 0.17865021839E+02 0.20190612518E+02 0.21366474919E+02 0.21458850929E+02 0.20803113537E+02
 0.19809820282E+02 0.18690563944E+02 0.17539165253E+02 0.16420274479E+02 0.15376769563E+02
 0.14438858506E+02 0.13635318440E+02 0.13003445080E+02 0.12589902665E+02 0.12437464460E+02
 0.12564887920E+02 0.12956465804E+02 0.13570784419E+02 0.14360683415E+02 0.15287770127E+02
 0.16322883216E+02 0.17436551329E+02 0.18587463733E+02 0.19713087114E+02 0.20722641429E+02
 0.20316863893E+02 0.19800098178E+02 0.18050248944E+02 0.15183837668E+02 0.11742780462E+02
 0.85995812112E+01 0.66788364817E+01 0.65910662260E+01 0.83648420022E+01 0.11433856787E+02
 0.14886821530E+02 0.17832993111E+02 0.19694154542E+02 0.20316428561E+02 0.19911915751E+02
 0.18903366741E+02 0.17679329905E+02 0.16398771752E+02 0.15155451039E+02 0.14012087440E+02
 0.13006534781E+02 0.12160993789E+02 0.11492783099E+02 0.11022405806E+02 0.10773259087E+02
 0.10762413056E+02 0.10990706285E+02 0.11442180349E+02 0.12093489014E+02 0.12923728135E+02
 0.13915647995E+02 0.15047979624E+02 0.16284582604E+02 0.17565126856E+02 0.18798823788E+02
 0.19838949969E+02 0.18896115039E+02 0.17855280558E+02 0.15600888847E+02 0.12475714558E+02
 0.92001779852E+01 0.66788364817E+01 0.56788399903E+01 0.65184143133E+01 0.89297616846E+01
 0.12174795201E+02 0.15347260152E+02 0.17700005239E+02 0.18853076558E+02 0.18830877206E+02
 0.17962619119E+02 0.16703737991E+02 0.15340161585E+02 0.13995918457E+02 0.12755962922E+02
 0.11671057690E+02 0.10765361212E+02 0.10047746648E+02 0.95230429092E+01 0.91984672406E+01
 0.90825613348E+01 0.91794957847E+01 0.94856811919E+01 0.99926980110E+01 0.10693106468E+02
 0.11582101847E+02 0.12651623287E+02 0.13879308417E+02 0.15217078241E+02 0.16583226353E+02
 0.17858715195E+02 0.18780906984E+02 0.17422449102E+02 0.16057964449E+02 0.13685523385E+02
 0.10808854699E+02 0.81868748117E+01 0.65910662260E+01 0.65184143133E+01 0.79918336409E+01
 0.10550893112E+02 0.13437588790E+02 0.15880784608E+02 0.17347046122E+02 0.17666564685E+02
 0.17016072945E+02 0.15795786914E+02 0.14393723525E+02 0.12980100981E+02 0.11659780743E+02
 0.10498800421E+02 0.95282044724E+01 0.87550516034E+01 0.81757820720E+01 0.77865304992E+01
 0.75869630029E+01 0.75784224475E+01 0.77608871736E+01 0.81329817832E+01 0.86949683751E+01
 0.94505895400E+01 0.10403615643E+02 0.11548263194E+02 0.12856216884E+02 0.14265103786E+02
 0.15673540088E+02 0.16922860624E+02 0.17643073851E+02 0.16281182182E+02 0.14949192443E+02
 0.12918967798E+02 0.10732445344E+02 0.90376437264E+01 0.83648420022E+01 0.89297616846E+01
 0.10550893112E+02 0.12719365648E+02 0.14788573548E+02 0.16199157582E+02 0.16649558095E+02
 0.16157380139E+02 0.15005788476E+02 0.13587949170E+02 0.12129782550E+02 0.10747816638E+02
 0.95210934719E+01 0.84893272307E+01 0.76615303541E+01 0.70301314397E+01 0.65838944899E+01
 0.63150952156E+01 0.62205353534E+01 0.62994941662E+01 0.65524820117E+01 0.69824501198E+01
 0.75968041652E+01 0.84066176030E+01 0.94200958044E+01 0.10630280214E+02 0.12000837294E+02
 0.13456467233E+02 0.14883893360E+02 0.16075262732E+02 0.16641439113E+02 0.15825628285E+02
 0.14898142541E+02 0.13562433919E+02 0.12272267067E+02 0.11470542411E+02 0.11433856787E+02
 0.12174795201E+02 0.13437588790E+02 0.14788573548E+02 0.15768403515E+02 0.16049767777E+02
 0.15541856673E+02 0.14403764110E+02 0.12960129760E+02 0.11461944876E+02 0.10028448993E+02
 0.87448724204E+01 0.76578346761E+01 0.67794162703E+01 0.61003324424E+01 0.56043487757E+01
 0.52777728911E+01 0.51125556275E+01 0.51054163102E+01 0.52562968554E+01 0.55681930241E+01
 0.60485632032E+01 0.67105143182E+01 0.75703492168E+01 0.86386467475E+01 0.99059280030E+01
 0.11328950060E+02 0.12825656744E+02 0.14281048764E+02 0.15461183409E+02 0.16035718901E+02
 0.16207673447E+02 0.15922385676E+02 0.15396047398E+02 0.14918429148E+02 0.14718439596E+02
 0.14886821530E+02 0.15347260152E+02 0.15880784608E+02 0.16199157582E+02 0.16049767777E+02
 0.15316517852E+02 0.14072711405E+02 0.12555814197E+02 0.10996720568E+02 0.95061672184E+01
 0.81662503828E+01 0.70258939461E+01 0.60993347603E+01 0.53763153967E+01 0.48366319553E+01
 0.44614538861E+01 0.42381164669E+01 0.41600354052E+01 0.42251769131E+01 0.44352825735E+01
 0.47964609314E+01 0.53207061066E+01 0.60263300927E+01 0.69338216178E+01 0.80550359669E+01
 0.93785238146E+01 0.10858526293E+02 0.12415363196E+02 0.13942900501E+02 0.15222708586E+02
 0.16007800369E+02 0.17299763164E+02 0.17679072894E+02 0.17826571212E+02 0.17863994173E+02
 0.17865021839E+02 0.17832993111E+02 0.17700005239E+02 0.17347046122E+02 0.16649558095E+02
 0.15541856673E+02 0.14072711405E+02 0.12415500186E+02 0.10756245283E+02 0.91874374130E+01
 0.77808678271E+01 0.65820168053E+01 0.56046999513E+01 0.48376058155E+01 0.42572143023E+01
 0.38398012268E+01 0.35679096591E+01 0.34313225455E+01 0.34255042880E+01 0.35502448423E+01
 0.38096258845E+01 0.42133049456E+01 0.47781023978E+01 0.55273535609E+01 0.64850138013E+01
 0.76640627615E+01 0.90533705564E+01 0.10610260649E+02 0.12264706611E+02 0.13927905883E+02
 0.15422561484E+02 0.16566665209E+02 0.18760361619E+02 0.19632781568E+02 0.20160120424E+02
 0.20345697181E+02 0.20190612518E+02 0.19694154542E+02 0.18853076558E+02 0.17666564685E+02
 0.16157380139E+02 0.14403764110E+02 0.12555814197E+02 0.10756245283E+02 0.90799512371E+01
 0.75876114187E+01 0.63179384084E+01 0.52815375552E+01 0.44650478232E+01 0.38420616134E+01
 0.33845655594E+01 0.30702234476E+01 0.28845442101E+01 0.28198931226E+01 0.28738525422E+01
 0.30484424013E+01 0.33507180128E+01 0.37944549203E+01 0.44013825677E+01 0.51993169439E+01
 0.62152015033E+01 0.74639455056E+01 0.89373964075E+01 0.10599394108E+02 0.12390790607E+02
 0.14238830751E+02 0.16007974994E+02 0.17543270293E+02 0.20199314674E+02 0.21292386755E+02
 0.21875634032E+02 0.21901006508E+02 0.21366474919E+02 0.20316428561E+02 0.18830877206E+02
 0.17016072945E+02 0.15005788476E+02 0.12960129760E+02 0.10996720568E+02 0.91874374130E+01
 0.75876114187E+01 0.62301117535E+01 0.51215238635E+01 0.42457452723E+01 0.35735568584E+01
 0.30732538848E+01 0.27180602645E+01 0.24890190091E+01 0.23746939161E+01 0.23697923565E+01
 0.24741266405E+01 0.26925048839E+01 0.30356905243E+01 0.35219206839E+01 0.41774038781E+01
 0.50336423130E+01 0.61203672118E+01 0.74552497368E+01 0.90341536665E+01 0.10826671040E+02
 0.12779116259E+02 0.14820980684E+02 0.16841050066E+02 0.18679297432E+02 0.21340527905E+02
 0.22383770634E+02 0.22766868417E+02 0.22446378718E+02 0.21458850929E+02 0.19911915751E+02
 0.17962619119E+02 0.15795786914E+02 0.13587949170E+02 0.11461944876E+02 0.95061672184E+01
 0.77808678271E+01 0.63179384084E+01 0.51215238635E+01 0.41732187391E+01 0.34414304100E+01
 0.28914050825E+01 0.24925085813E+01 0.22215366985E+01 0.20629919340E+01 0.20080987691E+01
 0.20538822585E+01 0.22028198550E+01 0.24631440149E+01 0.28497272534E+01 0.33850730277E+01
 0.40991793495E+01 0.50265833487E+01 0.61995306560E+01 0.76381391398E+01 0.93407044403E+01
 0.11277885491E+02 0.13391799838E+02 0.15596579947E+02 0.17773509044E+02 0.19750261883E+02
 0.22099759102E+02 0.22892060504E+02 0.22927063316E+02 0.22200225759E+02 0.20803113537E+02
 0.18903366741E+02 0.16703737991E+02 0.14393723525E+02 0.12129782550E+02 0.10028448993E+02
 0.81662503828E+01 0.65820168053E+01 0.52815375552E+01 0.42457452723E+01 0.34414304100E+01
 0.28315144298E+01 0.23822656973E+01 0.20667476633E+01 0.18654812828E+01 0.17658831343E+01
 0.17616487291E+01 0.18524953074E+01 0.20441830692E+01 0.23487447652E+01 0.27850075599E+01
 0.33791837654E+01 0.41644642405E+01 0.51779174717E+01 0.64535275246E+01 0.80120347911E+01
 0.98502046744E+01 0.11932458492E+02 0.14185893740E+02 0.16497651185E+02 0.18714623553E+02
 0.20649688963E+02 0.22560395325E+02 0.22991889435E+02 0.22631017582E+02 0.21524620201E+02
 0.19809820282E+02 0.17679329905E+02 0.15340161585E+02 0.12980100981E+02 0.10747816638E+02
 0.87448724204E+01 0.70258939461E+01 0.56046999513E+01 0.44650478232E+01 0.35735568584E+01
 0.28914050825E+01 0.23822656973E+01 0.20160548740E+01 0.17697552423E+01 0.16270440278E+01
 0.15779510051E+01 0.16189047404E+01 0.17528729658E+01 0.19892802923E+01 0.23438778304E+01
 0.28390047482E+01 0.35040893067E+01 0.43750928593E+01 0.54909764859E+01 0.68859681624E+01
 0.85781948455E+01 0.10557012912E+02 0.12772016357E+02 0.15126127043E+02 0.17474578657E+02
 0.19632231348E+02 0.21392631127E+02 0.22827589338E+02 0.22863729565E+02 0.22111299587E+02
 0.20663879001E+02 0.18690563944E+02 0.16398771752E+02 0.13995918457E+02 0.11659780743E+02
 0.95210934719E+01 0.76578346761E+01 0.60993347603E+01 0.48376058155E+01 0.38420616134E+01
 0.30732538848E+01 0.24925085813E+01 0.20667476633E+01 0.17697552423E+01 0.15818479270E+01
 0.14895113888E+01 0.14856036689E+01 0.15697953693E+01 0.17486267986E+01 0.20350843955E+01
 0.24482855442E+01 0.30137944589E+01 0.37640936019E+01 0.47375659335E+01 0.59739511393E+01
 0.75050686475E+01 0.93414613643E+01 0.11457741992E+02 0.13780733598E+02 0.16184388784E+02
 0.18494491300E+02 0.20505145775E+02 0.22007523696E+02 0.22937185279E+02 0.22572059842E+02
 0.21450979097E+02 0.19708840037E+02 0.17539165253E+02 0.15155451039E+02 0.12755962922E+02
 0.10498800421E+02 0.84893272307E+01 0.67794162703E+01 0.53763153967E+01 0.42572143023E+01
 0.33845655594E+01 0.27180602645E+01 0.22215366985E+01 0.18654812828E+01 0.16270440278E+01
 0.14895113888E+01 0.14423345909E+01 0.14816726163E+01 0.16107365089E+01 0.18394963716E+01
 0.21841232323E+01 0.26668970131E+01 0.33167140018E+01 0.41691915164E+01 0.52644716428E+01
 0.66407614085E+01 0.83227911396E+01 0.10306666296E+02 0.12545024338E+02 0.14937453281E+02
 0.17330258217E+02 0.19527934228E+02 0.21317039299E+02 0.22500666856E+02 0.22899984136E+02
 0.22145814345E+02 0.20695094374E+02 0.18717284548E+02 0.16420274479E+02 0.14012087440E+02
 0.11671057690E+02 0.95282044724E+01 0.76615303541E+01 0.61003324424E+01 0.48366319553E+01
 0.38398012268E+01 0.30702234476E+01 0.24890190091E+01 0.20629919340E+01 0.17658831343E+01
 0.15779510051E+01 0.14856036689E+01 0.14816726163E+01 0.15658611571E+01 0.17447390692E+01
 0.20313098268E+01 0.24447578432E+01 0.30107704203E+01 0.37619257861E+01 0.47366500057E+01
 0.59747770061E+01 0.75083332068E+01 0.93480425008E+01 0.11468477634E+02 0.13796210209E+02
 0.16204909529E+02 0.18520097240E+02 0.20535473646E+02 0.22041574389E+02 0.22863720324E+02
 0.22701803217E+02 0.21589950621E+02 0.19867004458E+02 0.17726576502E+02 0.15376769563E+02
 0.13006534781E+02 0.10765361212E+02 0.87550516034E+01 0.70301314397E+01 0.56043487757E+01
 0.44614538861E+01 0.35679096591E+01 0.28845442101E+01 0.23746939161E+01 0.20080987691E+01
 0.17616487291E+01 0.16189047404E+01 0.15697953693E+01 0.16107365089E+01 0.17447390692E+01
 0.19812759828E+01 0.23362002595E+01 0.28320502514E+01 0.34984609598E+01 0.43715200172E+01
 0.54903427210E+01 0.68894974011E+01 0.85875129450E+01 0.10573849829E+02 0.12797770001E+02
 0.15161690128E+02 0.17520392473E+02 0.19688119180E+02 0.21457281734E+02 0.22631025564E+02
 0.23064626238E+02 0.22301195118E+02 0.20893455415E+02 0.18979523093E+02 0.16764238518E+02
 0.14438858506E+02 0.12160993789E+02 0.10047746648E+02 0.81757820720E+01 0.65838944899E+01
 0.52777728911E+01 0.42381164669E+01 0.34313225455E+01 0.28198931226E+01 0.23697923565E+01
 0.20538822585E+01 0.18524953074E+01 0.17528729658E+01 0.17486267986E+01 0.18394963716E+01
 0.20313098268E+01 0.23362002595E+01 0.27731878124E+01 0.33687827926E+01 0.41564997528E+01
 0.51737099743E+01 0.64547313063E+01 0.80206769050E+01 0.98685658130E+01 0.11962770550E+02
 0.14230036551E+02 0.16556941757E+02 0.18789506439E+02 0.20739064966E+02 0.22200240020E+02
 0.22998605088E+02 0.23033736214E+02 0.21578471260E+02 0.20016318588E+02 0.18048635525E+02
 0.15861956335E+02 0.13635318440E+02 0.11492783099E+02 0.95230429092E+01 0.77865304992E+01
 0.63150952156E+01 0.51125556275E+01 0.41600354052E+01 0.34255042880E+01 0.28738525422E+01
 0.24741266405E+01 0.22028198550E+01 0.20441830692E+01 0.19892802923E+01 0.20350843955E+01
 0.21841232323E+01 0.24447578432E+01 0.28320502514E+01 0.33687827926E+01 0.40853685553E+01
 0.50168591201E+01 0.61959610647E+01 0.76430665741E+01 0.93565961374E+01 0.11307324503E+02
 0.13437477362E+02 0.15661029539E+02 0.17858006060E+02 0.19853269181E+02 0.21458870186E+02
 0.22512581081E+02 0.22899719560E+02 0.22576019559E+02 0.20435244547E+02 0.18933106312E+02
 0.17099681842E+02 0.15069411163E+02 0.13003445080E+02 0.11022405806E+02 0.91984672406E+01
 0.75869630029E+01 0.62205353534E+01 0.51054163102E+01 0.42251769131E+01 0.35502448423E+01
 0.30484424013E+01 0.26925048839E+01 0.24631440149E+01 0.23487447652E+01 0.23438778304E+01
 0.24482855442E+01 0.26668970131E+01 0.30107704203E+01 0.34984609598E+01 0.41564997528E+01
 0.50168591201E+01 0.61098733756E+01 0.74536516638E+01 0.90441258172E+01 0.10850822607E+02
 0.12820253202E+02 0.14882188668E+02 0.16922640717E+02 0.18779814350E+02 0.20316429878E+02
 0.21422465698E+02 0.22013298760E+02 0.22039303812E+02 0.21498059547E+02 0.18946831402E+02
 0.17748484109E+02 0.16226038769E+02 0.14456577968E+02 0.12589902665E+02 0.10773259087E+02
 0.90825613348E+01 0.75784224475E+01 0.62994941662E+01 0.52562968554E+01 0.44352825735E+01
 0.38096258845E+01 0.33507180128E+01 0.30356905243E+01 0.28497272534E+01 0.27850075599E+01
 0.28390047482E+01 0.30137944589E+01 0.33167140018E+01 0.37619257861E+01 0.43715200172E+01
 0.51737099743E+01 0.61959610647E+01 0.74536516638E+01 0.89387410406E+01 0.10614866808E+02
 0.12422853044E+02 0.14289547638E+02 0.16075048227E+02 0.17624092530E+02 0.18853080356E+02
 0.19735711354E+02 0.20270596581E+02 0.20459360462E+02 0.20301979314E+02 0.19798264153E+02
 0.17393787628E+02 0.16697169847E+02 0.15587334337E+02 0.14109920273E+02 0.12437464460E+02
 0.10762413056E+02 0.91794957847E+01 0.77608871736E+01 0.65524820117E+01 0.55681930241E+01
 0.47964609314E+01 0.42133049456E+01 0.37944549203E+01 0.35219206839E+01 0.33850730277E+01
 0.33791837654E+01 0.35040893067E+01 0.37640936019E+01 0.41691915164E+01 0.47366500057E+01
 0.54903427210E+01 0.64547313063E+01 0.76430665741E+01 0.90441258172E+01 0.10614866808E+02
 0.12284961278E+02 0.13963955664E+02 0.15467808747E+02 0.16614689752E+02 0.17347051312E+02
 0.17725206889E+02 0.17872590656E+02 0.17910485161E+02 0.17911532324E+02 0.17878959445E+02
 0.17745825764E+02 0.16188329396E+02 0.16059450820E+02 0.15338420341E+02 0.14094300128E+02
 0.12564887920E+02 0.10990706285E+02 0.94856811919E+01 0.81329817832E+01 0.69824501198E+01
 0.60485632032E+01 0.53207061066E+01 0.47781023978E+01 0.44013825677E+01 0.41774038781E+01
 0.40991793495E+01 0.41644642405E+01 0.43750928593E+01 0.47375659335E+01 0.52644716428E+01
 0.59747770061E+01 0.68894974011E+01 0.80206769050E+01 0.93565961374E+01 0.10850822607E+02
 0.12422853044E+02 0.13963955664E+02 0.15245566674E+02 0.16019430159E+02 0.16199169685E+02
 0.15891408555E+02 0.15346114568E+02 0.14856275786E+02 0.14651749006E+02 0.14823500933E+02
 0.15295375128E+02 0.15847507534E+02 0.15707036808E+02 0.16030508259E+02 0.15547257050E+02
 0.14412994121E+02 0.12956465804E+02 0.11442180349E+02 0.99926980110E+01 0.86949683751E+01
 0.75968041652E+01 0.67105143182E+01 0.60263300927E+01 0.55273535609E+01 0.51993169439E+01
 0.50336423130E+01 0.50265833487E+01 0.51779174717E+01 0.54909764859E+01 0.59739511393E+01
 0.66407614085E+01 0.75083332068E+01 0.85875129450E+01 0.98685658130E+01 0.11307324503E+02
 0.12820253202E+02 0.14289547638E+02 0.15467808747E+02 0.16019430159E+02 0.15768441313E+02
 0.14790564628E+02 0.13405731261E+02 0.12077203324E+02 0.11254157789E+02 0.11216231935E+02
 0.11976391183E+02 0.13276353746E+02 0.14676246971E+02 0.16111255479E+02 0.16619384675E+02
 0.16156443818E+02 0.15005555524E+02 0.13570784419E+02 0.12093489014E+02 0.10693106468E+02
 0.94505895400E+01 0.84066176030E+01 0.75703492168E+01 0.69338216178E+01 0.64850138013E+01
 0.62152015033E+01 0.61203672118E+01 0.61995306560E+01 0.64535275246E+01 0.68859681624E+01
 0.75050686475E+01 0.83227911396E+01 0.93480425008E+01 0.10573849829E+02 0.11962770550E+02
 0.13437477362E+02 0.14882188668E+02 0.16075048227E+02 0.16614689752E+02 0.16199169685E+02
 0.14790564628E+02 0.12676057497E+02 0.10413685055E+02 0.86658624271E+01 0.79727396991E+01
 0.85539554531E+01 0.10225277147E+02 0.12468478602E+02 0.14622409927E+02 0.17264914336E+02
 0.17644415565E+02 0.17015955612E+02 0.15785307447E+02 0.14360683415E+02 0.12923728135E+02
 0.11582101847E+02 0.10403615643E+02 0.94200958044E+01 0.86386467475E+01 0.80550359669E+01
 0.76640627615E+01 0.74639455056E+01 0.74552497368E+01 0.76381391398E+01 0.80120347911E+01
 0.85781948455E+01 0.93414613643E+01 0.10306666296E+02 0.11468477634E+02 0.12797770001E+02
 0.14230036551E+02 0.15661029539E+02 0.16922640717E+02 0.17624092530E+02 0.17347051312E+02
 0.15891408555E+02 0.13405731261E+02 0.10413685055E+02 0.76966741583E+01 0.60458083982E+01
 0.59700335526E+01 0.74933007287E+01 0.10144613256E+02 0.13146441004E+02 0.15704543192E+02
 0.18804195947E+02 0.18827916503E+02 0.17963328262E+02 0.16680173835E+02 0.15287770127E+02
 0.13915647995E+02 0.12651623287E+02 0.11548263194E+02 0.10630280214E+02 0.99059280030E+01
 0.93785238146E+01 0.90533705564E+01 0.89373964075E+01 0.90341536665E+01 0.93407044403E+01
 0.98502046744E+01 0.10557012912E+02 0.11457741992E+02 0.12545024338E+02 0.13796210209E+02
 0.15161690128E+02 0.16556941757E+02 0.17858006060E+02 0.18779814350E+02 0.18853080356E+02
 0.17725206889E+02 0.15346114568E+02 0.12077203324E+02 0.86658624271E+01 0.60458083982E+01
 0.50072798759E+01 0.58780403322E+01 0.83828931891E+01 0.11761826094E+02 0.15079260251E+02
 0.17559993150E+02 0.20312598910E+02 0.19926916587E+02 0.18897505149E+02 0.17638519415E+02
 0.16322883216E+02 0.15047979624E+02 0.13879308417E+02 0.12856216884E+02 0.12000837294E+02
 0.11328950060E+02 0.10858526293E+02 0.10610260649E+02 0.10599394108E+02 0.10826671040E+02
 0.11277885491E+02 0.11932458492E+02 0.12772016357E+02 0.13780733598E+02 0.14937453281E+02
 0.16204909529E+02 0.17520392473E+02 0.18789506439E+02 0.19853269181E+02 0.20316429878E+02
 0.19735711354E+02 0.17872590656E+02 0.14856275786E+02 0.11254157789E+02 0.79727396991E+01
 0.59700335526E+01 0.58780403322E+01 0.77266176169E+01 0.10929962959E+02 0.14543937256E+02
 0.17642940116E+02 0.19621770843E+02 0.21493235425E+02 0.20823396477E+02 0.19789652016E+02
 0.18627680319E+02 0.17436551329E+02 0.16284582604E+02 0.15217078241E+02 0.14265103786E+02
 0.13456467233E+02 0.12825656744E+02 0.12415363196E+02 0.12264706611E+02 0.12390790607E+02
 0.12779116259E+02 0.13391799838E+02 0.14185893740E+02 0.15126127043E+02 0.16184388784E+02
 0.17330258217E+02 0.18520097240E+02 0.19688119180E+02 0.20739064966E+02 0.21458870186E+02
 0.21422465698E+02 0.20270596581E+02 0.17910485161E+02 0.14651749006E+02 0.11216231935E+02
 0.85539554531E+01 0.74933007287E+01 0.83828931891E+01 0.10929962959E+02 0.14336172855E+02
 0.17646080352E+02 0.20106396029E+02 0.21368383155E+02 0.22252070900E+02 0.21533722692E+02
 0.20623434638E+02 0.19620560295E+02 0.18587463733E+02 0.17565126856E+02 0.16583226353E+02
 0.15673540088E+02 0.14883893360E+02 0.14281048764E+02 0.13942900501E+02 0.13927905883E+02
 0.14238830751E+02 0.14820980684E+02 0.15596579947E+02 0.16497651185E+02 0.17474578657E+02
 0.18494491300E+02 0.19527934228E+02 0.20535473646E+02 0.21457281734E+02 0.22200240020E+02
 0.22512581081E+02 0.22013298760E+02 0.20459360462E+02 0.17911532324E+02 0.14823500933E+02
 0.11976391183E+02 0.10225277147E+02 0.10144613256E+02 0.11761826094E+02 0.14543937256E+02
 0.17646080352E+02 0.20267133579E+02 0.21918428250E+02 0.22506102806E+02 0.22675499272E+02
 0.22101369566E+02 0.21386470731E+02 0.20581103906E+02 0.19713087114E+02 0.18798823788E+02
 0.17858715195E+02 0.16922860624E+02 0.16075262732E+02 0.15461183409E+02 0.15222708586E+02
 0.15422561484E+02 0.16007974994E+02 0.16841050066E+02 0.17773509044E+02 0.18714623553E+02
 0.19632231348E+02 0.20505145775E+02 0.21317039299E+02 0.22041574389E+02 0.22631025564E+02
 0.22998605088E+02 0.22899719560E+02 0.22039303812E+02 0.20301979314E+02 0.17878959445E+02
 0.15295375128E+02 0.13276353746E+02 0.12468478602E+02 0.13146441004E+02 0.15079260251E+02
 0.17642940116E+02 0.20106396029E+02 0.21918428250E+02 0.22856990339E+02 0.23014111380E+02
 0.22889576101E+02 0.22539092533E+02 0.22057014183E+02 0.21453486066E+02 0.20722641429E+02
 0.19838949969E+02 0.18780906984E+02 0.17643073851E+02 0.16641439113E+02 0.16035718901E+02
 0.16007800369E+02 0.16566665209E+02 0.17543270293E+02 0.18679297432E+02 0.19750261883E+02
 0.20649688963E+02 0.21392631127E+02 0.22007523696E+02 0.22500666856E+02 0.22863720324E+02
 0.23064626238E+02 0.23033736214E+02 0.22576019559E+02 0.21498059547E+02 0.19798264153E+02
 0.17745825764E+02 0.15847507534E+02 0.14676246971E+02 0.14622409927E+02 0.15704543192E+02
 0.17559993150E+02 0.19621770843E+02 0.21368383155E+02 0.22506102806E+02 0.23014111380E+02
 0.23073559958E+02 0.22880169986E+02 0.23025276844E+02 0.22950524617E+02 0.22485172492E+02
 0.21444182282E+02 0.19821623314E+02 0.17868836764E+02 0.16064337004E+02 0.14951192148E+02
 0.14899957388E+02 0.15928255251E+02 0.17691946320E+02 0.19653620414E+02 0.21320311615E+02
 0.22416757237E+02 0.22927739875E+02 0.23028227922E+02 0.22899968538E+02 0.22607849896E+02
 0.22180830460E+02 0.21623832659E+02 0.20925734856E+02 0.20045877498E+02 0.18958791650E+02
 0.17769745525E+02 0.16714458301E+02 0.16074319672E+02 0.16045261279E+02 0.16636365514E+02
 0.17665276135E+02 0.18853216012E+02 0.19956178347E+02 0.20855492713E+02 0.21567485143E+02
 0.22136304405E+02 0.22574843542E+02 0.23025276844E+02 0.23349399066E+02 0.23217790516E+02
 0.22339768162E+02 0.20599596275E+02 0.18183905143E+02 0.15611384440E+02 0.13601576096E+02
 0.12797577035E+02 0.13472676806E+02 0.15396682599E+02 0.17949060331E+02 0.20404552157E+02
 0.22218320571E+02 0.23172753767E+02 0.23360727820E+02 0.23064690336E+02 0.22535902822E+02
 0.21862759454E+02 0.21090514937E+02 0.20242411841E+02 0.19331299053E+02 0.18371512053E+02
 0.17387045294E+02 0.16477725701E+02 0.15811958091E+02 0.15552377347E+02 0.15770215630E+02
 0.16405257814E+02 0.17300017399E+02 0.18283270334E+02 0.19247106126E+02 0.20163167122E+02
 0.21017202954E+02 0.21796895995E+02 0.22480666434E+02 0.22950524617E+02 0.23217790516E+02
 0.22648325373E+02 0.20994655064E+02 0.18319056885E+02 0.15089260200E+02 0.12115115725E+02
 0.10286700000E+02 0.10203067548E+02 0.11892238965E+02 0.14797867053E+02 0.18041008471E+02
 0.20791637065E+02 0.22545627552E+02 0.23206035793E+02 0.22998693036E+02 0.22308193845E+02
 0.21418657592E+02 0.20428541249E+02 0.19396422112E+02 0.18360612992E+02 0.17350339472E+02
 0.16399976516E+02 0.15561205445E+02 0.14908469866E+02 0.14538016867E+02 0.14521400770E+02
 0.14862128360E+02 0.15493478666E+02 0.16319163162E+02 0.17261958378E+02 0.18268406133E+02
 0.19302952688E+02 0.20336751095E+02 0.21332855067E+02 0.22234680919E+02 0.22485172492E+02
 0.22339768162E+02 0.20994655064E+02 0.18354882613E+02 0.14754470572E+02 0.10974676081E+02
 0.80498684289E+01 0.68856931332E+01 0.78634944800E+01 0.10661662444E+02 0.14407324115E+02
 0.18061114672E+02 0.20808147179E+02 0.22271783462E+02 0.22512686490E+02 0.21888142453E+02
 0.20855898241E+02 0.19683725228E+02 0.18471458836E+02 0.17286375156E+02 0.16174672892E+02
 0.15170609710E+02 0.14307381387E+02 0.13627003934E+02 0.13181084657E+02 0.13016601536E+02
 0.13154106586E+02 0.13576374212E+02 0.14237956057E+02 0.15086760988E+02 0.16079592068E+02
 0.17182821606E+02 0.18362957097E+02 0.19575355742E+02 0.20754748775E+02 0.21805769010E+02
 0.21444182282E+02 0.20599596275E+02 0.18319056885E+02 0.14754470572E+02 0.10548983040E+02
 0.67352100700E+01 0.44115561175E+01 0.43056539017E+01 0.64513535760E+01 0.10173392340E+02
 0.14389129309E+02 0.18044504961E+02 0.20453976361E+02 0.21422511243E+02 0.21172274251E+02
 0.20167093223E+02 0.18881088453E+02 0.17524463681E+02 0.16196878299E+02 0.14966826532E+02
 0.13878178762E+02 0.12958685804E+02 0.12230161589E+02 0.11716669215E+02 0.11444498953E+02
 0.11432578621E+02 0.11681876745E+02 0.12174772649E+02 0.12885080240E+02 0.13788294295E+02
 0.14862677878E+02 0.16081546055E+02 0.17402883841E+02 0.18760563219E+02 0.20057855734E+02
 0.21105010961E+02 0.19821623314E+02 0.18183905143E+02 0.15089260200E+02 0.10974676081E+02
 0.67352100700E+01 0.34957647193E+01 0.22145012804E+01 0.32900561584E+01 0.63869399260E+01
 0.10582963077E+02 0.14750682530E+02 0.17962137130E+02 0.19735703130E+02 0.20071235247E+02
 0.19328574134E+02 0.18034688833E+02 0.16592039012E+02 0.15152795482E+02 0.13811817277E+02
 0.12628923001E+02 0.11635801540E+02 0.10846559582E+02 0.10268972622E+02 0.99117311848E+01
 0.97841767901E+01 0.98908035671E+01 0.10227781030E+02 0.10785928329E+02 0.11556390686E+02
 0.12531580901E+02 0.13698440805E+02 0.15027262865E+02 0.16460990052E+02 0.17908071067E+02
 0.19226641979E+02 0.20041370736E+02 0.17868836764E+02 0.15611384440E+02 0.12115115725E+02
 0.80498684289E+01 0.44115561175E+01 0.22145012804E+01 0.21145892584E+01 0.41422259258E+01
 0.76896945041E+01 0.11759905488E+02 0.15340869880E+02 0.17725215873E+02 0.18660565443E+02
 0.18321739519E+02 0.17163261727E+02 0.15699241407E+02 0.14192535198E+02 0.12764426499E+02
 0.11494669522E+02 0.10425032490E+02 0.95695422253E+01 0.89279818993E+01 0.84972657366E+01
 0.82767164429E+01 0.82672903099E+01 0.84689622707E+01 0.88807090725E+01 0.95031176434E+01
 0.10339302116E+02 0.11390051432E+02 0.12643016588E+02 0.14059421450E+02 0.15563314803E+02
 0.17037541774E+02 0.18243114405E+02 0.18676994653E+02 0.16064337004E+02 0.13601576096E+02
 0.10286700000E+02 0.68856931332E+01 0.43056539017E+01 0.32900561584E+01 0.41422259258E+01
 0.66071540087E+01 0.99711573057E+01 0.13328944595E+02 0.15891300218E+02 0.17207902614E+02
 0.17241455494E+02 0.16299784837E+02 0.14873205899E+02 0.13340291572E+02 0.11854740457E+02
 0.10515148950E+02 0.93764282028E+01 0.84573599985E+01 0.77550422948E+01 0.72592075771E+01
 0.69611845396E+01 0.68565096690E+01 0.69439111765E+01 0.72243915801E+01 0.77021067392E+01
 0.83854500886E+01 0.92847851703E+01 0.10404100185E+02 0.11727165389E+02 0.13202870397E+02
 0.14736675095E+02 0.16183601222E+02 0.17190211268E+02 0.17261098575E+02 0.14951192148E+02
 0.12797577035E+02 0.10203067548E+02 0.78634944800E+01 0.64513535760E+01 0.63869399260E+01
 0.76896945041E+01 0.99711573057E+01 0.12572616902E+02 0.14790497147E+02 0.16100332491E+02
 0.16298853919E+02 0.15523603581E+02 0.14158020639E+02 0.12618532504E+02 0.11097695034E+02
 0.97056856167E+01 0.85093729857E+01 0.75341926005E+01 0.67775272631E+01 0.62249816611E+01
 0.58620258849E+01 0.56788774829E+01 0.56709710897E+01 0.58381949487E+01 0.61847327680E+01
 0.67197606788E+01 0.74573965921E+01 0.84124833630E+01 0.95894289781E+01 0.10965944822E+02
 0.12479094960E+02 0.14022299122E+02 0.15418071512E+02 0.16264723408E+02 0.16164112000E+02
 0.14899957388E+02 0.13472676806E+02 0.11892238965E+02 0.10661662444E+02 0.10173392340E+02
 0.10582963077E+02 0.11759905488E+02 0.13328944595E+02 0.14790497147E+02 0.15684780754E+02
 0.15743305886E+02 0.14969689698E+02 0.13617695844E+02 0.12057903652E+02 0.10505149570E+02
 0.90693666787E+01 0.78237370415E+01 0.67995749103E+01 0.59956425595E+01 0.53946878597E+01
 0.49775274591E+01 0.47298610854E+01 0.46434559886E+01 0.47155424060E+01 0.49484648696E+01
 0.53499333673E+01 0.59336490367E+01 0.67184842587E+01 0.77223757947E+01 0.89487825673E+01
 0.10369898358E+02 0.11916232132E+02 0.13480794391E+02 0.14866346922E+02 0.15705323911E+02
 0.15726080765E+02 0.15928255251E+02 0.15396682599E+02 0.14797867053E+02 0.14407324115E+02
 0.14389129309E+02 0.14750682530E+02 0.15340869880E+02 0.15891300218E+02 0.16100332491E+02
 0.15743305886E+02 0.14767374944E+02 0.13322586183E+02 0.11697397334E+02 0.10092837848E+02
 0.86077865915E+01 0.73130338799E+01 0.62419597842E+01 0.53945022451E+01 0.47512955839E+01
 0.42887153577E+01 0.39879107767E+01 0.38370987997E+01 0.38306836645E+01 0.39683846310E+01
 0.42552782956E+01 0.47026261842E+01 0.53286893983E+01 0.61568312243E+01 0.72073185945E+01
 0.84827180082E+01 0.99531138694E+01 0.11550721157E+02 0.13179190758E+02 0.14652658105E+02
 0.15679582146E+02 0.16093288243E+02 0.17691946320E+02 0.17949060331E+02 0.18041008471E+02
 0.18061114672E+02 0.18044504961E+02 0.17962137130E+02 0.17725215873E+02 0.17207902614E+02
 0.16298853919E+02 0.14969689698E+02 0.13322586183E+02 0.11572440619E+02 0.98798063653E+01
 0.83259027832E+01 0.69724050766E+01 0.58497320972E+01 0.49569695721E+01 0.42728433084E+01
 0.37698464130E+01 0.34243737284E+01 0.32205032596E+01 0.31495731258E+01 0.32087660336E+01
 0.34004394415E+01 0.37326413043E+01 0.42205618982E+01 0.48872322390E+01 0.57601846970E+01
 0.68617782687E+01 0.81952498962E+01 0.97332335326E+01 0.11416563842E+02 0.13165872271E+02
 0.14831965176E+02 0.16195732450E+02 0.17143009223E+02 0.19653620414E+02 0.20404552157E+02
 0.20791637065E+02 0.20808147179E+02 0.20453976361E+02 0.19735703130E+02 0.18660565443E+02
 0.17241455494E+02 0.15523603581E+02 0.13617695844E+02 0.11697397334E+02 0.98798063653E+01
 0.82308163880E+01 0.68013127272E+01 0.56157765568E+01 0.46704036224E+01 0.39414740665E+01
 0.33979898169E+01 0.30119138837E+01 0.27628977890E+01 0.26385820645E+01 0.26332462896E+01
 0.27467092222E+01 0.29841667832E+01 0.33571971598E+01 0.38853767536E+01 0.45963085903E+01
 0.55211341361E+01 0.66845973621E+01 0.80926393787E+01 0.97235794988E+01 0.11528715798E+02
 0.13443107538E+02 0.15357818618E+02 0.17098002888E+02 0.18546509192E+02 0.21320311615E+02
 0.22218320571E+02 0.22545627552E+02 0.22271783462E+02 0.21422511243E+02 0.20071235247E+02
 0.18321739519E+02 0.16299784837E+02 0.14158020639E+02 0.12057903652E+02 0.10092837848E+02
 0.83259027832E+01 0.68013127272E+01 0.55378502864E+01 0.45281723390E+01 0.37459892850E+01
 0.31572496831E+01 0.27299358892E+01 0.24393451658E+01 0.22691042626E+01 0.22101035066E+01
 0.22593101595E+01 0.24192733503E+01 0.26984948208E+01 0.31126167048E+01 0.36856158748E+01
 0.44490185547E+01 0.54369803031E+01 0.66768886047E+01 0.81782343080E+01 0.99248256519E+01
 0.11874546689E+02 0.13965597779E+02 0.16109612592E+02 0.18148993046E+02 0.19928518832E+02
 0.22416757237E+02 0.23172753767E+02 0.23206035793E+02 0.22512686490E+02 0.21172274251E+02
 0.19328574134E+02 0.17163261727E+02 0.14873205899E+02 0.12618532504E+02 0.10505149570E+02
 0.86077865915E+01 0.69724050766E+01 0.56157765568E+01 0.45281723390E+01 0.36812556225E+01
 0.30386705968E+01 0.25652559043E+01 0.22324105101E+01 0.20196816100E+01 0.19142090109E+01
 0.19097179936E+01 0.20059334814E+01 0.22085756350E+01 0.25299040612E+01 0.29896666035E+01
 0.36157195712E+01 0.44427351047E+01 0.55072703927E+01 0.68388589278E+01 0.84493481080E+01
 0.10324564238E+02 0.12421154449E+02 0.14666959422E+02 0.16959319665E+02 0.19143952123E+02
 0.21024412681E+02 0.22927739875E+02 0.23360727820E+02 0.22998693036E+02 0.21888142453E+02
 0.20167093223E+02 0.18034688833E+02 0.15699241407E+02 0.13340291572E+02 0.11097695034E+02
 0.90693666787E+01 0.73130338799E+01 0.58497320972E+01 0.46704036224E+01 0.37459892850E+01
 0.30386705968E+01 0.25110332301E+01 0.21314005404E+01 0.18756706026E+01 0.17271668064E+01
 0.16759959370E+01 0.17186818506E+01 0.18581100397E+01 0.21036095889E+01 0.24712405096E+01
 0.29843808074E+01 0.36740315518E+01 0.45772994299E+01 0.57323490527E+01 0.71694201372E+01
 0.88996958708E+01 0.10905173846E+02 0.13131770320E+02 0.15485398121E+02 0.17829874645E+02
 0.19988747690E+02 0.21755437078E+02 0.23028227922E+02 0.23064690336E+02 0.22308193845E+02
 0.20855898241E+02 0.18881088453E+02 0.16592039012E+02 0.14192535198E+02 0.11854740457E+02
 0.97056856167E+01 0.78237370415E+01 0.62419597842E+01 0.49569695721E+01 0.39414740665E+01
 0.31572496831E+01 0.25652559043E+01 0.21314005404E+01 0.18285851828E+01 0.16367224930E+01
 0.15423016680E+01 0.15383031624E+01 0.16244035880E+01 0.18070275346E+01 0.20991373277E+01
 0.25201952704E+01 0.30966026541E+01 0.38619052551E+01 0.48549982396E+01 0.61145444434E+01
 0.76691402515E+01 0.95247162421E+01 0.11652054229E+02 0.13977352244E+02 0.16377940088E+02
 0.18685060226E+02 0.20696711628E+02 0.22203743893E+02 0.22899968538E+02 0.22535902822E+02
 0.21418657592E+02 0.19683725228E+02 0.17524463681E+02 0.15152795482E+02 0.12764426499E+02
 0.10515148950E+02 0.85093729857E+01 0.67995749103E+01 0.53945022451E+01 0.42728433084E+01
 0.33979898169E+01 0.27299358892E+01 0.22324105101E+01 0.18756706026E+01 0.16367224930E+01
 0.14988458026E+01 0.14515453981E+01 0.14909997325E+01 0.16203856429E+01 0.18496353727E+01
 0.21949363916E+01 0.26786751579E+01 0.33299401130E+01 0.41845045775E+01 0.52823290450E+01
 0.66607672199E+01 0.83430262854E+01 0.10323615728E+02 0.12554470293E+02 0.14936038314E+02
 0.17316840668E+02 0.19503899640E+02 0.21285432250E+02 0.22464841709E+02 0.22607849896E+02
 0.21862759454E+02 0.20428541249E+02 0.18471458836E+02 0.16196878299E+02 0.13811817277E+02
 0.11494669522E+02 0.93764282028E+01 0.75341926005E+01 0.59956425595E+01 0.47512955839E+01
 0.37698464130E+01 0.30119138837E+01 0.24393451658E+01 0.20196816100E+01 0.17271668064E+01
 0.15423016680E+01 0.14515453981E+01 0.14476926860E+01 0.15304295009E+01 0.17063622395E+01
 0.19884880071E+01 0.23957722061E+01 0.29533723994E+01 0.36931117637E+01 0.46527253759E+01
 0.58718363672E+01 0.73830765850E+01 0.91985456617E+01 0.11294391557E+02 0.13598186182E+02
 0.15983736220E+02 0.18276469784E+02 0.20270911001E+02 0.21759950389E+02 0.22572110833E+02
 0.22180830460E+02 0.21090514937E+02 0.19396422112E+02 0.17286375156E+02 0.14966826532E+02
 0.12628923001E+02 0.10425032490E+02 0.84573599985E+01 0.67775272631E+01 0.53946878597E+01
 0.42887153577E+01 0.34243737284E+01 0.27628977890E+01 0.22691042626E+01 0.19142090109E+01
 0.16759959370E+01 0.15383031624E+01 0.14909997325E+01 0.15304295009E+01 0.16596692047E+01
 0.18882691070E+01 0.22318428149E+01 0.27120790834E+01 0.33571776773E+01 0.42017391288E+01
 0.52843400141E+01 0.66409880258E+01 0.82938700645E+01 0.10237088446E+02 0.12423144333E+02
 0.14754406302E+02 0.17082831435E+02 0.19220169761E+02 0.20960094695E+02 0.22111369766E+02
 0.22535998448E+02 0.21623832659E+02 0.20242411841E+02 0.18360612992E+02 0.16174672892E+02
 0.13878178762E+02 0.11635801540E+02 0.95695422253E+01 0.77550422948E+01 0.62249816611E+01
 0.49775274591E+01 0.39879107767E+01 0.32205032596E+01 0.26385820645E+01 0.22101035066E+01
 0.19097179936E+01 0.17186818506E+01 0.16244035880E+01 0.16203856429E+01 0.17063622395E+01
 0.18882691070E+01 0.21781139964E+01 0.25940990518E+01 0.31610433132E+01 0.39104154565E+01
 0.48785501530E+01 0.61014424999E+01 0.76054425334E+01 0.93951140865E+01 0.11441242292E+02
 0.13672075961E+02 0.15969711567E+02 0.18173124405E+02 0.20090601061E+02 0.21524638734E+02
 0.22308142595E+02 0.22342662884E+02 0.20925734856E+02 0.19331299053E+02 0.17350339472E+02
 0.15170609710E+02 0.12958685804E+02 0.10846559582E+02 0.89279818993E+01 0.72592075771E+01
 0.58620258849E+01 0.47298610854E+01 0.38370987997E+01 0.31495731258E+01 0.26332462896E+01
 0.22593101595E+01 0.20059334814E+01 0.18581100397E+01 0.18070275346E+01 0.18496353727E+01
 0.19884880071E+01 0.22318428149E+01 0.25940990518E+01 0.30964793489E+01 0.37672503609E+01
 0.46401385224E+01 0.57495552208E+01 0.71222709701E+01 0.87670229201E+01 0.10664920130E+02
 0.12762957913E+02 0.14970774818E+02 0.17159752063E+02 0.19166085579E+02 0.20803096798E+02
 0.21888025452E+02 0.22288321093E+02 0.21953438356E+02 0.20045877498E+02 0.18371512053E+02
 0.16399976516E+02 0.14307381387E+02 0.12230161589E+02 0.10268972622E+02 0.84972657366E+01
 0.69611845396E+01 0.56788774829E+01 0.46434559886E+01 0.38306836645E+01 0.32087660336E+01
 0.27467092222E+01 0.24192733503E+01 0.22085756350E+01 0.21036095889E+01 0.20991373277E+01
 0.21949363916E+01 0.23957722061E+01 0.27120790834E+01 0.31610433132E+01 0.37672503609E+01
 0.45614091188E+01 0.55756633728E+01 0.68353108018E+01 0.83489851692E+01 0.10100870895E+02
 0.12047483439E+02 0.14118007196E+02 0.16214289294E+02 0.18203783466E+02 0.19911891796E+02
 0.21172121585E+02 0.21854397479E+02 0.21884481344E+02 0.21258896836E+02 0.18958791650E+02
 0.17387045294E+02 0.15561205445E+02 0.13627003934E+02 0.11716669215E+02 0.99117311848E+01
 0.82767164429E+01 0.68565096690E+01 0.56709710897E+01 0.47155424060E+01 0.39683846310E+01
 0.34004394415E+01 0.29841667832E+01 0.26984948208E+01 0.25299040612E+01 0.24712405096E+01
 0.25201952704E+01 0.26786751579E+01 0.29533723994E+01 0.33571776773E+01 0.39104154565E+01
 0.46401385224E+01 0.55756633728E+01 0.67400114797E+01 0.81396162380E+01 0.97567761924E+01
 0.11548660645E+02 0.13452420920E+02 0.15388956897E+02 0.17231127588E+02 0.18830897286E+02
 0.20071246407E+02 0.20864384118E+02 0.21151967274E+02 0.20911755384E+02 0.20162199174E+02
 0.17769745525E+02 0.16477725701E+02 0.14908469866E+02 0.13181084657E+02 0.11444498953E+02
 0.97841767901E+01 0.82672903099E+01 0.69439111765E+01 0.58381949487E+01 0.49484648696E+01
 0.42552782956E+01 0.37326413043E+01 0.33571971598E+01 0.31126167048E+01 0.29896666035E+01
 0.29843808074E+01 0.30966026541E+01 0.33299401130E+01 0.36931117637E+01 0.42017391288E+01
 0.48785501530E+01 0.57495552208E+01 0.68353108018E+01 0.81396162380E+01 0.96407993704E+01
 0.11290796826E+02 0.13023422846E+02 0.14756986083E+02 0.16346481374E+02 0.17666544866E+02
 0.18660549549E+02 0.19319333350E+02 0.19651846763E+02 0.19666078870E+02 0.19362411838E+02
 0.18733432707E+02 0.16714458301E+02 0.15811958091E+02 0.14538016867E+02 0.13016601536E+02
 0.11432578621E+02 0.98908035671E+01 0.84689622707E+01 0.72243915801E+01 0.61847327680E+01
 0.53499333673E+01 0.47026261842E+01 0.42205618982E+01 0.38853767536E+01 0.36856158748E+01
 0.36157195712E+01 0.36740315518E+01 0.38619052551E+01 0.41845045775E+01 0.46527253759E+01
 0.52843400141E+01 0.61014424999E+01 0.71222709701E+01 0.83489851692E+01 0.97567761924E+01
 0.11290796826E+02 0.12874481726E+02 0.14408530129E+02 0.15711579247E+02 0.16649488143E+02
 0.17207861032E+02 0.17469494602E+02 0.17557222022E+02 0.17573672561E+02 0.17560217107E+02
 0.17482299988E+02 0.17241526362E+02 0.16074319672E+02 0.15552377347E+02 0.14521400770E+02
 0.13154106586E+02 0.11681876745E+02 0.10227781030E+02 0.88807090725E+01 0.77021067392E+01
 0.67197606788E+01 0.59336490367E+01 0.53286893983E+01 0.48872322390E+01 0.45963085903E+01
 0.44490185547E+01 0.44427351047E+01 0.45772994299E+01 0.48549982396E+01 0.52823290450E+01
 0.58718363672E+01 0.66409880258E+01 0.76054425334E+01 0.87670229201E+01 0.10100870895E+02
 0.11548660645E+02 0.13023422846E+02 0.14408530129E+02 0.15478993828E+02 0.16049584498E+02
 0.16100199447E+02 0.15778668712E+02 0.15336451562E+02 0.15027739785E+02 0.15012815058E+02
 0.15299298640E+02 0.15739227537E+02 0.16083042169E+02 0.16045261279E+02 0.15770215630E+02
 0.14862128360E+02 0.13576374212E+02 0.12174772649E+02 0.10785928329E+02 0.95031176434E+01
 0.83854500886E+01 0.74573965921E+01 0.67184842587E+01 0.61568312243E+01 0.57601846970E+01
 0.55211341361E+01 0.54369803031E+01 0.55072703927E+01 0.57323490527E+01 0.61145444434E+01
 0.66607672199E+01 0.73830765850E+01 0.82938700645E+01 0.93951140865E+01 0.10664920130E+02
 0.12047483439E+02 0.13452420920E+02 0.14756986083E+02 0.15711579247E+02 0.16049584498E+02
 0.15684404827E+02 0.14762587901E+02 0.13626227537E+02 0.12696226739E+02 0.12318808898E+02
 0.12635156694E+02 0.13527251324E+02 0.14662743614E+02 0.15620491544E+02 0.16636365514E+02
 0.16405257814E+02 0.15493478666E+02 0.14237956057E+02 0.12885080240E+02 0.11556390686E+02
 0.10339302116E+02 0.92847851703E+01 0.84124833630E+01 0.77223757947E+01 0.72073185945E+01
 0.68617782687E+01 0.66845973621E+01 0.66768886047E+01 0.68388589278E+01 0.71694201372E+01
 0.76691402515E+01 0.83430262854E+01 0.91985456617E+01 0.10237088446E+02 0.11441242292E+02
 0.12762957913E+02 0.14118007196E+02 0.15388956897E+02 0.16346481374E+02 0.16649488143E+02
 0.16100199447E+02 0.14762587901E+02 0.12982372325E+02 0.11296866212E+02 0.10253813036E+02
 0.10205541418E+02 0.11168776604E+02 0.12817609234E+02 0.14613432085E+02 0.16009134779E+02
 0.17665276135E+02 0.17300017399E+02 0.16319163162E+02 0.15086760988E+02 0.13788294295E+02
 0.12531580901E+02 0.11390051432E+02 0.10404100185E+02 0.95894289781E+01 0.89487825673E+01
 0.84827180082E+01 0.81952498962E+01 0.80926393787E+01 0.81782343080E+01 0.84493481080E+01
 0.88996958708E+01 0.95247162421E+01 0.10323615728E+02 0.11294391557E+02 0.12423144333E+02
 0.13672075961E+02 0.14970774818E+02 0.16214289294E+02 0.17231127588E+02 0.17666544866E+02
 0.17207861032E+02 0.15778668712E+02 0.13626227537E+02 0.11296866212E+02 0.94787264755E+01
 0.87534110650E+01 0.93617036215E+01 0.11101533490E+02 0.13413612351E+02 0.15608276681E+02
 0.17117894002E+02 0.18853216012E+02 0.18283270334E+02 0.17261958378E+02 0.16079592068E+02
 0.14862677878E+02 0.13698440805E+02 0.12643016588E+02 0.11727165389E+02 0.10965944822E+02
 0.10369898358E+02 0.99531138694E+01 0.97332335326E+01 0.97235794988E+01 0.99248256519E+01
 0.10324564238E+02 0.10905173846E+02 0.11652054229E+02 0.12554470293E+02 0.13598186182E+02
 0.14754406302E+02 0.15969711567E+02 0.17159752063E+02 0.18203783466E+02 0.18830897286E+02
 0.18660549549E+02 0.17469494602E+02 0.15336451562E+02 0.12696226739E+02 0.10253813036E+02
 0.87534110650E+01 0.86844583771E+01 0.10069993669E+02 0.12456385188E+02 0.15110419211E+02
 0.17312184857E+02 0.18596552023E+02 0.19956178347E+02 0.19247106126E+02 0.18268406133E+02
 0.17182821606E+02 0.16081546055E+02 0.15027262865E+02 0.14059421450E+02 0.13202870397E+02
 0.12479094960E+02 0.11916232132E+02 0.11550721157E+02 0.11416563842E+02 0.11528715798E+02
 0.11874546689E+02 0.12421154449E+02 0.13131770320E+02 0.13977352244E+02 0.14936038314E+02
 0.15983736220E+02 0.17082831435E+02 0.18173124405E+02 0.19166085579E+02 0.19911891796E+02
 0.20071246407E+02 0.19319333350E+02 0.17557222022E+02 0.15027739785E+02 0.12318808898E+02
 0.10205541418E+02 0.93617036215E+01 0.10069993669E+02 0.12092627251E+02 0.14780489863E+02
 0.17354603869E+02 0.19201260333E+02 0.20044517224E+02 0.20855492713E+02 0.20163167122E+02
 0.19302952688E+02 0.18362957097E+02 0.17402883841E+02 0.16460990052E+02 0.15563314803E+02
 0.14736675095E+02 0.14022299122E+02 0.13480794391E+02 0.13179190758E+02 0.13165872271E+02
 0.13443107538E+02 0.13965597779E+02 0.14666959422E+02 0.15485398121E+02 0.16377940088E+02
 0.17316840668E+02 0.18276469784E+02 0.19220169761E+02 0.20090601061E+02 0.20803096798E+02
 0.21172121585E+02 0.20864384118E+02 0.19651846763E+02 0.17573672561E+02 0.15012815058E+02
 0.12635156694E+02 0.11168776604E+02 0.11101533490E+02 0.12456385188E+02 0.14780489863E+02
 0.17354939966E+02 0.19497242492E+02 0.20794144316E+02 0.21177120580E+02 0.21567485143E+02
 0.21017202954E+02 0.20336751095E+02 0.19575355742E+02 0.18760563219E+02 0.17908071067E+02
 0.17037541774E+02 0.16183601222E+02 0.15418071512E+02 0.14866346922E+02 0.14652658105E+02
 0.14831965176E+02 0.15357818618E+02 0.16109612592E+02 0.16959319665E+02 0.17829874645E+02
 0.18685060226E+02 0.19503899640E+02 0.20270911001E+02 0.20960094695E+02 0.21524638734E+02
 0.21888025452E+02 0.21854397479E+02 0.21151967274E+02 0.19666078870E+02 0.17560217107E+02
 0.15299298640E+02 0.13527251324E+02 0.12817609234E+02 0.13413612351E+02 0.15110419211E+02
 0.17354603869E+02 0.19497242492E+02 0.21050197131E+02 0.21822020408E+02 0.21906084407E+02
 0.22136304405E+02 0.21796895995E+02 0.21332855067E+02 0.20754748775E+02 0.20057855734E+02
 0.19226641979E+02 0.18243114405E+02 0.17190211268E+02 0.16264723408E+02 0.15705323911E+02
 0.15679582146E+02 0.16195732450E+02 0.17098002888E+02 0.18148993046E+02 0.19143952123E+02
 0.19988747690E+02 0.20696711628E+02 0.21285432250E+02 0.21759950389E+02 0.22111369766E+02
 0.22308142595E+02 0.22288321093E+02 0.21884481344E+02 0.20911755384E+02 0.19362411838E+02
 0.17482299988E+02 0.15739227537E+02 0.14662743614E+02 0.14613432085E+02 0.15608276681E+02
 0.17312184857E+02 0.19201260333E+02 0.20794144316E+02 0.21822020408E+02 0.22271529535E+02
 0.22316955518E+02 0.22574843542E+02 0.22480666434E+02 0.22234680919E+02 0.21805769010E+02
 0.21105010961E+02 0.20041370736E+02 0.18676994653E+02 0.17261098575E+02 0.16164112000E+02
 0.15726080765E+02 0.16093288243E+02 0.17143009223E+02 0.18546509192E+02 0.19928518832E+02
 0.21024412681E+02 0.21755437078E+02 0.22203743893E+02 0.22464841709E+02 0.22572110833E+02
 0.22535998448E+02 0.22342662884E+02 0.21953438356E+02 0.21258896836E+02 0.20162199174E+02
 0.18733432707E+02 0.17241526362E+02 0.16083042169E+02 0.15620491544E+02 0.16009134779E+02
 0.17117894002E+02 0.18596552023E+02 0.20044517224E+02 0.21177120580E+02 0.21906084407E+02
 0.22316955518E+02 0.22525695177E+02 0.22662906633E+02 0.22985756388E+02 0.22875112635E+02
 0.22047331600E+02 0.20387044683E+02 0.18072389492E+02 0.15603019861E+02 0.13672327182E+02
 0.12899700759E+02 0.13548300227E+02 0.15396583183E+02 0.17846897196E+02 0.20200267618E+02
 0.21931758056E+02 0.22833260054E+02 0.22997947680E+02 0.22701895559E+02 0.22180729036E+02
 0.21518327692E+02 0.20759769594E+02 0.19928401988E+02 0.19037051174E+02 0.18101480275E+02
 0.17146775457E+02 0.16267349087E+02 0.15624255298E+02 0.15373612253E+02 0.15583912064E+02
 0.16197293817E+02 0.17062516634E+02 0.18015694851E+02 0.18954671496E+02 0.19850738005E+02
 0.20687844183E+02 0.21453603496E+02 0.22126288152E+02 0.22985756388E+02 0.23251508390E+02
 0.22677210204E+02 0.21015002980E+02 0.18327642870E+02 0.15084568443E+02 0.12098528506E+02
 0.10262872045E+02 0.10178909458E+02 0.11874769189E+02 0.14792007819E+02 0.18048441298E+02
 0.20811061445E+02 0.22573909115E+02 0.23239465733E+02 0.23033898470E+02 0.22342751592E+02
 0.21451915936E+02 0.20460243976E+02 0.19426339116E+02 0.18388546651E+02 0.17376161084E+02
 0.16423674698E+02 0.15582820533E+02 0.14928286091E+02 0.14556761859E+02 0.14540100411E+02
 0.14881818270E+02 0.15514915851E+02 0.16342674476E+02 0.17287592513E+02 0.18296161721E+02
 0.19332699804E+02 0.20368292916E+02 0.21365972770E+02 0.22269132288E+02 0.22875112635E+02
 0.22677210204E+02 0.21228037308E+02 0.18433218087E+02 0.14642687156E+02 0.10671934527E+02
 0.76018109930E+01 0.63799974479E+01 0.74059624648E+01 0.10342996394E+02 0.14277613827E+02
 0.18123410636E+02 0.21029615441E+02 0.22602077193E+02 0.22899853098E+02 0.22288513289E+02
 0.21241763970E+02 0.20049534796E+02 0.18814639132E+02 0.17605107367E+02 0.16468206849E+02
 0.15439622074E+02 0.14554194241E+02 0.13855741995E+02 0.13397764002E+02 0.13228824917E+02
 0.13370124672E+02 0.13803823232E+02 0.14482961244E+02 0.15353641554E+02 0.16370879131E+02
 0.17499322325E+02 0.18703964273E+02 0.19939094751E+02 0.21138772449E+02 0.22205513374E+02
 0.22047331600E+02 0.21015002980E+02 0.18433218087E+02 0.14472340570E+02 0.98315950994E+01
 0.56345283803E+01 0.30797517963E+01 0.29631120074E+01 0.53217824592E+01 0.94172442708E+01
 0.14067770725E+02 0.18126056296E+02 0.20846811063E+02 0.22013417051E+02 0.21854623709E+02
 0.20856837628E+02 0.19535528660E+02 0.18136632361E+02 0.16762868697E+02 0.15485394953E+02
 0.14351143666E+02 0.13390894112E+02 0.12629014698E+02 0.12091623539E+02 0.11806686713E+02
 0.11794206198E+02 0.12055204549E+02 0.12571063417E+02 0.13313950474E+02 0.14257336287E+02
 0.15376985246E+02 0.16643221334E+02 0.18010944741E+02 0.19411315960E+02 0.20744997147E+02
 0.21790902273E+02 0.20387044683E+02 0.18327642870E+02 0.14642687156E+02 0.98315950994E+01
 0.49104337341E+01 0.11608637675E+01 -.32090154840E+00 0.92240974484E+00 0.45061584857E+01
 0.93750607807E+01 0.14243937722E+02 0.18058970652E+02 0.20270640656E+02 0.20864444480E+02
 0.20221811740E+02 0.18912396937E+02 0.17415968629E+02 0.15913675986E+02 0.14505932454E+02
 0.13258015380E+02 0.12206546868E+02 0.11369295534E+02 0.10756175305E+02 0.10376940926E+02
 0.10241507825E+02 0.10354630440E+02 0.10712340814E+02 0.11304901621E+02 0.12122367403E+02
 0.13155082870E+02 0.14386509240E+02 0.15782162109E+02 0.17279547953E+02 0.18781516500E+02
 0.20122461314E+02 0.20849523307E+02 0.18072389492E+02 0.15084568443E+02 0.10671934527E+02
 0.56345283803E+01 0.11608637675E+01 -.15324980468E+01 -.16552902565E+01 0.82953917433E+00
 0.51898832101E+01 0.10228943581E+02 0.14738015978E+02 0.17872696349E+02 0.19319287351E+02
 0.19253529043E+02 0.18171237020E+02 0.16664839922E+02 0.15089351513E+02 0.13581786834E+02
 0.12231316081E+02 0.11087545828E+02 0.10170000367E+02 0.94813327666E+01 0.90192351245E+01
 0.87827979729E+01 0.87726700821E+01 0.89888375058E+01 0.94305771062E+01 0.10098703159E+02
 0.10995673744E+02 0.12119665704E+02 0.13453078594E+02 0.14949438025E+02 0.16523481846E+02
 0.18044856732E+02 0.19189122942E+02 0.19369745142E+02 0.15603019861E+02 0.12098528506E+02
 0.76018109930E+01 0.30797517963E+01 -.32090154840E+00 -.16552902565E+01 -.53629932946E+00
 0.27110741845E+01 0.71793712285E+01 0.11723100823E+02 0.15346034730E+02 0.17469519996E+02
 0.18011943065E+02 0.17302792267E+02 0.15898921856E+02 0.14309325002E+02 0.12743042096E+02
 0.11313840142E+02 0.10088919467E+02 0.90954799537E+01 0.83350268570E+01 0.77984743443E+01
 0.74764830218E+01 0.73635232585E+01 0.74578525560E+01 0.77608951728E+01 0.82777984621E+01
 0.90176684070E+01 0.99899813903E+01 0.11194743798E+02 0.12607636400E+02 0.14165458869E+02
 0.15758716221E+02 0.17195930586E+02 0.17992216731E+02 0.17580707147E+02 0.13672327182E+02
 0.10262872045E+02 0.63799974479E+01 0.29631120074E+01 0.92240974484E+00 0.82953917433E+00
 0.27110741845E+01 0.60385394407E+01 0.99199098052E+01 0.13405337884E+02 0.15778507453E+02
 0.16730750225E+02 0.16379681092E+02 0.15155151124E+02 0.13594129285E+02 0.12006201455E+02
 0.10525574995E+02 0.92370992665E+01 0.81787180131E+01 0.73546334469E+01 0.67527765795E+01
 0.63581587214E+01 0.61594451238E+01 0.61508644411E+01 0.63322867073E+01 0.67090284241E+01
 0.72917515787E+01 0.80951608916E+01 0.91321801935E+01 0.10400934314E+02 0.11867089256E+02
 0.13450069689E+02 0.15020987539E+02 0.16297234545E+02 0.16747965143E+02 0.15923687695E+02
 0.12899700759E+02 0.10178909458E+02 0.74059624648E+01 0.53217824592E+01 0.45061584857E+01
 0.51898832101E+01 0.71793712285E+01 0.99199098052E+01 0.12675590102E+02 0.14762577377E+02
 0.15752650475E+02 0.15576595093E+02 0.14498331425E+02 0.12978635671E+02 0.11386672522E+02
 0.98743084438E+01 0.85383280958E+01 0.74273595312E+01 0.65500589723E+01 0.58930986005E+01
 0.54375954930E+01 0.51678405321E+01 0.50739178811E+01 0.51522694151E+01 0.54058911090E+01
 0.58441463209E+01 0.64822526247E+01 0.73390166263E+01 0.84288398375E+01 0.97458613407E+01
 0.11245625993E+02 0.12835552587E+02 0.14372250046E+02 0.15510498703E+02 0.15782695507E+02
 0.14900349579E+02 0.13548300227E+02 0.11874769189E+02 0.10342996394E+02 0.94172442708E+01
 0.93750607807E+01 0.10228943581E+02 0.11723100823E+02 0.13405337884E+02 0.14762577377E+02
 0.15385528888E+02 0.15103853197E+02 0.14033794625E+02 0.12515747032E+02 0.10907328876E+02
 0.93665959651E+01 0.79910070992E+01 0.68354073558E+01 0.59130271245E+01 0.52103175160E+01
 0.47047936558E+01 0.43766409597E+01 0.42125011454E+01 0.42055537597E+01 0.43553998678E+01
 0.46682413393E+01 0.51570319996E+01 0.58411663365E+01 0.67430613902E+01 0.78776186713E+01
 0.92349068085E+01 0.10764308028E+02 0.12371600351E+02 0.13909422740E+02 0.15035740514E+02
 0.15397063152E+02 0.14853059887E+02 0.15396583183E+02 0.14792007819E+02 0.14277613827E+02
 0.14067770725E+02 0.14243937722E+02 0.14738015978E+02 0.15346034730E+02 0.15778507453E+02
 0.15752650475E+02 0.15103853197E+02 0.13864837116E+02 0.12264705965E+02 0.10599734446E+02
 0.90137443174E+01 0.75941799249E+01 0.63946031106E+01 0.54298547978E+01 0.46863842948E+01
 0.41387691822E+01 0.37628310186E+01 0.35413153441E+01 0.34643502370E+01 0.35285815673E+01
 0.37368019447E+01 0.40982605579E+01 0.46295182240E+01 0.53542559558E+01 0.62982330704E+01
 0.74767809884E+01 0.88782108536E+01 0.10452464364E+02 0.12114398489E+02 0.13730971863E+02
 0.15014111702E+02 0.15720450490E+02 0.15798234970E+02 0.17846897196E+02 0.18048441298E+02
 0.18123410636E+02 0.18126056296E+02 0.18058970652E+02 0.17872696349E+02 0.17469519996E+02
 0.16730750225E+02 0.15576595093E+02 0.14033794625E+02 0.12264705965E+02 0.10493305602E+02
 0.88316019678E+01 0.73516546743E+01 0.61000122710E+01 0.50893438015E+01 0.43047341375E+01
 0.37179940385E+01 0.33008733587E+01 0.30319348401E+01 0.28977653918E+01 0.28919965613E+01
 0.30144403686E+01 0.32709076511E+01 0.36739697754E+01 0.42442726132E+01 0.50097852573E+01
 0.59992701408E+01 0.72293331157E+01 0.86901038190E+01 0.10338111862E+02 0.12103030663E+02
 0.13880791859E+02 0.15452377083E+02 0.16644190629E+02 0.17418036336E+02 0.20200267618E+02
 0.20811061445E+02 0.21029615441E+02 0.20846811063E+02 0.20270640656E+02 0.19319287351E+02
 0.18011943065E+02 0.16379681092E+02 0.14498331425E+02 0.12515747032E+02 0.10599734446E+02
 0.88316019678E+01 0.72698636166E+01 0.59518428884E+01 0.48857064735E+01 0.40541796196E+01
 0.34263084098E+01 0.29699261517E+01 0.26593179448E+01 0.24772747171E+01 0.24141768011E+01
 0.24668066363E+01 0.26378713111E+01 0.29363408628E+01 0.33786539545E+01 0.39898222935E+01
 0.48016964402E+01 0.58457410768E+01 0.71409332569E+01 0.86817989029E+01 0.10433646183E+02
 0.12339255676E+02 0.14321668545E+02 0.16219129614E+02 0.17877620332E+02 0.19215871188E+02
 0.21931758056E+02 0.22573909115E+02 0.22602077193E+02 0.22013417051E+02 0.20864444480E+02
 0.19253529043E+02 0.17302792267E+02 0.15155151124E+02 0.12978635671E+02 0.10907328876E+02
 0.90137443174E+01 0.73516546743E+01 0.59518428884E+01 0.48178192151E+01 0.39296186168E+01
 0.32540141341E+01 0.27557003839E+01 0.24049361966E+01 0.21804199081E+01 0.20689564545E+01
 0.20642096345E+01 0.21659059576E+01 0.23798106248E+01 0.27184670862E+01 0.32024243602E+01
 0.38607131334E+01 0.47283433279E+01 0.58391204013E+01 0.72146782971E+01 0.88539528244E+01
 0.10728609381E+02 0.12786659271E+02 0.14957915975E+02 0.17115441130E+02 0.19090104695E+02
 0.20736808205E+02 0.22833260054E+02 0.23239465733E+02 0.22899853098E+02 0.21854623709E+02
 0.20221811740E+02 0.18171237020E+02 0.15898921856E+02 0.13594129285E+02 0.11386672522E+02
 0.93665959651E+01 0.75941799249E+01 0.61000122710E+01 0.48857064735E+01 0.39296186168E+01
 0.31969487196E+01 0.26502230642E+01 0.22566013370E+01 0.19910360984E+01 0.18365072662E+01
 0.17831742729E+01 0.18276546614E+01 0.19727730301E+01 0.22277701461E+01 0.26089821175E+01
 0.31407121190E+01 0.38551708976E+01 0.47896443357E+01 0.59795441516E+01 0.74481127014E+01
 0.91961627250E+01 0.11195891061E+02 0.13389746914E+02 0.15690433262E+02 0.17972827803E+02
 0.20051557029E+02 0.21729349098E+02 0.22997947680E+02 0.23033898470E+02 0.22288513289E+02
 0.20856837628E+02 0.18912396937E+02 0.16664839922E+02 0.14309325002E+02 0.12006201455E+02
 0.98743084438E+01 0.79910070992E+01 0.63946031106E+01 0.50893438015E+01 0.40541796196E+01
 0.32540141341E+01 0.26502230642E+01 0.22078318544E+01 0.18988179742E+01 0.17026913857E+01
 0.16059992305E+01 0.16018988800E+01 0.16900786856E+01 0.18767923196E+01 0.21749191272E+01
 0.26042860815E+01 0.31921930688E+01 0.39730915082E+01 0.49855965001E+01 0.62655223107E+01
 0.78355157150E+01 0.96939046421E+01 0.11805804559E+02 0.14097698064E+02 0.16454554932E+02
 0.18719439069E+02 0.20699698044E+02 0.22185438382E+02 0.22701895559E+02 0.22342751592E+02
 0.21241763970E+02 0.19535528660E+02 0.17415968629E+02 0.15089351513E+02 0.12743042096E+02
 0.10525574995E+02 0.85383280958E+01 0.68354073558E+01 0.54298547978E+01 0.43047341375E+01
 0.34263084098E+01 0.27557003839E+01 0.22566013370E+01 0.18988179742E+01 0.16590384347E+01
 0.15205368509E+01 0.14729847934E+01 0.15126548210E+01 0.16426370151E+01 0.18727023505E+01
 0.22190179637E+01 0.27042405124E+01 0.33579249655E+01 0.42160193407E+01 0.53175295899E+01
 0.66970108443E+01 0.83732404803E+01 0.10336318059E+02 0.12536364084E+02 0.14876536842E+02
 0.17212257353E+02 0.19358811496E+02 0.21110440310E+02 0.22272500156E+02 0.22180729036E+02
 0.21451915936E+02 0.20049534796E+02 0.18136632361E+02 0.15913675986E+02 0.13581786834E+02
 0.11313840142E+02 0.92370992665E+01 0.74273595312E+01 0.59130271245E+01 0.46863842948E+01
 0.37179940385E+01 0.29699261517E+01 0.24049361966E+01 0.19910360984E+01 0.17026913857E+01
 0.15205368509E+01 0.14311386091E+01 0.14273512491E+01 0.15088531398E+01 0.16821936866E+01
 0.19602828399E+01 0.23619505866E+01 0.29121194312E+01 0.36421824139E+01 0.45890711823E+01
 0.57910350834E+01 0.72788040428E+01 0.90626008080E+01 0.11117731352E+02 0.13372940919E+02
 0.15705566513E+02 0.17946348309E+02 0.19895662699E+02 0.21351479604E+02 0.22145792595E+02
 0.21518327692E+02 0.20460243976E+02 0.18814639132E+02 0.16762868697E+02 0.14505932454E+02
 0.12231316081E+02 0.10088919467E+02 0.81787180131E+01 0.65500589723E+01 0.52103175160E+01
 0.41387691822E+01 0.33008733587E+01 0.26593179448E+01 0.21804199081E+01 0.18365072662E+01
 0.16059992305E+01 0.14729847934E+01 0.14273512491E+01 0.14654002185E+01 0.15902219549E+01
 0.18113879115E+01 0.21443255313E+01 0.26100944512E+01 0.32357445505E+01 0.40543864281E+01
 0.51032125437E+01 0.64175466783E+01 0.80200428725E+01 0.99063922554E+01 0.12031280254E+02
 0.14299338470E+02 0.16565002341E+02 0.18643542573E+02 0.20333863965E+02 0.21451116159E+02
 0.21862860006E+02 0.20759769594E+02 0.19426339116E+02 0.17605107367E+02 0.15485394953E+02
 0.13258015380E+02 0.11087545828E+02 0.90954799537E+01 0.73546334469E+01 0.58930986005E+01
 0.47047936558E+01 0.37628310186E+01 0.30319348401E+01 0.24772747171E+01 0.20689564545E+01
 0.17831742729E+01 0.16018988800E+01 0.15126548210E+01 0.15088531398E+01 0.15902219549E+01
 0.17627970562E+01 0.20385141345E+01 0.24349165325E+01 0.29753251665E+01 0.36890818558E+01
 0.46105842629E+01 0.57753071054E+01 0.72114657291E+01 0.89277065372E+01 0.10899481036E+02
 0.13058127541E+02 0.15286428331E+02 0.17423323192E+02 0.19279497452E+02 0.20664050625E+02
 0.21418856204E+02 0.21452119237E+02 0.19928401988E+02 0.18388546651E+02 0.16468206849E+02
 0.14351143666E+02 0.12206546868E+02 0.10170000367E+02 0.83350268570E+01 0.67527765795E+01
 0.54375954930E+01 0.43766409597E+01 0.35413153441E+01 0.28977653918E+01 0.24141768011E+01
 0.20642096345E+01 0.18276546614E+01 0.16900786856E+01 0.16426370151E+01 0.16821936866E+01
 0.18113879115E+01 0.20385141345E+01 0.23774712295E+01 0.28480133881E+01 0.34760299330E+01
 0.42928752190E+01 0.53322801131E+01 0.66236413840E+01 0.81818320841E+01 0.99955411197E+01
 0.12017190100E+02 0.14157012091E+02 0.16282978902E+02 0.18228437127E+02 0.19809937081E+02
 0.20855978527E+02 0.21241804148E+02 0.20919104766E+02 0.19037051174E+02 0.17376161084E+02
 0.15439622074E+02 0.13390894112E+02 0.11369295534E+02 0.94813327666E+01 0.77984743443E+01
 0.63581587214E+01 0.51678405321E+01 0.42125011454E+01 0.34643502370E+01 0.28919965613E+01
 0.24668066363E+01 0.21659059576E+01 0.19727730301E+01 0.18767923196E+01 0.18727023505E+01
 0.19602828399E+01 0.21443255313E+01 0.24349165325E+01 0.28480133881E+01 0.34059614388E+01
 0.41370143975E+01 0.50725328925E+01 0.62409136728E+01 0.76586667808E+01 0.93207220926E+01
 0.11192628411E+02 0.13206103351E+02 0.15257714964E+02 0.17210790537E+02 0.18903409642E+02
 0.20167064274E+02 0.20856732758E+02 0.20887143485E+02 0.20254434088E+02 0.18101480275E+02
 0.16423674698E+02 0.14554194241E+02 0.12629014698E+02 0.10756175305E+02 0.90192351245E+01
 0.74764830218E+01 0.61594451238E+01 0.50739178811E+01 0.42055537597E+01 0.35285815673E+01
 0.30144403686E+01 0.26378713111E+01 0.23798106248E+01 0.22277701461E+01 0.21749191272E+01
 0.22190179637E+01 0.23619505866E+01 0.26100944512E+01 0.29753251665E+01 0.34760299330E+01
 0.41370143975E+01 0.49869036773E+01 0.60521601936E+01 0.73484287433E+01 0.88718011799E+01
 0.10593140152E+02 0.12456727468E+02 0.14381378259E+02 0.16261121494E+02 0.17962656606E+02
 0.19328557697E+02 0.20221710711E+02 0.20549036992E+02 0.20275409445E+02 0.19430069476E+02
 0.17146775457E+02 0.15582820533E+02 0.13855741995E+02 0.12091623539E+02 0.10376940926E+02
 0.87827979729E+01 0.73635232585E+01 0.61508644411E+01 0.51522694151E+01 0.43553998678E+01
 0.37368019447E+01 0.32709076511E+01 0.29363408628E+01 0.27184670862E+01 0.26089821175E+01
 0.26042860815E+01 0.27042405124E+01 0.29121194312E+01 0.32357445505E+01 0.36890818558E+01
 0.42928752190E+01 0.50725328925E+01 0.60521601936E+01 0.72455502588E+01 0.86472176891E+01
 0.10227498562E+02 0.11933913742E+02 0.13696782073E+02 0.15431778451E+02 0.17016153741E+02
 0.18321849506E+02 0.19253669004E+02 0.19747326388E+02 0.19768895654E+02 0.19316836757E+02
 0.18422228889E+02 0.16267349087E+02 0.14928286091E+02 0.13397764002E+02 0.11806686713E+02
 0.10241507825E+02 0.87726700821E+01 0.74578525560E+01 0.63322867073E+01 0.54058911090E+01
 0.46682413393E+01 0.40982605579E+01 0.36739697754E+01 0.33786539545E+01 0.32024243602E+01
 0.31407121190E+01 0.31921930688E+01 0.33579249655E+01 0.36421824139E+01 0.40543864281E+01
 0.46105842629E+01 0.53322801131E+01 0.62409136728E+01 0.73484287433E+01 0.86472176891E+01
 0.10104337570E+02 0.11663659554E+02 0.13255330998E+02 0.14796327328E+02 0.16157366624E+02
 0.17241457568E+02 0.18012035875E+02 0.18470542413E+02 0.18629909188E+02 0.18496844444E+02
 0.18065780521E+02 0.17323813689E+02 0.15624255298E+02 0.14556761859E+02 0.13228824917E+02
 0.11794206198E+02 0.10354630440E+02 0.89888375058E+01 0.77608951728E+01 0.67090284241E+01
 0.58441463209E+01 0.51570319996E+01 0.46295182240E+01 0.42442726132E+01 0.39898222935E+01
 0.38607131334E+01 0.38551708976E+01 0.39730915082E+01 0.42160193407E+01 0.45890711823E+01
 0.51032125437E+01 0.57753071054E+01 0.66236413840E+01 0.76586667808E+01 0.88718011799E+01
 0.10227498562E+02 0.11663659554E+02 0.13102072152E+02 0.14445880514E+02 0.15541709801E+02
 0.16298717204E+02 0.16730735741E+02 0.16925336555E+02 0.16988326263E+02 0.16990290820E+02
 0.16934652111E+02 0.16756103818E+02 0.16349918798E+02 0.15373612253E+02 0.14540100411E+02
 0.13370124672E+02 0.12055204549E+02 0.10712340814E+02 0.94305771062E+01 0.82777984621E+01
 0.72917515787E+01 0.64822526247E+01 0.58411663365E+01 0.53542559558E+01 0.50097852573E+01
 0.48016964402E+01 0.47283433279E+01 0.47896443357E+01 0.49855965001E+01 0.53175295899E+01
 0.57910350834E+01 0.64175466783E+01 0.72114657291E+01 0.81818320841E+01 0.93207220926E+01
 0.10593140152E+02 0.11933913742E+02 0.13255330998E+02 0.14445880514E+02 0.15316288982E+02
 0.15742807762E+02 0.15752340586E+02 0.15505137368E+02 0.15223343825E+02 0.15096581675E+02
 0.15203118219E+02 0.15477517847E+02 0.15737393794E+02 0.15759257222E+02 0.15583912064E+02
 0.14881818270E+02 0.13803823232E+02 0.12571063417E+02 0.11304901621E+02 0.10098703159E+02
 0.90176684070E+01 0.80951608916E+01 0.73390166263E+01 0.67430613902E+01 0.62982330704E+01
 0.59992701408E+01 0.58457410768E+01 0.58391204013E+01 0.59795441516E+01 0.62655223107E+01
 0.66970108443E+01 0.72788040428E+01 0.80200428725E+01 0.89277065372E+01 0.99955411197E+01
 0.11192628411E+02 0.12456727468E+02 0.13696782073E+02 0.14796327328E+02 0.15541709801E+02
 0.15742807762E+02 0.15384824091E+02 0.14649503635E+02 0.13855434994E+02 0.13337521984E+02
 0.13313167760E+02 0.13792754625E+02 0.14575097478E+02 0.15330301759E+02 0.15732422587E+02
 0.16197293817E+02 0.15514915851E+02 0.14482961244E+02 0.13313950474E+02 0.12122367403E+02
 0.10995673744E+02 0.99899813903E+01 0.91321801935E+01 0.84288398375E+01 0.78776186713E+01
 0.74767809884E+01 0.72293331157E+01 0.71409332569E+01 0.72146782971E+01 0.74481127014E+01
 0.78355157150E+01 0.83732404803E+01 0.90626008080E+01 0.99063922554E+01 0.10899481036E+02
 0.12017190100E+02 0.13206103351E+02 0.14381378259E+02 0.15431778451E+02 0.16157366624E+02
 0.16298717204E+02 0.15752340586E+02 0.14649503635E+02 0.13339151903E+02 0.12275223765E+02
 0.11844154990E+02 0.12206069723E+02 0.13226511000E+02 0.14533745057E+02 0.15672305001E+02
 0.16277821729E+02 0.17062516634E+02 0.16342674476E+02 0.15353641554E+02 0.14257336287E+02
 0.13155082870E+02 0.12119665704E+02 0.11194743798E+02 0.10400934314E+02 0.97458613407E+01
 0.92349068085E+01 0.88782108536E+01 0.86901038190E+01 0.86817989029E+01 0.88539528244E+01
 0.91961627250E+01 0.96939046421E+01 0.10336318059E+02 0.11117731352E+02 0.12031280254E+02
 0.13058127541E+02 0.14157012091E+02 0.15257714964E+02 0.16261121494E+02 0.17016153741E+02
 0.17241457568E+02 0.16730735741E+02 0.15505137368E+02 0.13855434994E+02 0.12275223765E+02
 0.11289730051E+02 0.11244387734E+02 0.12155340306E+02 0.13702334132E+02 0.15367896349E+02
 0.16647421203E+02 0.17227362381E+02 0.18015694851E+02 0.17287592513E+02 0.16370879131E+02
 0.15376985246E+02 0.14386509240E+02 0.13453078594E+02 0.12607636400E+02 0.11867089256E+02
 0.11245625993E+02 0.10764308028E+02 0.10452464364E+02 0.10338111862E+02 0.10433646183E+02
 0.10728609381E+02 0.11195891061E+02 0.11805804559E+02 0.12536364084E+02 0.13372940919E+02
 0.14299338470E+02 0.15286428331E+02 0.16282978902E+02 0.17210790537E+02 0.17962656606E+02
 0.18321849506E+02 0.18012035875E+02 0.16925336555E+02 0.15223343825E+02 0.13337521984E+02
 0.11844154990E+02 0.11244387734E+02 0.11748152228E+02 0.13178733485E+02 0.15053371451E+02
 0.16792857356E+02 0.17945807723E+02 0.18324585919E+02 0.18954671496E+02 0.18296161721E+02
 0.17499322325E+02 0.16643221334E+02 0.15782162109E+02 0.14949438025E+02 0.14165458869E+02
 0.13450069689E+02 0.12835552587E+02 0.12371600351E+02 0.12114398489E+02 0.12103030663E+02
 0.12339255676E+02 0.12786659271E+02 0.13389746914E+02 0.14097698064E+02 0.14876536842E+02
 0.15705566513E+02 0.16565002341E+02 0.17423323192E+02 0.18228437127E+02 0.18903409642E+02
 0.19328557697E+02 0.19253669004E+02 0.18470542413E+02 0.16988326263E+02 0.15096581675E+02
 0.13313167760E+02 0.12206069723E+02 0.12155340306E+02 0.13178733485E+02 0.14923429429E+02
 0.16828754449E+02 0.18363675625E+02 0.19214024334E+02 0.19346565556E+02 0.19850738005E+02
 0.19332699804E+02 0.18703964273E+02 0.18010944741E+02 0.17279547953E+02 0.16523481846E+02
 0.15758716221E+02 0.15020987539E+02 0.14372250046E+02 0.13909422740E+02 0.13730971863E+02
 0.13880791859E+02 0.14321668545E+02 0.14957915975E+02 0.15690433262E+02 0.16454554932E+02
 0.17212257353E+02 0.17946348309E+02 0.18643542573E+02 0.19279497452E+02 0.19809937081E+02
 0.20167064274E+02 0.20221710711E+02 0.19747326388E+02 0.18629909188E+02 0.16990290820E+02
 0.15203118219E+02 0.13792754625E+02 0.13226511000E+02 0.13702334132E+02 0.15053371451E+02
 0.16828754449E+02 0.18500080027E+02 0.19673303408E+02 0.20203903609E+02 0.20187938856E+02
 0.20687844183E+02 0.20368292916E+02 0.19939094751E+02 0.19411315960E+02 0.18781516500E+02
 0.18044856732E+02 0.17195930586E+02 0.16297234545E+02 0.15510498703E+02 0.15035740514E+02
 0.15014111702E+02 0.15452377083E+02 0.16219129614E+02 0.17115441130E+02 0.17972827803E+02
 0.18719439069E+02 0.19358811496E+02 0.19895662699E+02 0.20333863965E+02 0.20664050625E+02
 0.20855978527E+02 0.20856732758E+02 0.20549036992E+02 0.19768895654E+02 0.18496844444E+02
 0.16934652111E+02 0.15477517847E+02 0.14575097478E+02 0.14533745057E+02 0.15367896349E+02
 0.16792857356E+02 0.18363675625E+02 0.19673303408E+02 0.20499942887E+02 0.20844770210E+02
 0.20865198623E+02 0.21453603496E+02 0.21365972770E+02 0.21138772449E+02 0.20744997147E+02
 0.20122461314E+02 0.19189122942E+02 0.17992216731E+02 0.16747965143E+02 0.15782695507E+02
 0.15397063152E+02 0.15720450490E+02 0.16644190629E+02 0.17877620332E+02 0.19090104695E+02
 0.20051557029E+02 0.20699698044E+02 0.21110440310E+02 0.21351479604E+02 0.21451116159E+02
 0.21418856204E+02 0.21241804148E+02 0.20887143485E+02 0.20275409445E+02 0.19316836757E+02
 0.18065780521E+02 0.16756103818E+02 0.15737393794E+02 0.15330301759E+02 0.15672305001E+02
 0.16647421203E+02 0.17945807723E+02 0.19214024334E+02 0.20203903609E+02 0.20844770210E+02
 0.21218027040E+02 0.21409303802E+02 0.22126288152E+02 0.22269132288E+02 0.22205513374E+02
 0.21790902273E+02 0.20849523307E+02 0.19369745142E+02 0.17580707147E+02 0.15923687695E+02
 0.14900349579E+02 0.14853059887E+02 0.15798234970E+02 0.17418036336E+02 0.19215871188E+02
 0.20736808205E+02 0.21729349098E+02 0.22185438382E+02 0.22272500156E+02 0.22145792595E+02
 0.21862860006E+02 0.21452119237E+02 0.20919104766E+02 0.20254434088E+02 0.19430069476E+02
 0.18422228889E+02 0.17323813689E+02 0.16349918798E+02 0.15759257222E+02 0.15732422587E+02
 0.16277821729E+02 0.17227362381E+02 0.18324585919E+02 0.19346565556E+02 0.20187938856E+02
 0.20865198623E+02 0.21409303802E+02 0.21830855420E+02 0.22252880947E+02 0.22548968809E+02
 0.22073748217E+02 0.20587448358E+02 0.18142705474E+02 0.15173237299E+02 0.12431857330E+02
 0.10744832022E+02 0.10667532986E+02 0.12226006846E+02 0.14904592272E+02 0.17887390213E+02
 0.20402781663E+02 0.21982980803E+02 0.22542716789E+02 0.22301319747E+02 0.21623822849E+02
 0.20759515623E+02 0.19800066586E+02 0.18803379091E+02 0.17806957293E+02 0.16838552188E+02
 0.15930193831E+02 0.15131897239E+02 0.14514110617E+02 0.14164494924E+02 0.14148749083E+02
 0.14470181471E+02 0.15067561469E+02 0.15853020430E+02 0.16753938124E+02 0.17718367423E+02
 0.18713282681E+02 0.19711350681E+02 0.20676371678E+02 0.21552398528E+02 0.22548968809E+02
 0.22395051266E+02 0.21033025395E+02 0.18368037466E+02 0.14736707284E+02 0.10925874095E+02
 0.79774677385E+01 0.68039494580E+01 0.77895852413E+01 0.10610305603E+02 0.14386656755E+02
 0.18071651500E+02 0.20844570891E+02 0.22325907184E+02 0.22576039738E+02 0.21953598844E+02
 0.20918988026E+02 0.19743560912E+02 0.18527605410E+02 0.17338528148E+02 0.16222708948E+02
 0.15214642131E+02 0.14347791752E+02 0.13664465583E+02 0.13216577823E+02 0.13051365873E+02
 0.13189488654E+02 0.13613622499E+02 0.14278071423E+02 0.15130447054E+02 0.16127260380E+02
 0.17234606232E+02 0.18418747538E+02 0.19634860295E+02 0.20817549806E+02 0.21871121949E+02
 0.22073748217E+02 0.21033025395E+02 0.18437797830E+02 0.14459235184E+02 0.97990475995E+01
 0.55848349751E+01 0.30196984037E+01 0.29025600190E+01 0.52707590901E+01 0.93829377094E+01
 0.14052910216E+02 0.18129187259E+02 0.20863825796E+02 0.22039278901E+02 0.21884612648E+02
 0.20887234458E+02 0.19564355089E+02 0.18163581948E+02 0.16787780219E+02 0.15508216635E+02
 0.14371953390E+02 0.13409901874E+02 0.12646545396E+02 0.12108096015E+02 0.11822595497E+02
 0.11810092526E+02 0.12071609768E+02 0.12588483240E+02 0.13332808881E+02 0.14277969912E+02
 0.15399619468E+02 0.16667945262E+02 0.18037711085E+02 0.19439969303E+02 0.20775276859E+02
 0.21821055185E+02 0.20587448358E+02 0.18368037466E+02 0.14459235184E+02 0.93835398211E+01
 0.42028027029E+01 0.25858648604E+00 -.12998596867E+01 0.73743057334E-02 0.37768128112E+01
 0.89020386721E+01 0.14037459413E+02 0.18081495952E+02 0.20459444293E+02 0.21152035306E+02
 0.20549117401E+02 0.19235717109E+02 0.17719038679E+02 0.16193383163E+02 0.14761007203E+02
 0.13489088792E+02 0.12416027590E+02 0.11560955420E+02 0.10934618620E+02 0.10547203871E+02
 0.10408853532E+02 0.10524413125E+02 0.10889846517E+02 0.11495186078E+02 0.12330064246E+02
 0.13384058228E+02 0.14639343761E+02 0.16059672038E+02 0.17580602415E+02 0.19103129780E+02
 0.20450832896E+02 0.21142830392E+02 0.18142705474E+02 0.14736707284E+02 0.97990475995E+01
 0.42028027029E+01 -.75273813612E+00 -.37331087202E+01 -.38691916910E+01 -.11200612311E+01
 0.37091677726E+01 0.93052856758E+01 0.14346350402E+02 0.17910791901E+02 0.19651900334E+02
 0.19747220640E+02 0.18715771494E+02 0.17188815136E+02 0.15575706184E+02 0.14025002641E+02
 0.12630647305E+02 0.11446405793E+02 0.10494848374E+02 0.97802946340E+01 0.93009334052E+01
 0.90557489284E+01 0.90452227631E+01 0.92693615553E+01 0.97276173085E+01 0.10420888325E+02
 0.11351176216E+02 0.12515137156E+02 0.13892291563E+02 0.15432084964E+02 0.17044475681E+02
 0.18589712532E+02 0.19691436594E+02 0.19722049826E+02 0.15173237299E+02 0.10925874095E+02
 0.55848349751E+01 0.25858648604E+00 -.37331087202E+01 -.52977477236E+01 -.39862157787E+01
 -.17508518913E+00 0.50859374214E+01 0.10477374341E+02 0.14856541593E+02 0.17557373102E+02
 0.18470394375E+02 0.17941149224E+02 0.16569401498E+02 0.14943315767E+02 0.13324795588E+02
 0.11837210171E+02 0.10555669709E+02 0.95130305493E+01 0.87139532572E+01 0.81503250530E+01
 0.78124102108E+01 0.76939342674E+01 0.77928312106E+01 0.81108512738E+01 0.86538344051E+01
 0.94312924695E+01 0.10451920634E+02 0.11712851655E+02 0.13184307141E+02 0.14795292527E+02
 0.16426954487E+02 0.17842572619E+02 0.18474335207E+02 0.17710373376E+02 0.12431857330E+02
 0.79774677385E+01 0.30196984037E+01 -.12998596867E+01 -.38691916910E+01 -.39862157787E+01
 -.16178913007E+01 0.25867553041E+01 0.75368570429E+01 0.12077123906E+02 0.15336481333E+02
 0.16925315754E+02 0.16948126734E+02 0.15870865660E+02 0.14306943456E+02 0.12672895599E+02
 0.11128865808E+02 0.97731142970E+01 0.86531965773E+01 0.77788371169E+01 0.71400958281E+01
 0.67218270773E+01 0.65115175514E+01 0.65024295098E+01 0.66944315960E+01 0.70937443081E+01
 0.77121304508E+01 0.85645801502E+01 0.96622656459E+01 0.10998182773E+02 0.12528638175E+02
 0.14159871032E+02 0.15740949055E+02 0.16887484725E+02 0.16986772414E+02 0.15549560025E+02
 0.10744832022E+02 0.68039494580E+01 0.29025600190E+01 0.73743057334E-02 -.11200612311E+01
 -.17508518913E+00 0.25867553041E+01 0.64363634475E+01 0.10412939978E+02 0.13625929845E+02
 0.15505293750E+02 0.15919886193E+02 0.15142633952E+02 0.13696260689E+02 0.12082437333E+02
 0.10514390114E+02 0.91086942603E+01 0.79288575870E+01 0.69924547765E+01 0.62900660156E+01
 0.58034535126E+01 0.55158380114E+01 0.54158500254E+01 0.54992523760E+01 0.57696388661E+01
 0.62377718611E+01 0.69199896738E+01 0.78346898810E+01 0.89927823545E+01 0.10379989275E+02
 0.11937444358E+02 0.13553120713E+02 0.15031137916E+02 0.15892133822E+02 0.15601069427E+02
 0.13854894211E+02 0.10667532986E+02 0.77895852413E+01 0.52707590901E+01 0.37768128112E+01
 0.37091677726E+01 0.50859374214E+01 0.75368570429E+01 0.10412939978E+02 0.12981891378E+02
 0.14649922435E+02 0.15132869081E+02 0.14513595809E+02 0.13168740935E+02 0.11578119863E+02
 0.10002180935E+02 0.85640379094E+01 0.73388378759E+01 0.63529078082E+01 0.55989922897E+01
 0.50563712066E+01 0.47046748641E+01 0.45291219684E+01 0.45217096662E+01 0.46819487624E+01
 0.50171395223E+01 0.55417435348E+01 0.62758788650E+01 0.72404339891E+01 0.84444561299E+01
 0.98655967394E+01 0.11433596065E+02 0.13029450103E+02 0.14415188575E+02 0.15118160947E+02
 0.14742993457E+02 0.13175741566E+02 0.12226006846E+02 0.10610305603E+02 0.93829377094E+01
 0.89020386721E+01 0.93052856758E+01 0.10477374341E+02 0.12077123906E+02 0.13625929845E+02
 0.14649922435E+02 0.14837013518E+02 0.14144152500E+02 0.12801636280E+02 0.11200578237E+02
 0.96077454750E+01 0.81411019473E+01 0.68781118167E+01 0.58505455318E+01 0.50538638080E+01
 0.44657945893E+01 0.40622368590E+01 0.38248313912E+01 0.37424703499E+01 0.38112109065E+01
 0.40343115788E+01 0.44222528130E+01 0.49927947117E+01 0.57697000957E+01 0.67759121954E+01
 0.80183784296E+01 0.94692465488E+01 0.11055056540E+02 0.12662199629E+02 0.14044665759E+02
 0.14808703413E+02 0.14703326072E+02 0.13745465194E+02 0.14904592272E+02 0.14386656755E+02
 0.14052910216E+02 0.14037459413E+02 0.14346350402E+02 0.14856541593E+02 0.15336481333E+02
 0.15505293750E+02 0.15132869081E+02 0.14144152500E+02 0.12668996494E+02 0.10996383819E+02
 0.93553845021E+01 0.78476533007E+01 0.65440650267E+01 0.54762872204E+01 0.46405548193E+01
 0.40132107436E+01 0.35667748817E+01 0.32791033892E+01 0.31357431912E+01 0.31295757948E+01
 0.32603907211E+01 0.35347108412E+01 0.39661220775E+01 0.45760034852E+01 0.53917662995E+01
 0.64381619685E+01 0.77213758241E+01 0.92131358252E+01 0.10845781148E+02 0.12521702480E+02
 0.14027887671E+02 0.15068532793E+02 0.15495969706E+02 0.15367914412E+02 0.17887390213E+02
 0.18071651500E+02 0.18129187259E+02 0.18081495952E+02 0.17910791901E+02 0.17557373102E+02
 0.16925315754E+02 0.15919886193E+02 0.14513595809E+02 0.12801636280E+02 0.10996383819E+02
 0.92681996131E+01 0.76963640199E+01 0.63398391228E+01 0.52256984835E+01 0.43487436008E+01
 0.36833931906E+01 0.31987129866E+01 0.28686096169E+01 0.26751648972E+01 0.26081391562E+01
 0.26640445649E+01 0.28458203816E+01 0.31630376731E+01 0.36328402254E+01 0.42806684554E+01
 0.51373728761E+01 0.62295598846E+01 0.75648143986E+01 0.91192631366E+01 0.10836512548E+02
 0.12639646316E+02 0.14369975251E+02 0.15809426091E+02 0.16850946150E+02 0.17513047015E+02
 0.20402781663E+02 0.20844570891E+02 0.20863825796E+02 0.20459444293E+02 0.19651900334E+02
 0.18470394375E+02 0.16948126734E+02 0.15142633952E+02 0.13168740935E+02 0.11200578237E+02
 0.93553845021E+01 0.76963640199E+01 0.62709779932E+01 0.50995586214E+01 0.41739533600E+01
 0.34666230726E+01 0.29436582719E+01 0.25749588826E+01 0.23386785399E+01 0.22212957940E+01
 0.22163085331E+01 0.23234178775E+01 0.25485310115E+01 0.29045300933E+01 0.34125190185E+01
 0.41019231698E+01 0.50065654781E+01 0.61550645901E+01 0.75578957378E+01 0.91975437503E+01
 0.11028621867E+02 0.12988989228E+02 0.14969971101E+02 0.16796230416E+02 0.18346781894E+02
 0.19560354089E+02 0.21982980803E+02 0.22325907184E+02 0.22039278901E+02 0.21152035306E+02
 0.19747220640E+02 0.17941149224E+02 0.15870865660E+02 0.13696260689E+02 0.11578119863E+02
 0.96077454750E+01 0.78476533007E+01 0.63398391228E+01 0.50995586214E+01 0.41156651047E+01
 0.33588398770E+01 0.27931053861E+01 0.23852431527E+01 0.21095890620E+01 0.19488873113E+01
 0.18933518217E+01 0.19396700654E+01 0.20906135319E+01 0.23553474106E+01 0.27503946830E+01
 0.33006599249E+01 0.40388273081E+01 0.50009441255E+01 0.62173451874E+01 0.77011882342E+01
 0.94397822863E+01 0.11393476926E+02 0.13501421190E+02 0.15676973427E+02 0.17763693573E+02
 0.19599339285E+02 0.21045176779E+02 0.22542716789E+02 0.22576039738E+02 0.21884612648E+02
 0.20549117401E+02 0.18715771494E+02 0.16569401498E+02 0.14306943456E+02 0.12082437333E+02
 0.10002180935E+02 0.81411019473E+01 0.65440650267E+01 0.52256984835E+01 0.41739533600E+01
 0.33588398770E+01 0.27432909671E+01 0.22920386454E+01 0.19764341944E+01 0.17757257069E+01
 0.16765774933E+01 0.16723577430E+01 0.17627861494E+01 0.19539184601E+01 0.22584576100E+01
 0.26964476107E+01 0.32958492140E+01 0.40915022905E+01 0.51206183520E+01 0.64141778218E+01
 0.79861693845E+01 0.98246455403E+01 0.11887681917E+02 0.14103178953E+02 0.16367749779E+02
 0.18532568297E+02 0.20401861967E+02 0.21788760936E+02 0.22301319747E+02 0.21953598844E+02
 0.20887234458E+02 0.19235717109E+02 0.17188815136E+02 0.14943315767E+02 0.12672895599E+02
 0.10514390114E+02 0.85640379094E+01 0.68781118167E+01 0.54762872204E+01 0.43487436008E+01
 0.34666230726E+01 0.27931053861E+01 0.22920386454E+01 0.19327618924E+01 0.16916928003E+01
 0.15522153437E+01 0.15042710682E+01 0.15442713665E+01 0.16751847553E+01 0.19065155851E+01
 0.22543061504E+01 0.27414590698E+01 0.33979939355E+01 0.42597791199E+01 0.53639674758E+01
 0.67405103690E+01 0.84012180522E+01 0.10329353459E+02 0.12472283390E+02 0.14737604766E+02
 0.16992032805E+02 0.19064660660E+02 0.20759875072E+02 0.21885487303E+02 0.21623822849E+02
 0.20918988026E+02 0.19564355089E+02 0.17719038679E+02 0.15575706184E+02 0.13324795588E+02
 0.11128865808E+02 0.91086942603E+01 0.73388378759E+01 0.58505455318E+01 0.46405548193E+01
 0.36833931906E+01 0.29436582719E+01 0.23852431527E+01 0.19764341944E+01 0.16916928003E+01
 0.15117414950E+01 0.14233727625E+01 0.14196333944E+01 0.15002025554E+01 0.16714495858E+01
 0.19460659147E+01 0.23427636057E+01 0.28864484498E+01 0.36083311673E+01 0.45444040996E+01
 0.57305317065E+01 0.71934389236E+01 0.89387187892E+01 0.10938626936E+02 0.13122881808E+02
 0.15374936574E+02 0.17535533191E+02 0.19415757399E+02 0.20821778985E+02 0.21589953977E+02
 0.20759515623E+02 0.19743560912E+02 0.18163581948E+02 0.16193383163E+02 0.14025002641E+02
 0.11837210171E+02 0.97731142970E+01 0.79288575870E+01 0.63529078082E+01 0.50538638080E+01
 0.40132107436E+01 0.31987129866E+01 0.25749588826E+01 0.21095890620E+01 0.17757257069E+01
 0.15522153437E+01 0.14233727625E+01 0.13792016236E+01 0.14160380981E+01 0.15369363421E+01
 0.17513626932E+01 0.20745301595E+01 0.25270808375E+01 0.31353153136E+01 0.39311176064E+01
 0.49498656074E+01 0.62245655571E+01 0.77755484699E+01 0.95971367451E+01 0.11644735905E+02
 0.13826577250E+02 0.16003586650E+02 0.17999541595E+02 0.19622359107E+02 0.20695021919E+02
 0.21090360501E+02 0.19800066586E+02 0.18527605410E+02 0.16787780219E+02 0.14761007203E+02
 0.12630647305E+02 0.10555669709E+02 0.86531965773E+01 0.69924547765E+01 0.55989922897E+01
 0.44657945893E+01 0.35667748817E+01 0.28686096169E+01 0.23386785399E+01 0.19488873113E+01
 0.16765774933E+01 0.15042710682E+01 0.14196333944E+01 0.14160380981E+01 0.14931954897E+01
 0.16571835625E+01 0.19198637311E+01 0.22982869189E+01 0.28146213033E+01 0.34963818450E+01
 0.43757846247E+01 0.54864165251E+01 0.68556714519E+01 0.84929505773E+01 0.10376000757E+02
 0.12439583284E+02 0.14570802197E+02 0.16614146912E+02 0.18387590350E+02 0.19708975732E+02
 0.20428637964E+02 0.20460252016E+02 0.18803379091E+02 0.17338528148E+02 0.15508216635E+02
 0.13489088792E+02 0.11446405793E+02 0.95130305493E+01 0.77788371169E+01 0.62900660156E+01
 0.50563712066E+01 0.40622368590E+01 0.32791033892E+01 0.26751648972E+01 0.22212957940E+01
 0.18933518217E+01 0.16723577430E+01 0.15442713665E+01 0.15002025554E+01 0.15369363421E+01
 0.16571835625E+01 0.18693182960E+01 0.21869137778E+01 0.26285476678E+01 0.32179456324E+01
 0.39837736263E+01 0.49576457603E+01 0.61687400616E+01 0.76343588158E+01 0.93477264032E+01
 0.11266216385E+02 0.13303870073E+02 0.15331426348E+02 0.17185948383E+02 0.18690761351E+02
 0.19683950192E+02 0.20049762471E+02 0.19743833935E+02 0.17806957293E+02 0.16222708948E+02
 0.14371953390E+02 0.12416027590E+02 0.10494848374E+02 0.87139532572E+01 0.71400958281E+01
 0.58034535126E+01 0.47046748641E+01 0.38248313912E+01 0.31357431912E+01 0.26081391562E+01
 0.22163085331E+01 0.19396700654E+01 0.17627861494E+01 0.16751847553E+01 0.16714495858E+01
 0.17513626932E+01 0.19198637311E+01 0.21869137778E+01 0.25675121985E+01 0.30818975251E+01
 0.37554387352E+01 0.46171221427E+01 0.56953084824E+01 0.70100968990E+01 0.85631735521E+01
 0.10327533266E+02 0.12239892866E+02 0.14198010438E+02 0.16064592433E+02 0.17679500668E+02
 0.18881256640E+02 0.19535677620E+02 0.19564561827E+02 0.18964333968E+02 0.16838552188E+02
 0.15214642131E+02 0.13409901874E+02 0.11560955420E+02 0.97802946340E+01 0.81503250530E+01
 0.67218270773E+01 0.55158380114E+01 0.45291219684E+01 0.37424703499E+01 0.31295757948E+01
 0.26640445649E+01 0.23234178775E+01 0.20906135319E+01 0.19539184601E+01 0.19065155851E+01
 0.19460659147E+01 0.20745301595E+01 0.22982869189E+01 0.26285476678E+01 0.30818975251E+01
 0.36804090041E+01 0.44503233361E+01 0.54181984697E+01 0.66041300810E+01 0.80130679321E+01
 0.96264667472E+01 0.11396464719E+02 0.13243532312E+02 0.15057631747E+02 0.16703796689E+02
 0.18034731634E+02 0.18912395504E+02 0.19235718096E+02 0.18965311107E+02 0.18134111933E+02
 0.15930193831E+02 0.14347791752E+02 0.12646545396E+02 0.10934618620E+02 0.93009334052E+01
 0.78124102108E+01 0.65115175514E+01 0.54158500254E+01 0.45217096662E+01 0.38112109065E+01
 0.32603907211E+01 0.28458203816E+01 0.25485310115E+01 0.23553474106E+01 0.22584576100E+01
 0.22543061504E+01 0.23427636057E+01 0.25270808375E+01 0.28146213033E+01 0.32179456324E+01
 0.37554387352E+01 0.44503233361E+01 0.53269555012E+01 0.64041868749E+01 0.76871631479E+01
 0.91602028491E+01 0.10783117040E+02 0.12491295627E+02 0.14197781908E+02 0.15795866905E+02
 0.17163348977E+02 0.18171319607E+02 0.18715866622E+02 0.18739799184E+02 0.18240525222E+02
 0.17270535043E+02 0.15131897239E+02 0.13664465583E+02 0.12108096015E+02 0.10547203871E+02
 0.90557489284E+01 0.76939342674E+01 0.65024295098E+01 0.54992523760E+01 0.46819487624E+01
 0.40343115788E+01 0.35347108412E+01 0.31630376731E+01 0.29045300933E+01 0.27503946830E+01
 0.26964476107E+01 0.27414590698E+01 0.28864484498E+01 0.31353153136E+01 0.34963818450E+01
 0.39837736263E+01 0.46171221427E+01 0.54181984697E+01 0.64041868749E+01 0.75791777951E+01
 0.89270697601E+01 0.10409043471E+02 0.11966442683E+02 0.13526455650E+02 0.15005901566E+02
 0.16299931064E+02 0.17303020498E+02 0.17941441240E+02 0.18171897378E+02 0.17979304038E+02
 0.17376265539E+02 0.16403513997E+02 0.14514110617E+02 0.13216577823E+02 0.11822595497E+02
 0.10408853532E+02 0.90452227631E+01 0.77928312106E+01 0.66944315960E+01 0.57696388661E+01
 0.50171395223E+01 0.44222528130E+01 0.39661220775E+01 0.36328402254E+01 0.34125190185E+01
 0.33006599249E+01 0.32958492140E+01 0.33979939355E+01 0.36083311673E+01 0.39311176064E+01
 0.43757846247E+01 0.49576457603E+01 0.56953084824E+01 0.66041300810E+01 0.76871631479E+01
 0.89270697601E+01 0.10283075030E+02 0.11695160463E+02 0.13093703615E+02 0.14403801944E+02
 0.15523683937E+02 0.16379841951E+02 0.16948441920E+02 0.17233981932E+02 0.17246115346E+02
 0.16985472802E+02 0.16442898301E+02 0.15612416400E+02 0.14164494924E+02 0.13051365873E+02
 0.11810092526E+02 0.10524413125E+02 0.92693615553E+01 0.81108512738E+01 0.70937443081E+01
 0.62377718611E+01 0.55417435348E+01 0.49927947117E+01 0.45760034852E+01 0.42806684554E+01
 0.41019231698E+01 0.40388273081E+01 0.40915022905E+01 0.42597791199E+01 0.45444040996E+01
 0.49498656074E+01 0.54864165251E+01 0.61687400616E+01 0.70100968990E+01 0.80130679321E+01
 0.91602028491E+01 0.10409043471E+02 0.11695160463E+02 0.12943514749E+02 0.14072748277E+02
 0.14969620061E+02 0.15576614769E+02 0.15920011852E+02 0.16075700398E+02 0.16119190041E+02
 0.16083229338E+02 0.15940414221E+02 0.15617543767E+02 0.15036436487E+02 0.14148749083E+02
 0.13189488654E+02 0.12071609768E+02 0.10889846517E+02 0.97276173085E+01 0.86538344051E+01
 0.77121304508E+01 0.69199896738E+01 0.62758788650E+01 0.57697000957E+01 0.53917662995E+01
 0.51373728761E+01 0.50065654781E+01 0.50009441255E+01 0.51206183520E+01 0.53639674758E+01
 0.57305317065E+01 0.62245655571E+01 0.68556714519E+01 0.76343588158E+01 0.85631735521E+01
 0.96264667472E+01 0.10783117040E+02 0.11966442683E+02 0.13093703615E+02 0.14072748277E+02
 0.14767125928E+02 0.15103388491E+02 0.15132476475E+02 0.14999463602E+02 0.14873079343E+02
 0.14866667387E+02 0.14985626676E+02 0.15124799125E+02 0.15117173583E+02 0.14812222932E+02
 0.14470181471E+02 0.13613622499E+02 0.12588483240E+02 0.11495186078E+02 0.10420888325E+02
 0.94312924695E+01 0.85645801502E+01 0.78346898810E+01 0.72404339891E+01 0.67759121954E+01
 0.64381619685E+01 0.62295598846E+01 0.61550645901E+01 0.62173451874E+01 0.64141778218E+01
 0.67405103690E+01 0.71934389236E+01 0.77755484699E+01 0.84929505773E+01 0.93477264032E+01
 0.10327533266E+02 0.11396464719E+02 0.12491295627E+02 0.13526455650E+02 0.14403801944E+02
 0.14969620061E+02 0.15103388491E+02 0.14836270227E+02 0.14347676725E+02 0.13894521418E+02
 0.13702001797E+02 0.13864238984E+02 0.14301979518E+02 0.14798218206E+02 0.15094231476E+02
 0.15000084227E+02 0.15067561469E+02 0.14278071423E+02 0.13332808881E+02 0.12330064246E+02
 0.11351176216E+02 0.10451920634E+02 0.96622656459E+01 0.89927823545E+01 0.84444561299E+01
 0.80183784296E+01 0.77213758241E+01 0.75648143986E+01 0.75578957378E+01 0.77011882342E+01
 0.79861693845E+01 0.84012180522E+01 0.89387187892E+01 0.95971367451E+01 0.10376000757E+02
 0.11266216385E+02 0.12239892866E+02 0.13243532312E+02 0.14197781908E+02 0.15005901566E+02
 0.15523683937E+02 0.15576614769E+02 0.15132476475E+02 0.14347676725E+02 0.13523239356E+02
 0.12989270153E+02 0.12964679035E+02 0.13459512778E+02 0.14270547972E+02 0.15072311733E+02
 0.15556008364E+02 0.15549279852E+02 0.15853020430E+02 0.15130447054E+02 0.14277969912E+02
 0.13384058228E+02 0.12515137156E+02 0.11712851655E+02 0.10998182773E+02 0.10379989275E+02
 0.98655967394E+01 0.94692465488E+01 0.92131358252E+01 0.91192631366E+01 0.91975437503E+01
 0.94397822863E+01 0.98246455403E+01 0.10329353459E+02 0.10938626936E+02 0.11644735905E+02
 0.12439583284E+02 0.13303870073E+02 0.14198010438E+02 0.15057631747E+02 0.15795866905E+02
 0.16299931064E+02 0.16379841951E+02 0.15920011852E+02 0.14999463602E+02 0.13894521418E+02
 0.12989270153E+02 0.12620944571E+02 0.12930909742E+02 0.13799752065E+02 0.14902543985E+02
 0.15853092909E+02 0.16360739354E+02 0.16327311956E+02 0.16753938124E+02 0.16127260380E+02
 0.15399619468E+02 0.14639343761E+02 0.13892291563E+02 0.13184307141E+02 0.12528638175E+02
 0.11937444358E+02 0.11433596065E+02 0.11055056540E+02 0.10845781148E+02 0.10836512548E+02
 0.11028621867E+02 0.11393476926E+02 0.11887681917E+02 0.12472283390E+02 0.13122881808E+02
 0.13826577250E+02 0.14570802197E+02 0.15331426348E+02 0.16064592433E+02 0.16703796689E+02
 0.17163348977E+02 0.17303020498E+02 0.16948441920E+02 0.16075700398E+02 0.14873079343E+02
 0.13702001797E+02 0.12964679035E+02 0.12930909742E+02 0.13613112460E+02 0.14760661700E+02
 0.15976567549E+02 0.16889646948E+02 0.17292967381E+02 0.17192074232E+02 0.17718367423E+02
 0.17234606232E+02 0.16667945262E+02 0.16059672038E+02 0.15432084964E+02 0.14795292527E+02
 0.14159871032E+02 0.13553120713E+02 0.13029450103E+02 0.12662199629E+02 0.12521702480E+02
 0.12639646316E+02 0.12988989228E+02 0.13501421190E+02 0.14103178953E+02 0.14737604766E+02
 0.15374936574E+02 0.16003586650E+02 0.16614146912E+02 0.17185948383E+02 0.17679500668E+02
 0.18034731634E+02 0.18171319607E+02 0.17941441240E+02 0.17233981932E+02 0.16119190041E+02
 0.14866667387E+02 0.13864238984E+02 0.13459512778E+02 0.13799752065E+02 0.14760661700E+02
 0.16006911615E+02 0.17147535177E+02 0.17897689099E+02 0.18168333387E+02 0.18057554545E+02
 0.18713282681E+02 0.18418747538E+02 0.18037711085E+02 0.17580602415E+02 0.17044475681E+02
 0.16426954487E+02 0.15740949055E+02 0.15031137916E+02 0.14415188575E+02 0.14044665759E+02
 0.14027887671E+02 0.14369975251E+02 0.14969971101E+02 0.15676973427E+02 0.16367749779E+02
 0.16992032805E+02 0.17535533191E+02 0.17999541595E+02 0.18387590350E+02 0.18690761351E+02
 0.18881256640E+02 0.18912395504E+02 0.18715866622E+02 0.18171897378E+02 0.17246115346E+02
 0.16083229338E+02 0.14985626676E+02 0.14301979518E+02 0.14270547972E+02 0.14902543985E+02
 0.15976567549E+02 0.17147535177E+02 0.18103352653E+02 0.18682851666E+02 0.18905672853E+02
 0.18891661906E+02 0.19711350681E+02 0.19634860295E+02 0.19439969303E+02 0.19103129780E+02
 0.18589712532E+02 0.17842572619E+02 0.16887484725E+02 0.15892133822E+02 0.15118160947E+02
 0.14808703413E+02 0.15068532793E+02 0.15809426091E+02 0.16796230416E+02 0.17763693573E+02
 0.18532568297E+02 0.19064660660E+02 0.19415757399E+02 0.19622359107E+02 0.19708975732E+02
 0.19683950192E+02 0.19535677620E+02 0.19235718096E+02 0.18739799184E+02 0.17979304038E+02
 0.16985472802E+02 0.15940414221E+02 0.15124799125E+02 0.14798218206E+02 0.15072311733E+02
 0.15853092909E+02 0.16889646948E+02 0.17897689099E+02 0.18682851666E+02 0.19200275544E+02
 0.19515579078E+02 0.19676070009E+02 0.20676371678E+02 0.20817549806E+02 0.20775276859E+02
 0.20450832896E+02 0.19691436594E+02 0.18474335207E+02 0.16986772414E+02 0.15601069427E+02
 0.14742993457E+02 0.14703326072E+02 0.15495969706E+02 0.16850946150E+02 0.18346781894E+02
 0.19599339285E+02 0.20401861967E+02 0.20759875072E+02 0.20821778985E+02 0.20695021919E+02
 0.20428637964E+02 0.20049762471E+02 0.19564561827E+02 0.18965311107E+02 0.18240525222E+02
 0.17376265539E+02 0.16442898301E+02 0.15617543767E+02 0.15117173583E+02 0.15094231476E+02
 0.15556008364E+02 0.16360739354E+02 0.17292967381E+02 0.18168333387E+02 0.18905672853E+02
 0.19515579078E+02 0.20010452551E+02 0.20398882770E+02 0.21552398528E+02 0.21871121949E+02
 0.21821055185E+02 0.21142830392E+02 0.19722049826E+02 0.17710373376E+02 0.15549560025E+02
 0.13854894211E+02 0.13175741566E+02 0.13745465194E+02 0.15367914412E+02 0.17513047015E+02
 0.19560354089E+02 0.21045176779E+02 0.21788760936E+02 0.21885487303E+02 0.21589953977E+02
 0.21090360501E+02 0.20460252016E+02 0.19743833935E+02 0.18964333968E+02 0.18134111933E+02
 0.17270535043E+02 0.16403513997E+02 0.15612416400E+02 0.15036436487E+02 0.14812222932E+02
 0.15000084227E+02 0.15549279852E+02 0.16327311956E+02 0.17192074232E+02 0.18057554545E+02
 0.18891661906E+02 0.19676070009E+02 0.20398882770E+02 0.21038399010E+02 0.21544713729E+02
 0.21521005323E+02 0.20420098270E+02 0.18145211425E+02 0.14991920302E+02 0.11660153712E+02
 0.90752267402E+01 0.80452400700E+01 0.89100730073E+01 0.11383422126E+02 0.14686518584E+02
 0.17889440342E+02 0.20261885843E+02 0.21469686795E+02 0.21578388616E+02 0.20925812037E+02
 0.19928171124E+02 0.18803033322E+02 0.17644787313E+02 0.16518423424E+02 0.15467221817E+02
 0.14521857181E+02 0.13711603997E+02 0.13074283946E+02 0.12657108702E+02 0.12503316335E+02
 0.12631865284E+02 0.13026884780E+02 0.13646514911E+02 0.14443043086E+02 0.15377537181E+02
 0.16420335973E+02 0.17541510569E+02 0.18699348778E+02 0.19830961753E+02 0.20845107121E+02
 0.21521005323E+02 0.20652957843E+02 0.18334698771E+02 0.14720497592E+02 0.10460565411E+02
 0.65989049900E+01 0.42464158157E+01 0.41392018239E+01 0.63115018936E+01 0.10080177960E+02
 0.14350261744E+02 0.18056058761E+02 0.20504511247E+02 0.21497811125E+02 0.21258902396E+02
 0.20254457782E+02 0.18964031799E+02 0.17602092351E+02 0.16268671906E+02 0.15032620851E+02
 0.13938208030E+02 0.13013569610E+02 0.12280838707E+02 0.11764333054E+02 0.11490551474E+02
 0.11478557227E+02 0.11729328266E+02 0.12225121386E+02 0.12939543476E+02 0.13847831804E+02
 0.14927933974E+02 0.16152790946E+02 0.17479995688E+02 0.18843056163E+02 0.20144890175E+02
 0.21192073048E+02 0.20420098270E+02 0.18334698771E+02 0.14613377567E+02 0.97593183453E+01
 0.47960224652E+01 0.10148654085E+01 -.47934012913E+00 0.77434762237E+00 0.43882336895E+01
 0.92987426337E+01 0.14210898619E+02 0.18063129657E+02 0.20301811035E+02 0.20911641033E+02
 0.20275404473E+02 0.18965273489E+02 0.17465553545E+02 0.15959448829E+02 0.14547681153E+02
 0.13295842081E+02 0.12240846593E+02 0.11400686700E+02 0.10785410557E+02 0.10404841230E+02
 0.10268930815E+02 0.10382449820E+02 0.10741420286E+02 0.11336067679E+02 0.12156377457E+02
 0.13192568399E+02 0.14427891422E+02 0.15827574436E+02 0.17328804739E+02 0.18834121057E+02
 0.20176227706E+02 0.20897649781E+02 0.18145211425E+02 0.14720497592E+02 0.97593183453E+01
 0.41380070482E+01 -.83916788167E+00 -.38324287260E+01 -.39691074411E+01 -.12081079279E+01
 0.36421648981E+01 0.92632641754E+01 0.14328164826E+02 0.17911851181E+02 0.19666162901E+02
 0.19768751723E+02 0.18739677525E+02 0.17211865616E+02 0.15597095955E+02 0.14044493951E+02
 0.12648207360E+02 0.11462183439E+02 0.10509125944E+02 0.97934284119E+01 0.93133036104E+01
 0.90677328236E+01 0.90571901908E+01 0.92816822205E+01 0.97406677868E+01 0.10435048246E+02
 0.11366804596E+02 0.12532526136E+02 0.13911606804E+02 0.15453312533E+02 0.17067393905E+02
 0.18613638933E+02 0.19713353054E+02 0.19737191323E+02 0.14991920302E+02 0.10460565411E+02
 0.47960224652E+01 -.83916788167E+00 -.50582796312E+01 -.67114121282E+01 -.53254948192E+01
 -.12974179062E+01 0.42678522403E+01 0.99838705209E+01 0.14652198048E+02 0.17574023599E+02
 0.18629863954E+02 0.18171618722E+02 0.16815095018E+02 0.15175810501E+02 0.13538200620E+02
 0.12029229539E+02 0.10726877424E+02 0.96661081763E+01 0.88527700891E+01 0.82791252792E+01
 0.79353120429E+01 0.78147953868E+01 0.79153868161E+01 0.82389501285E+01 0.87915807087E+01
 0.95829277834E+01 0.10621362077E+02 0.11902926585E+02 0.13395841739E+02 0.15026291354E+02
 0.16672021274E+02 0.18076410029E+02 0.18642900520E+02 0.17743054396E+02 0.11660153712E+02
 0.65989049900E+01 0.10148654085E+01 -.38324287260E+01 -.67114121282E+01 -.68422310264E+01
 -.41882522847E+01 0.52930409649E+00 0.61018772710E+01 0.11254532369E+02 0.15028086761E+02
 0.16988366830E+02 0.17233655417E+02 0.16250385180E+02 0.14690825905E+02 0.13032698168E+02
 0.11454916370E+02 0.10062956306E+02 0.89096699271E+01 0.80079276444E+01 0.73490596689E+01
 0.69178819733E+01 0.67012441253E+01 0.66918733311E+01 0.68896366839E+01 0.73012642736E+01
 0.79391273300E+01 0.88183161107E+01 0.99489160882E+01 0.11320994272E+02 0.12885721982E+02
 0.14542240958E+02 0.16123835808E+02 0.17186378488E+02 0.17075908400E+02 0.15280727170E+02
 0.90752267402E+01 0.42464158157E+01 -.47934012913E+00 -.39691074411E+01 -.53254948192E+01
 -.41882522847E+01 -.85970018989E+00 0.38004851746E+01 0.86656331734E+01 0.12696284866E+02
 0.15223608509E+02 0.16075493045E+02 0.15532294596E+02 0.14157262082E+02 0.12533136359E+02
 0.10930997005E+02 0.94808218551E+01 0.82562426658E+01 0.72810502412E+01 0.65486895495E+01
 0.60415352789E+01 0.57421581991E+01 0.56381911542E+01 0.57249107727E+01 0.60063288224E+01
 0.64941765751E+01 0.72055029601E+01 0.81582684848E+01 0.93607830538E+01 0.10792861995E+02
 0.12385832672E+02 0.14014650072E+02 0.15433181351E+02 0.16076892359E+02 0.15367657716E+02
 0.12991281922E+02 0.80452400700E+01 0.41392018239E+01 0.77434762237E+00 -.12081079279E+01
 -.12974179062E+01 0.52930409649E+00 0.38004851746E+01 0.76956897502E+01 0.11296095399E+02
 0.13855713258E+02 0.14999901378E+02 0.14786441909E+02 0.13620311188E+02 0.12058839548E+02
 0.10463550101E+02 0.89828090122E+01 0.77077504521E+01 0.66752822262E+01 0.58834610974E+01
 0.53132655740E+01 0.49440906714E+01 0.47601071735E+01 0.47523652310E+01 0.49202885661E+01
 0.52720556595E+01 0.58232758289E+01 0.65944505723E+01 0.76049434321E+01 0.88588420050E+01
 0.10323773045E+02 0.11913978924E+02 0.13487924746E+02 0.14712650524E+02 0.15032119387E+02
 0.14018716581E+02 0.11577972228E+02 0.89100730073E+01 0.63115018936E+01 0.43882336895E+01
 0.36421648981E+01 0.42678522403E+01 0.61018772710E+01 0.86656331734E+01 0.11296095399E+02
 0.13339192370E+02 0.14348431354E+02 0.14213381810E+02 0.13164279244E+02 0.11652380419E+02
 0.10068007971E+02 0.85714853737E+01 0.72613934946E+01 0.61847584691E+01 0.53455501279E+01
 0.47248369629E+01 0.42989716481E+01 0.40487872269E+01 0.39621060184E+01 0.40344542120E+01
 0.42695171357E+01 0.46788512008E+01 0.52811160497E+01 0.60997657729E+01 0.71547088665E+01
 0.84449432169E+01 0.99280070636E+01 0.11509730879E+02 0.13039648988E+02 0.14150574398E+02
 0.14381722658E+02 0.13476572105E+02 0.11512810355E+02 0.11383422126E+02 0.10080177960E+02
 0.92987426337E+01 0.92632641754E+01 0.99838705209E+01 0.11254532369E+02 0.12696284866E+02
 0.13855713258E+02 0.14348431354E+02 0.13997320642E+02 0.12897921365E+02 0.11372860909E+02
 0.97737725858E+01 0.82566095373E+01 0.69160005952E+01 0.58025098923E+01 0.49239440072E+01
 0.42618501746E+01 0.37901495578E+01 0.34863851300E+01 0.33351888618E+01 0.33286798641E+01
 0.34666226159E+01 0.37562653704E+01 0.42121054714E+01 0.48559030909E+01 0.57138992297E+01
 0.68061186280E+01 0.81278323601E+01 0.96324533014E+01 0.11228776485E+02 0.12772116072E+02
 0.13925447090E+02 0.14351670703E+02 0.13931269339E+02 0.12818210751E+02 0.14686518584E+02
 0.14350261744E+02 0.14210898619E+02 0.14328164826E+02 0.14652198048E+02 0.15028086761E+02
 0.15223608509E+02 0.14999901378E+02 0.14213381810E+02 0.12897921365E+02 0.11272605173E+02
 0.96150608360E+01 0.80559767372E+01 0.66769844690E+01 0.55253907575E+01 0.46096554210E+01
 0.39109980341E+01 0.34007260884E+01 0.30529366535E+01 0.28492123762E+01 0.27786773577E+01
 0.28375169312E+01 0.30289311014E+01 0.33631353347E+01 0.38578198821E+01 0.45383116419E+01
 0.54334787802E+01 0.65636996344E+01 0.79236041158E+01 0.94694908642E+01 0.11122108216E+02
 0.12760138397E+02 0.14114629418E+02 0.14952781701E+02 0.15223188325E+02 0.15056234445E+02
 0.17889440342E+02 0.18056058761E+02 0.18063129657E+02 0.17911851181E+02 0.17574023599E+02
 0.16988366830E+02 0.16075493045E+02 0.14786441909E+02 0.13164279244E+02 0.11372860909E+02
 0.96150608360E+01 0.79867165058E+01 0.65539252321E+01 0.53560766111E+01 0.43991117919E+01
 0.36631644413E+01 0.31171603420E+01 0.27314794994E+01 0.24840732729E+01 0.23611287157E+01
 0.23559166587E+01 0.24681093683E+01 0.27038194741E+01 0.30762502507E+01 0.36067467956E+01
 0.43243416525E+01 0.52603084942E+01 0.64361461766E+01 0.78488529816E+01 0.94621335177E+01
 0.11211566667E+02 0.13007103848E+02 0.14652876947E+02 0.15975180675E+02 0.16920567760E+02
 0.17532265472E+02 0.20261885843E+02 0.20504511247E+02 0.20301811035E+02 0.19666162901E+02
 0.18629863954E+02 0.17233655417E+02 0.15532294596E+02 0.13620311188E+02 0.11652380419E+02
 0.97737725858E+01 0.80559767372E+01 0.65539252321E+01 0.52989704511E+01 0.42931293810E+01
 0.35147997049E+01 0.29310544242E+01 0.25092517943E+01 0.22236160897E+01 0.20568259254E+01
 0.19991301680E+01 0.20472511635E+01 0.22039390142E+01 0.24783074151E+01 0.28869250750E+01
 0.34548361014E+01 0.42142649654E+01 0.51984818705E+01 0.64305951765E+01 0.79111587881E+01
 0.96115542371E+01 0.11478510765E+02 0.13443094777E+02 0.15367388269E+02 0.17092241106E+02
 0.18518316947E+02 0.19588663060E+02 0.21469686795E+02 0.21497811125E+02 0.20911641033E+02
 0.19768751723E+02 0.18171618722E+02 0.16250385180E+02 0.14157262082E+02 0.12058839548E+02
 0.10068007971E+02 0.82566095373E+01 0.66769844690E+01 0.53560766111E+01 0.42931293810E+01
 0.34653320960E+01 0.28386795334E+01 0.23785139556E+01 0.20560400919E+01 0.18504854515E+01
 0.17487352331E+01 0.17443924337E+01 0.18372041586E+01 0.20330086644E+01 0.23442460663E+01
 0.27909422927E+01 0.34012421613E+01 0.42095214738E+01 0.52502007740E+01 0.65474591662E+01
 0.81043158985E+01 0.98964489283E+01 0.11873765690E+02 0.13966175298E+02 0.16066757847E+02
 0.18010115354E+02 0.19641924533E+02 0.20830233492E+02 0.21578388616E+02 0.21258902396E+02
 0.20275404473E+02 0.18739677525E+02 0.16815095018E+02 0.14690825905E+02 0.12533136359E+02
 0.10463550101E+02 0.85714853737E+01 0.69160005952E+01 0.55253907575E+01 0.43991117919E+01
 0.35147997049E+01 0.28386795334E+01 0.23353431210E+01 0.19740326701E+01 0.17311272652E+01
 0.15902650178E+01 0.15417596382E+01 0.15822191282E+01 0.17144650827E+01 0.19476168560E+01
 0.22974177634E+01 0.27868103379E+01 0.34459805914E+01 0.43101618569E+01 0.54136188339E+01
 0.67800477727E+01 0.84122055279E+01 0.10284658676E+02 0.12341377810E+02 0.14495790395E+02
 0.16629295634E+02 0.18579748736E+02 0.20157543918E+02 0.21196200428E+02 0.20925812037E+02
 0.20254457782E+02 0.18965273489E+02 0.17211865616E+02 0.15175810501E+02 0.13032698168E+02
 0.10930997005E+02 0.89828090122E+01 0.72613934946E+01 0.58025098923E+01 0.46096554210E+01
 0.36631644413E+01 0.29310544242E+01 0.23785139556E+01 0.19740326701E+01 0.16920938712E+01
 0.15136568680E+01 0.14259080912E+01 0.14221945006E+01 0.15022061254E+01 0.16720299739E+01
 0.19439692552E+01 0.23364897582E+01 0.28744672545E+01 0.35889454640E+01 0.45147472415E+01
 0.56845254238E+01 0.71193826884E+01 0.88181356428E+01 0.10748180161E+02 0.12839906967E+02
 0.14984813780E+02 0.17037424151E+02 0.18823825363E+02 0.20161762257E+02 0.20893503708E+02
 0.19928171124E+02 0.18964031799E+02 0.17465553545E+02 0.15597095955E+02 0.13538200620E+02
 0.11454916370E+02 0.94808218551E+01 0.77077504521E+01 0.61847584691E+01 0.49239440072E+01
 0.39109980341E+01 0.31171603420E+01 0.25092517943E+01 0.20560400919E+01 0.17311272652E+01
 0.15136568680E+01 0.13882760310E+01 0.13452904992E+01 0.13811519739E+01 0.14987966562E+01
 0.17074201333E+01 0.20219145767E+01 0.24625843947E+01 0.30552613382E+01 0.38308732341E+01
 0.48227985543E+01 0.60606304820E+01 0.75603065420E+01 0.93123614125E+01 0.11271350968E+02
 0.13349526889E+02 0.15416984345E+02 0.17309971038E+02 0.18848996989E+02 0.19866889417E+02
 0.20242271358E+02 0.18803033322E+02 0.17602092351E+02 0.15959448829E+02 0.14044493951E+02
 0.12029229539E+02 0.10062956306E+02 0.82562426658E+01 0.66752822262E+01 0.53455501279E+01
 0.42618501746E+01 0.34007260884E+01 0.27314794994E+01 0.22236160897E+01 0.18504854515E+01
 0.15902650178E+01 0.14259080912E+01 0.13452904992E+01 0.13418721957E+01 0.14153627732E+01
 0.15717613399E+01 0.18227345833E+01 0.21849146978E+01 0.26796669675E+01 0.33331539406E+01
 0.41755843408E+01 0.52379600302E+01 0.65449451847E+01 0.81039404477E+01 0.98925768761E+01
 0.11848430418E+02 0.13864851048E+02 0.15795673183E+02 0.17470092554E+02 0.18717146307E+02
 0.19396199358E+02 0.19426015253E+02 0.17644787313E+02 0.16268671906E+02 0.14547681153E+02
 0.12648207360E+02 0.10726877424E+02 0.89096699271E+01 0.72810502412E+01 0.58834610974E+01
 0.47248369629E+01 0.37901495578E+01 0.30529366535E+01 0.24840732729E+01 0.20568259254E+01
 0.17487352331E+01 0.15417596382E+01 0.14221945006E+01 0.13811519739E+01 0.14153627732E+01
 0.15275731373E+01 0.17261884071E+01 0.20245208923E+01 0.24402696830E+01 0.29954674564E+01
 0.37163583548E+01 0.46318967178E+01 0.57692168757E+01 0.71450903642E+01 0.87542304570E+01
 0.10557479391E+02 0.12474046009E+02 0.14381460645E+02 0.16125356445E+02 0.17539194120E+02
 0.18471448755E+02 0.18814551431E+02 0.18527500826E+02 0.16518423424E+02 0.15032620851E+02
 0.13295842081E+02 0.11462183439E+02 0.96661081763E+01 0.80079276444E+01 0.65486895495E+01
 0.53132655740E+01 0.42989716481E+01 0.34863851300E+01 0.28492123762E+01 0.23611287157E+01
 0.19991301680E+01 0.17443924337E+01 0.15822191282E+01 0.15022061254E+01 0.14987966562E+01
 0.15717613399E+01 0.17261884071E+01 0.19720347939E+01 0.23236392266E+01 0.27995301783E+01
 0.34223735948E+01 0.42181813517E+01 0.52133471921E+01 0.64282907515E+01 0.78677890672E+01
 0.95099534907E+01 0.11297176148E+02 0.13132515869E+02 0.14884122943E+02 0.16398901641E+02
 0.17524614908E+02 0.18136783350E+02 0.18163770400E+02 0.17602352416E+02 0.15467221817E+02
 0.13938208030E+02 0.12240846593E+02 0.10509125944E+02 0.88527700891E+01 0.73490596689E+01
 0.60415352789E+01 0.49440906714E+01 0.40487872269E+01 0.33351888618E+01 0.27786773577E+01
 0.23559166587E+01 0.20472511635E+01 0.18372041586E+01 0.17144650827E+01 0.16720299739E+01
 0.17074201333E+01 0.18227345833E+01 0.20245208923E+01 0.23236392266E+01 0.27352539634E+01
 0.32788223953E+01 0.39774810843E+01 0.48557520302E+01 0.59345206421E+01 0.72231801585E+01
 0.87103367154E+01 0.10355545649E+02 0.12084600490E+02 0.13790319069E+02 0.15340259137E+02
 0.16592155571E+02 0.17416088962E+02 0.17719197562E+02 0.17465792347E+02 0.16685658763E+02
 0.14521857181E+02 0.13013569610E+02 0.11400686700E+02 0.97934284119E+01 0.82791252792E+01
 0.69178819733E+01 0.57421581991E+01 0.47601071735E+01 0.39621060184E+01 0.33286798641E+01
 0.28375169312E+01 0.24681093683E+01 0.22039390142E+01 0.20330086644E+01 0.19476168560E+01
 0.19439692552E+01 0.20219145767E+01 0.21849146978E+01 0.24402696830E+01 0.27995301783E+01
 0.32788223953E+01 0.38984451046E+01 0.46807915362E+01 0.56458279311E+01 0.68042575782E+01
 0.81497391706E+01 0.96522509676E+01 0.11254337408E+02 0.12871015792E+02 0.14393720656E+02
 0.15699237440E+02 0.16664828800E+02 0.17188820360E+02 0.17211898453E+02 0.16731329881E+02
 0.15801719668E+02 0.13711603997E+02 0.12280838707E+02 0.10785410557E+02 0.93133036104E+01
 0.79353120429E+01 0.67012441253E+01 0.56381911542E+01 0.47523652310E+01 0.40344542120E+01
 0.34666226159E+01 0.30289311014E+01 0.27038194741E+01 0.24783074151E+01 0.23442460663E+01
 0.22974177634E+01 0.23364897582E+01 0.24625843947E+01 0.26796669675E+01 0.29954674564E+01
 0.34223735948E+01 0.39774810843E+01 0.46807915362E+01 0.55508383198E+01 0.65980767968E+01
 0.78177423217E+01 0.91845308806E+01 0.10650688049E+02 0.12147368062E+02 0.13588008198E+02
 0.14873253936E+02 0.15898989035E+02 0.16569502050E+02 0.16815229146E+02 0.16609740787E+02
 0.15975112947E+02 0.14977662829E+02 0.13074283946E+02 0.11764333054E+02 0.10404841230E+02
 0.90677328236E+01 0.78147953868E+01 0.66918733311E+01 0.57249107727E+01 0.49202885661E+01
 0.42695171357E+01 0.37562653704E+01 0.33631353347E+01 0.30762502507E+01 0.28869250750E+01
 0.27909422927E+01 0.27868103379E+01 0.28744672545E+01 0.30552613382E+01 0.33331539406E+01
 0.37163583548E+01 0.42181813517E+01 0.48557520302E+01 0.56458279311E+01 0.65980767968E+01
 0.77077609723E+01 0.89506725653E+01 0.10282525693E+02 0.11642750174E+02 0.12960219070E+02
 0.14158115145E+02 0.15155263663E+02 0.15871072477E+02 0.16250626736E+02 0.16267165308E+02
 0.15919581293E+02 0.15232286103E+02 0.14257500797E+02 0.12657108702E+02 0.11490551474E+02
 0.10268930815E+02 0.90571901908E+01 0.79153868161E+01 0.68896366839E+01 0.60063288224E+01
 0.52720556595E+01 0.46788512008E+01 0.42121054714E+01 0.38578198821E+01 0.36067467956E+01
 0.34548361014E+01 0.34012421613E+01 0.34459805914E+01 0.35889454640E+01 0.38308732341E+01
 0.41755843408E+01 0.46318967178E+01 0.52133471921E+01 0.59345206421E+01 0.68042575782E+01
 0.78177423217E+01 0.89506725653E+01 0.10158535875E+02 0.11381975354E+02 0.12555993484E+02
 0.13617900395E+02 0.14498572776E+02 0.15142968557E+02 0.15532768551E+02 0.15669189883E+02
 0.15555316588E+02 0.15188588552E+02 0.14566930093E+02 0.13705888064E+02 0.12503316335E+02
 0.11478557227E+02 0.10382449820E+02 0.92816822205E+01 0.82389501285E+01 0.73012642736E+01
 0.64941765751E+01 0.58232758289E+01 0.52811160497E+01 0.48559030909E+01 0.45383116419E+01
 0.43243416525E+01 0.42142649654E+01 0.42095214738E+01 0.43101618569E+01 0.45147472415E+01
 0.48227985543E+01 0.52379600302E+01 0.57692168757E+01 0.64282907515E+01 0.72231801585E+01
 0.81497391706E+01 0.91845308806E+01 0.10282525693E+02 0.11381975354E+02 0.12415778377E+02
 0.13322819117E+02 0.14034021057E+02 0.14513869034E+02 0.14786759241E+02 0.14905187090E+02
 0.14909927508E+02 0.14803014425E+02 0.14546367897E+02 0.14086840074E+02 0.13395862572E+02
 0.12631865284E+02 0.11729328266E+02 0.10741420286E+02 0.97406677868E+01 0.87915807087E+01
 0.79391273300E+01 0.72055029601E+01 0.65944505723E+01 0.60997657729E+01 0.57138992297E+01
 0.54334787802E+01 0.52603084942E+01 0.51984818705E+01 0.52502007740E+01 0.54136188339E+01
 0.56845254238E+01 0.60606304820E+01 0.65449451847E+01 0.71450903642E+01 0.78677890672E+01
 0.87103367154E+01 0.96522509676E+01 0.10650688049E+02 0.11642750174E+02 0.12555993484E+02
 0.13322819117E+02 0.13864854489E+02 0.14144052853E+02 0.14213164866E+02 0.14181566868E+02
 0.14154658453E+02 0.14177893924E+02 0.14212921764E+02 0.14157682629E+02 0.13900562670E+02
 0.13381889115E+02 0.13026884780E+02 0.12225121386E+02 0.11336067679E+02 0.10435048246E+02
 0.95829277834E+01 0.88183161107E+01 0.81582684848E+01 0.76049434321E+01 0.71547088665E+01
 0.68061186280E+01 0.65636996344E+01 0.64361461766E+01 0.64305951765E+01 0.65474591662E+01
 0.67800477727E+01 0.71193826884E+01 0.75603065420E+01 0.81039404477E+01 0.87542304570E+01
 0.95099534907E+01 0.10355545649E+02 0.11254337408E+02 0.12147368062E+02 0.12960219070E+02
 0.13617900395E+02 0.14034021057E+02 0.14144052853E+02 0.13996960054E+02 0.13739117659E+02
 0.13545757145E+02 0.13536561836E+02 0.13717056981E+02 0.13975953268E+02 0.14139766998E+02
 0.14056472532E+02 0.13666768190E+02 0.13646514911E+02 0.12939543476E+02 0.12156377457E+02
 0.11366804596E+02 0.10621362077E+02 0.99489160882E+01 0.93607830538E+01 0.88588420050E+01
 0.84449432169E+01 0.81278323601E+01 0.79236041158E+01 0.78488529816E+01 0.79111587881E+01
 0.81043158985E+01 0.84122055279E+01 0.88181356428E+01 0.93123614125E+01 0.98925768761E+01
 0.10557479391E+02 0.11297176148E+02 0.12084600490E+02 0.12871015792E+02 0.13588008198E+02
 0.14158115145E+02 0.14498572776E+02 0.14513869034E+02 0.14213164866E+02 0.13739117659E+02
 0.13312250759E+02 0.13132361338E+02 0.13284030629E+02 0.13695737632E+02 0.14174717661E+02
 0.14498335452E+02 0.14513986777E+02 0.14199724411E+02 0.14443043086E+02 0.13847831804E+02
 0.13192568399E+02 0.12532526136E+02 0.11902926585E+02 0.11320994272E+02 0.10792861995E+02
 0.10323773045E+02 0.99280070636E+01 0.96324533014E+01 0.94694908642E+01 0.94621335177E+01
 0.96115542371E+01 0.98964489283E+01 0.10284658676E+02 0.10748180161E+02 0.11271350968E+02
 0.11848430418E+02 0.12474046009E+02 0.13132515869E+02 0.13790319069E+02 0.14393720656E+02
 0.14873253936E+02 0.15155263663E+02 0.15142968557E+02 0.14786759241E+02 0.14181566868E+02
 0.13545757145E+02 0.13132361338E+02 0.13113264549E+02 0.13496360748E+02 0.14121879454E+02
 0.14739722501E+02 0.15124369739E+02 0.15167698248E+02 0.14907795703E+02 0.15377537181E+02
 0.14927933974E+02 0.14427891422E+02 0.13911606804E+02 0.13395841739E+02 0.12885721982E+02
 0.12385832672E+02 0.11913978924E+02 0.11509730879E+02 0.11228776485E+02 0.11122108216E+02
 0.11211566667E+02 0.11478510765E+02 0.11873765690E+02 0.12341377810E+02 0.12839906967E+02
 0.13349526889E+02 0.13864851048E+02 0.14381460645E+02 0.14884122943E+02 0.15340259137E+02
 0.15699237440E+02 0.15898989035E+02 0.15871072477E+02 0.15532768551E+02 0.14905187090E+02
 0.14154658453E+02 0.13536561836E+02 0.13284030629E+02 0.13496360748E+02 0.14089712689E+02
 0.14839048775E+02 0.15486302746E+02 0.15853871022E+02 0.15907035390E+02 0.15724736211E+02
 0.16420335973E+02 0.16152790946E+02 0.15827574436E+02 0.15453312533E+02 0.15026291354E+02
 0.14542240958E+02 0.14014650072E+02 0.13487924746E+02 0.13039648988E+02 0.12772116072E+02
 0.12760138397E+02 0.13007103848E+02 0.13443094777E+02 0.13966175298E+02 0.14495790395E+02
 0.14984813780E+02 0.15416984345E+02 0.15795673183E+02 0.16125356445E+02 0.16398901641E+02
 0.16592155571E+02 0.16664828800E+02 0.16569502050E+02 0.16250626736E+02 0.15669189883E+02
 0.14909927508E+02 0.14177893924E+02 0.13717056981E+02 0.13695737632E+02 0.14121879454E+02
 0.14839048775E+02 0.15605512053E+02 0.16208618095E+02 0.16551091744E+02 0.16663929822E+02
 0.16604521365E+02 0.17541510569E+02 0.17479995688E+02 0.17328804739E+02 0.17067393905E+02
 0.16672021274E+02 0.16123835808E+02 0.15433181351E+02 0.14712650524E+02 0.14150574398E+02
 0.13925447090E+02 0.14114629418E+02 0.14652876947E+02 0.15367388269E+02 0.16066757847E+02
 0.16629295634E+02 0.17037424151E+02 0.17309971038E+02 0.17470092554E+02 0.17539194120E+02
 0.17524614908E+02 0.17416088962E+02 0.17188820360E+02 0.16815229146E+02 0.16267165308E+02
 0.15555316588E+02 0.14803014425E+02 0.14212921764E+02 0.13975953268E+02 0.14174717661E+02
 0.14739722501E+02 0.15486302746E+02 0.16208618095E+02 0.16773583026E+02 0.17161686238E+02
 0.17401146036E+02 0.17519173144E+02 0.18699348778E+02 0.18843056163E+02 0.18834121057E+02
 0.18613638933E+02 0.18076410029E+02 0.17186378488E+02 0.16076892359E+02 0.15032119387E+02
 0.14381722658E+02 0.14351670703E+02 0.14952781701E+02 0.15975180675E+02 0.17092241106E+02
 0.18010115354E+02 0.18579748736E+02 0.18823825363E+02 0.18848996989E+02 0.18717146307E+02
 0.18471448755E+02 0.18136783350E+02 0.17719197562E+02 0.17211898453E+02 0.16609740787E+02
 0.15919581293E+02 0.15188588552E+02 0.14546367897E+02 0.14157682629E+02 0.14139766998E+02
 0.14498335452E+02 0.15124369739E+02 0.15853871022E+02 0.16551091744E+02 0.17161686238E+02
 0.17677519485E+02 0.18102752827E+02 0.18444860275E+02 0.19830961753E+02 0.20144890175E+02
 0.20176227706E+02 0.19713353054E+02 0.18642900520E+02 0.17075908400E+02 0.15367657716E+02
 0.14018716581E+02 0.13476572105E+02 0.13931269339E+02 0.15223188325E+02 0.16920567760E+02
 0.18518316947E+02 0.19641924533E+02 0.20157543918E+02 0.20161762257E+02 0.19866889417E+02
 0.19396199358E+02 0.18814551431E+02 0.18163770400E+02 0.17465792347E+02 0.16731329881E+02
 0.15975112947E+02 0.15232286103E+02 0.14566930093E+02 0.14086840074E+02 0.13900562670E+02
 0.14056472532E+02 0.14513986777E+02 0.15167698248E+02 0.15907035390E+02 0.16663929822E+02
 0.17401146036E+02 0.18102752827E+02 0.18758492825E+02 0.19347870299E+02 0.20845107121E+02
 0.21192073048E+02 0.20897649781E+02 0.19737191323E+02 0.17743054396E+02 0.15280727170E+02
 0.12991281922E+02 0.11577972228E+02 0.11512810355E+02 0.12818210751E+02 0.15056234445E+02
 0.17532265472E+02 0.19588663060E+02 0.20830233492E+02 0.21196200428E+02 0.20893503708E+02
 0.20242271358E+02 0.19426015253E+02 0.18527500826E+02 0.17602352416E+02 0.16685658763E+02
 0.15801719668E+02 0.14977662829E+02 0.14257500797E+02 0.13705888064E+02 0.13395862572E+02
 0.13381889115E+02 0.13666768190E+02 0.14199724411E+02 0.14907795703E+02 0.15724736211E+02
 0.16604521365E+02 0.17519173144E+02 0.18444860275E+02 0.19347870299E+02 0.20174581561E+02
 0.20437636772E+02 0.19887338425E+02 0.18082815900E+02 0.15144428779E+02 0.11624700057E+02
 0.84126373304E+01 0.64505818870E+01 0.63609538245E+01 0.81728665558E+01 0.11308946738E+02
 0.14840407058E+02 0.17859675620E+02 0.19777317361E+02 0.20435035607E+02 0.20045908417E+02
 0.19037071395E+02 0.17806673474E+02 0.16518142142E+02 0.15265928123E+02 0.14113413870E+02
 0.13099108433E+02 0.12245794962E+02 0.11571256213E+02 0.11096361926E+02 0.10844806371E+02
 0.10833848831E+02 0.11064339852E+02 0.11520150783E+02 0.12177646096E+02 0.13015554720E+02
 0.14016164469E+02 0.15157634034E+02 0.16403180177E+02 0.17691813573E+02 0.18932054225E+02
 0.19973483401E+02 0.19887338425E+02 0.18202902269E+02 0.15042776284E+02 0.10851010682E+02
 0.65361362764E+01 0.32403564895E+01 0.19369872169E+01 0.30310752749E+01 0.61817347878E+01
 0.10452167472E+02 0.14697549005E+02 0.17975936558E+02 0.19798044732E+02 0.20162011545E+02
 0.19430050913E+02 0.18134080906E+02 0.16685425873E+02 0.15239070178E+02 0.13890542445E+02
 0.12700302063E+02 0.11700600392E+02 0.10905951892E+02 0.10324366769E+02 0.99646522955E+01
 0.98362127638E+01 0.99435695526E+01 0.10282876658E+02 0.10844894470E+02 0.11620651338E+02
 0.12602331762E+02 0.13776486649E+02 0.15112864466E+02 0.16553775267E+02 0.18006996208E+02
 0.19328370006E+02 0.20133782363E+02 0.18082815900E+02 0.15042776284E+02 0.10564618384E+02
 0.54575444044E+01 0.92386152077E+00 -.18052313052E+01 -.19296830250E+01 0.58804856338E+00
 0.50068038420E+01 0.10115319569E+02 0.14690779112E+02 0.17879108192E+02 0.19362417112E+02
 0.19316617570E+02 0.18240426464E+02 0.16731314472E+02 0.15151072323E+02 0.13638041474E+02
 0.12282010180E+02 0.11133115993E+02 0.10211269030E+02 0.95193310992E+01 0.90550536248E+01
 0.88175114397E+01 0.88073323269E+01 0.90245057800E+01 0.94683312295E+01 0.10139634961E+02
 0.11040820106E+02 0.12169872881E+02 0.13508827352E+02 0.15010688736E+02 0.16589580264E+02
 0.18114065757E+02 0.19253280053E+02 0.19415333116E+02 0.15144428779E+02 0.10851010682E+02
 0.54575444044E+01 0.81261322963E-01 -.39472567647E+01 -.55262372486E+01 -.42026820823E+01
 -.35642623886E+00 0.49538958709E+01 0.10397956101E+02 0.14824014807E+02 0.17560673274E+02
 0.18496816293E+02 0.17979011452E+02 0.16609633411E+02 0.14981377910E+02 0.13359732437E+02
 0.11868647478E+02 0.10583703729E+02 0.95381005701E+01 0.87366924930E+01 0.81714284160E+01
 0.78325509526E+01 0.77137415415E+01 0.78129143678E+01 0.81318395050E+01 0.86763989692E+01
 0.94561267730E+01 0.10479665736E+02 0.11743971548E+02 0.13218938255E+02 0.14833108171E+02
 0.16467073849E+02 0.17880976631E+02 0.18502234446E+02 0.17716270549E+02 0.11624700057E+02
 0.65361362764E+01 0.92386152077E+00 -.39472567647E+01 -.68402195236E+01 -.69716403826E+01
 -.43047426346E+01 0.43595621474E+00 0.60365657962E+01 0.11216772394E+02 0.15013459859E+02
 0.16990480974E+02 0.17245854807E+02 0.16266931580E+02 0.14707666895E+02 0.13048493714E+02
 0.11469238171E+02 0.10075690167E+02 0.89209366348E+01 0.80179894840E+01 0.73582354039E+01
 0.69264883581E+01 0.67095708924E+01 0.67001878340E+01 0.68982057986E+01 0.73103763273E+01
 0.79490973076E+01 0.88294631099E+01 0.99615096746E+01 0.11335173424E+02 0.12901399790E+02
 0.14559019156E+02 0.16140545514E+02 0.17199182361E+02 0.17079196614E+02 0.15267889604E+02
 0.84126373304E+01 0.32403564895E+01 -.18052313052E+01 -.55262372486E+01 -.69716403826E+01
 -.57592313139E+01 -.22100665999E+01 0.27645335813E+01 0.79731800684E+01 0.12319308531E+02
 0.15096946874E+02 0.16118965928E+02 0.15668712470E+02 0.14324576138E+02 0.12697552604E+02
 0.11083327567E+02 0.96170614095E+01 0.83761304558E+01 0.73866844849E+01 0.66432958431E+01
 0.61285854604E+01 0.58248744503E+01 0.57194323584E+01 0.58073723731E+01 0.60928598761E+01
 0.65879710741E+01 0.73100104640E+01 0.82767603766E+01 0.94955193751E+01 0.10943859259E+02
 0.12549459753E+02 0.14182421387E+02 0.15574672953E+02 0.16131867402E+02 0.15259820458E+02
 0.12639867464E+02 0.64505818870E+01 0.19369872169E+01 -.19296830250E+01 -.42026820823E+01
 -.43047426346E+01 -.22100665999E+01 0.15480037554E+01 0.60456199584E+01 0.10253519162E+02
 0.13337861727E+02 0.14873407375E+02 0.14904727685E+02 0.13852930133E+02 0.12314493503E+02
 0.10710845820E+02 0.92081945558E+01 0.79066446508E+01 0.68490942102E+01 0.60367004514E+01
 0.54515124291E+01 0.50728459533E+01 0.48842875581E+01 0.48763603101E+01 0.50484520038E+01
 0.54092307163E+01 0.59749227669E+01 0.67661969605E+01 0.78014759453E+01 0.90819396018E+01
 0.10569491164E+02 0.12169682949E+02 0.13725555577E+02 0.14846307994E+02 0.14933869797E+02
 0.13542199871E+02 0.10586923391E+02 0.63609538245E+01 0.30310752749E+01 0.58804856338E+00
 -.35642623886E+00 0.43595621474E+00 0.27645335813E+01 0.60456199584E+01 0.94777643831E+01
 0.12274972774E+02 0.13895232308E+02 0.14181842488E+02 0.13365619846E+02 0.11934598047E+02
 0.10362105872E+02 0.88495914334E+01 0.75103502362E+01 0.64021724562E+01 0.55351900358E+01
 0.48930137337E+01 0.44524578234E+01 0.41938738547E+01 0.41043675673E+01 0.41790886767E+01
 0.44220066609E+01 0.48454144843E+01 0.54685443679E+01 0.63144904233E+01 0.74008196323E+01
 0.87207624207E+01 0.10221547280E+02 0.11794556039E+02 0.13253645135E+02 0.14147372840E+02
 0.13974728707E+02 0.12474756935E+02 0.97665592670E+01 0.81728665558E+01 0.61817347878E+01
 0.50068038420E+01 0.49538958709E+01 0.60365657962E+01 0.79731800684E+01 0.10253519162E+02
 0.12274972774E+02 0.13523828048E+02 0.13739665276E+02 0.12990234848E+02 0.11620272455E+02
 0.10065861544E+02 0.85497725578E+01 0.71860390843E+01 0.60405840368E+01 0.51308952848E+01
 0.44431452939E+01 0.39526958284E+01 0.36369929122E+01 0.34799983882E+01 0.34732408985E+01
 0.36164572252E+01 0.39174592049E+01 0.43914336628E+01 0.50603012389E+01 0.59490451350E+01
 0.70734585541E+01 0.84196550486E+01 0.99261023888E+01 0.11482486873E+02 0.12885450620E+02
 0.13708050388E+02 0.13587008796E+02 0.12425325759E+02 0.10454956163E+02 0.11308946738E+02
 0.10452167472E+02 0.10115319569E+02 0.10397956101E+02 0.11216772394E+02 0.12319308531E+02
 0.13337861727E+02 0.13895232308E+02 0.13739665276E+02 0.12848251845E+02 0.11439356319E+02
 0.98630235557E+01 0.83286875333E+01 0.69396746534E+01 0.57618053164E+01 0.48163290147E+01
 0.40911910412E+01 0.35602543242E+01 0.31981381051E+01 0.29861221240E+01 0.29127722524E+01
 0.29739642935E+01 0.31731424630E+01 0.35210996712E+01 0.40358980759E+01 0.47424304480E+01
 0.56672359369E+01 0.68244559146E+01 0.81965460978E+01 0.97216816086E+01 0.11299496785E+02
 0.12737914061E+02 0.13687761192E+02 0.13912221936E+02 0.13411468913E+02 0.12419902414E+02
 0.14840407058E+02 0.14697549005E+02 0.14690779112E+02 0.14824014807E+02 0.15013459859E+02
 0.15096946874E+02 0.14873407375E+02 0.14181842488E+02 0.12990234848E+02 0.11439356319E+02
 0.97902790514E+01 0.82098286985E+01 0.67835382007E+01 0.55696748817E+01 0.45886507445E+01
 0.38290343324E+01 0.32633307861E+01 0.28629229526E+01 0.26058522950E+01 0.24781134122E+01
 0.24727242635E+01 0.25892963283E+01 0.28341720351E+01 0.32208523684E+01 0.37706655188E+01
 0.45116873407E+01 0.54718955620E+01 0.66649790406E+01 0.80740733190E+01 0.96441083619E+01
 0.11291348374E+02 0.12862197748E+02 0.14094133271E+02 0.14831662311E+02 0.15092016658E+02
 0.15027879136E+02 0.17859675620E+02 0.17975936558E+02 0.17879108192E+02 0.17560673274E+02
 0.16990480974E+02 0.16118965928E+02 0.14904727685E+02 0.13365619846E+02 0.11620272455E+02
 0.98630235557E+01 0.82098286985E+01 0.67296865413E+01 0.54709326915E+01 0.44498377763E+01
 0.36537950141E+01 0.30541138911E+01 0.26195645852E+01 0.23246968227E+01 0.21522754904E+01
 0.20925922354E+01 0.21423791882E+01 0.23043726570E+01 0.25876485440E+01 0.30087009142E+01
 0.35922905780E+01 0.43693844612E+01 0.53693634736E+01 0.66068379880E+01 0.80685327049E+01
 0.97088773844E+01 0.11460067297E+02 0.13214816327E+02 0.14778977872E+02 0.16024267268E+02
 0.16925154451E+02 0.17520139291E+02 0.19777317361E+02 0.19798044732E+02 0.19362417112E+02
 0.18496816293E+02 0.17245854807E+02 0.15668712470E+02 0.13852930133E+02 0.11934598047E+02
 0.10065861544E+02 0.83286875333E+01 0.67835382007E+01 0.54709326915E+01 0.44030166094E+01
 0.35657064133E+01 0.29292872537E+01 0.24605987683E+01 0.21312897571E+01 0.19208714936E+01
 0.18165201749E+01 0.18120511224E+01 0.19072460775E+01 0.21077496022E+01 0.24256655430E+01
 0.28807250274E+01 0.35007076853E+01 0.43186417161E+01 0.53649207371E+01 0.66554457475E+01
 0.81807825319E+01 0.99029723132E+01 0.11762873133E+02 0.13682387691E+02 0.15513863146E+02
 0.17116533968E+02 0.18399378838E+02 0.19301592056E+02 0.20435035607E+02 0.20162011545E+02
 0.19316617570E+02 0.17979011452E+02 0.16266931580E+02 0.14324576138E+02 0.12314493503E+02
 0.10362105872E+02 0.85497725578E+01 0.69396746534E+01 0.55696748817E+01 0.44498377763E+01
 0.35657064133E+01 0.28877185173E+01 0.23819924796E+01 0.20181601332E+01 0.17728859600E+01
 0.16302653596E+01 0.15810670186E+01 0.16221027942E+01 0.17560305018E+01 0.19915229234E+01
 0.23438475121E+01 0.28356509150E+01 0.34967723441E+01 0.43610675948E+01 0.54588765312E+01
 0.68063381135E+01 0.83957702321E+01 0.10191877396E+02 0.12134687492E+02 0.14143888371E+02
 0.16099391096E+02 0.17838540297E+02 0.19214984064E+02 0.20108504625E+02 0.20045908417E+02
 0.19430050913E+02 0.18240426464E+02 0.16609633411E+02 0.14707666895E+02 0.12697552604E+02
 0.10710845820E+02 0.88495914334E+01 0.71860390843E+01 0.57618053164E+01 0.45886507445E+01
 0.36537950141E+01 0.29292872537E+01 0.23819924796E+01 0.19809172833E+01 0.17008277710E+01
 0.15231171497E+01 0.14355222715E+01 0.14318046300E+01 0.15116862671E+01 0.16808687328E+01
 0.19510794651E+01 0.23403303064E+01 0.28732564100E+01 0.35804743640E+01 0.44952283659E+01
 0.56462594291E+01 0.70479515233E+01 0.86909662817E+01 0.10536645311E+02 0.12515732907E+02
 0.14528877898E+02 0.16446946053E+02 0.18109430540E+02 0.19344838056E+02 0.20016311577E+02
 0.19037071395E+02 0.18134080906E+02 0.16731314472E+02 0.14981377910E+02 0.13048493714E+02
 0.11083327567E+02 0.92081945558E+01 0.75103502362E+01 0.60405840368E+01 0.48163290147E+01
 0.38290343324E+01 0.30541138911E+01 0.24605987683E+01 0.20181601332E+01 0.17008277710E+01
 0.14881851931E+01 0.13654111996E+01 0.13232761447E+01 0.13584295837E+01 0.14736425467E+01
 0.16776572830E+01 0.19848315862E+01 0.24150370290E+01 0.29937083431E+01 0.37509327896E+01
 0.47179905106E+01 0.59204520999E+01 0.73685925708E+01 0.90474886246E+01 0.10909528030E+02
 0.12870905054E+02 0.14812430195E+02 0.16585535779E+02 0.18026249698E+02 0.18979578693E+02
 0.19331372703E+02 0.17806673474E+02 0.16685425873E+02 0.15151072323E+02 0.13359732437E+02
 0.11469238171E+02 0.96170614095E+01 0.79066446508E+01 0.64021724562E+01 0.51308952848E+01
 0.40911910412E+01 0.32633307861E+01 0.26195645852E+01 0.21312897571E+01 0.17728859600E+01
 0.15231171497E+01 0.13654111996E+01 0.12880680799E+01 0.12848000630E+01 0.13553090216E+01
 0.15053609120E+01 0.17462448679E+01 0.20941094668E+01 0.25696880140E+01 0.31981811248E+01
 0.40081374864E+01 0.50278119848E+01 0.62780824322E+01 0.77624694749E+01 0.94564797510E+01
 0.11299411526E+02 0.13191450335E+02 0.14997953744E+02 0.16562136187E+02 0.17726465733E+02
 0.18360468345E+02 0.18388317124E+02 0.16518142142E+02 0.15239070178E+02 0.13638041474E+02
 0.11868647478E+02 0.10075690167E+02 0.83761304558E+01 0.68490942102E+01 0.55351900358E+01
 0.44431452939E+01 0.35602543242E+01 0.28629229526E+01 0.23246968227E+01 0.19208714936E+01
 0.16302653596E+01 0.14355222715E+01 0.13232761447E+01 0.12848000630E+01 0.13168740189E+01
 0.14222013623E+01 0.16090422142E+01 0.18903815115E+01 0.22832448303E+01 0.28084494361E+01
 0.34903418645E+01 0.43553179411E+01 0.54276130603E+01 0.67214903090E+01 0.82306331700E+01
 0.99174943921E+01 0.11706361926E+02 0.13483455797E+02 0.15105964695E+02 0.16420131218E+02
 0.17286160069E+02 0.17604796409E+02 0.17338181798E+02 0.15265928123E+02 0.13890542445E+02
 0.12282010180E+02 0.10583703729E+02 0.89209366348E+01 0.73866844849E+01 0.60367004514E+01
 0.48930137337E+01 0.39526958284E+01 0.31981381051E+01 0.26058522950E+01 0.21522754904E+01
 0.18165201749E+01 0.15810670186E+01 0.14318046300E+01 0.13584295837E+01 0.13553090216E+01
 0.14222013623E+01 0.15642715334E+01 0.17914307573E+01 0.21175175224E+01 0.25598027510E+01
 0.31388120794E+01 0.38777559136E+01 0.48002417755E+01 0.59249141071E+01 0.72567040541E+01
 0.87762706945E+01 0.10430925354E+02 0.12130801497E+02 0.13753098024E+02 0.15155402975E+02
 0.16196785089E+02 0.16762707752E+02 0.16787606277E+02 0.16268576646E+02 0.14113413870E+02
 0.12700302063E+02 0.11133115993E+02 0.95381005701E+01 0.80179894840E+01 0.66432958431E+01
 0.54515124291E+01 0.44524578234E+01 0.36369929122E+01 0.29861221240E+01 0.24781134122E+01
 0.20925922354E+01 0.18120511224E+01 0.16221027942E+01 0.15116862671E+01 0.14736425467E+01
 0.15053609120E+01 0.16090422142E+01 0.17914307573E+01 0.20632349048E+01 0.24386041059E+01
 0.29348554649E+01 0.35721366087E+01 0.43720531116E+01 0.53539760587E+01 0.65283142442E+01
 0.78874780587E+01 0.93968503373E+01 0.10988927760E+02 0.12563548648E+02 0.13995980914E+02
 0.15152867232E+02 0.15913742171E+02 0.16193475000E+02 0.15959603956E+02 0.15239259634E+02
 0.13099108433E+02 0.11700600392E+02 0.10211269030E+02 0.87366924930E+01 0.73582354039E+01
 0.61285854604E+01 0.50728459533E+01 0.41938738547E+01 0.34799983882E+01 0.29127722524E+01
 0.24727242635E+01 0.21423791882E+01 0.19072460775E+01 0.17560305018E+01 0.16808687328E+01
 0.16776572830E+01 0.17462448679E+01 0.18903815115E+01 0.21175175224E+01 0.24386041059E+01
 0.28679596614E+01 0.34229932390E+01 0.41231211207E+01 0.49868914464E+01 0.60266495420E+01
 0.72411453568E+01 0.86077372574E+01 0.10076525171E+02 0.11568614550E+02 0.12980102120E+02
 0.14192542630E+02 0.15089371855E+02 0.15575762363E+02 0.15597208453E+02 0.15151192778E+02
 0.14287823890E+02 0.12245794962E+02 0.10905951892E+02 0.95193310992E+01 0.81714284160E+01
 0.69264883581E+01 0.58248744503E+01 0.48842875581E+01 0.41043675673E+01 0.34732408985E+01
 0.29739642935E+01 0.25892963283E+01 0.23043726570E+01 0.21077496022E+01 0.19915229234E+01
 0.19510794651E+01 0.19848315862E+01 0.20941094668E+01 0.22832448303E+01 0.25598027510E+01
 0.29348554649E+01 0.34229932390E+01 0.40414309159E+01 0.48074072639E+01 0.57334645583E+01
 0.68211291697E+01 0.80544675368E+01 0.93953323932E+01 0.10781690519E+02 0.12129743234E+02
 0.13340231477E+02 0.14309259940E+02 0.14943268158E+02 0.15175795253E+02 0.14981355863E+02
 0.14381247384E+02 0.13438765256E+02 0.11571256213E+02 0.10324366769E+02 0.90550536248E+01
 0.78325509526E+01 0.67095708924E+01 0.57194323584E+01 0.48763603101E+01 0.41790886767E+01
 0.36164572252E+01 0.31731424630E+01 0.28341720351E+01 0.25876485440E+01 0.24256655430E+01
 0.23438475121E+01 0.23403303064E+01 0.24150370290E+01 0.25696880140E+01 0.28084494361E+01
 0.31388120794E+01 0.35721366087E+01 0.41231211207E+01 0.48074072639E+01 0.56370271892E+01
 0.66144205794E+01 0.77267256880E+01 0.89422140766E+01 0.10209877960E+02 0.11461936148E+02
 0.12618474585E+02 0.13594041303E+02 0.14306857400E+02 0.14690754455E+02 0.14707590443E+02
 0.14355648543E+02 0.13670058820E+02 0.12714976732E+02 0.11096361926E+02 0.99646522955E+01
 0.88175114397E+01 0.77137415415E+01 0.67001878340E+01 0.58073723731E+01 0.50484520038E+01
 0.44220066609E+01 0.39174592049E+01 0.35210996712E+01 0.32208523684E+01 0.30087009142E+01
 0.28807250274E+01 0.28356509150E+01 0.28732564100E+01 0.29937083431E+01 0.31981811248E+01
 0.34903418645E+01 0.38777559136E+01 0.43720531116E+01 0.49868914464E+01 0.57334645583E+01
 0.66144205794E+01 0.76181301175E+01 0.87155605001E+01 0.98610911057E+01 0.10996758852E+02
 0.12057932161E+02 0.12978599595E+02 0.13696202366E+02 0.14157231792E+02 0.14324538423E+02
 0.14184699136E+02 0.13748932002E+02 0.13052457031E+02 0.12147610721E+02 0.10844806371E+02
 0.98362127638E+01 0.88073323269E+01 0.78129143678E+01 0.68982057986E+01 0.60928598761E+01
 0.54092307163E+01 0.48454144843E+01 0.43914336628E+01 0.40358980759E+01 0.37706655188E+01
 0.35922905780E+01 0.35007076853E+01 0.34967723441E+01 0.35804743640E+01 0.37509327896E+01
 0.40081374864E+01 0.43553179411E+01 0.48002417755E+01 0.53539760587E+01 0.60266495420E+01
 0.68211291697E+01 0.77267256880E+01 0.87155605001E+01 0.97435978262E+01 0.10756446063E+02
 0.11697658137E+02 0.12516066514E+02 0.13169037107E+02 0.13620652764E+02 0.13853338483E+02
 0.13863391240E+02 0.13650747169E+02 0.13218448183E+02 0.12582242009E+02 0.11776985580E+02
 0.10833848831E+02 0.99435695526E+01 0.90245057800E+01 0.81318395050E+01 0.73103763273E+01
 0.65879710741E+01 0.59749227669E+01 0.54685443679E+01 0.50603012389E+01 0.47424304480E+01
 0.45116873407E+01 0.43693844612E+01 0.43186417161E+01 0.43610675948E+01 0.44952283659E+01
 0.47179905106E+01 0.50278119848E+01 0.54276130603E+01 0.59249141071E+01 0.65283142442E+01
 0.72411453568E+01 0.80544675368E+01 0.89422140766E+01 0.98610911057E+01 0.10756446063E+02
 0.11572788686E+02 0.12265107023E+02 0.12802089142E+02 0.13164671285E+02 0.13366030275E+02
 0.13432488938E+02 0.13377273915E+02 0.13189106814E+02 0.12841874366E+02 0.12320098076E+02
 0.11640526826E+02 0.11064339852E+02 0.10282876658E+02 0.94683312295E+01 0.86763989692E+01
 0.79490973076E+01 0.73100104640E+01 0.67661969605E+01 0.63144904233E+01 0.59490451350E+01
 0.56672359369E+01 0.54718955620E+01 0.53693634736E+01 0.53649207371E+01 0.54588765312E+01
 0.56462594291E+01 0.59204520999E+01 0.62780824322E+01 0.67214903090E+01 0.72567040541E+01
 0.78874780587E+01 0.86077372574E+01 0.93953323932E+01 0.10209877960E+02 0.10996758852E+02
 0.11697658137E+02 0.12265107023E+02 0.12669363232E+02 0.12898261125E+02 0.12990380569E+02
 0.13011839365E+02 0.13012380903E+02 0.12994321853E+02 0.12911189135E+02 0.12696707640E+02
 0.12308358128E+02 0.11754697787E+02 0.11520150783E+02 0.10844894470E+02 0.10139634961E+02
 0.94561267730E+01 0.88294631099E+01 0.82767603766E+01 0.78014759453E+01 0.74008196323E+01
 0.70734585541E+01 0.68244559146E+01 0.66649790406E+01 0.66068379880E+01 0.66554457475E+01
 0.68063381135E+01 0.70479515233E+01 0.73685925708E+01 0.77624694749E+01 0.82306331700E+01
 0.87762706945E+01 0.93968503373E+01 0.10076525171E+02 0.10781690519E+02 0.11461936148E+02
 0.12057932161E+02 0.12516066514E+02 0.12802089142E+02 0.12898261125E+02 0.12848473425E+02
 0.12750529347E+02 0.12701294221E+02 0.12742993858E+02 0.12839917290E+02 0.12898276847E+02
 0.12818133131E+02 0.12549188639E+02 0.12105668880E+02 0.12177646096E+02 0.11620651338E+02
 0.11040820106E+02 0.10479665736E+02 0.99615096746E+01 0.94955193751E+01 0.90819396018E+01
 0.87207624207E+01 0.84196550486E+01 0.81965460978E+01 0.80740733190E+01 0.80685327049E+01
 0.81807825319E+01 0.83957702321E+01 0.86909662817E+01 0.90474886246E+01 0.94564797510E+01
 0.99174943921E+01 0.10430925354E+02 0.10988927760E+02 0.11568614550E+02 0.12129743234E+02
 0.12618474585E+02 0.12978599595E+02 0.13169037107E+02 0.13164671285E+02 0.12990380569E+02
 0.12750529347E+02 0.12579317524E+02 0.12571072089E+02 0.12730244073E+02 0.12969144008E+02
 0.13154527529E+02 0.13176784755E+02 0.13003265904E+02 0.12657134156E+02 0.13015554720E+02
 0.12602331762E+02 0.12169872881E+02 0.11743971548E+02 0.11335173424E+02 0.10943859259E+02
 0.10569491164E+02 0.10221547280E+02 0.99261023888E+01 0.97216816086E+01 0.96441083619E+01
 0.97088773844E+01 0.99029723132E+01 0.10191877396E+02 0.10536645311E+02 0.10909528030E+02
 0.11299411526E+02 0.11706361926E+02 0.12130801497E+02 0.12563548648E+02 0.12980102120E+02
 0.13340231477E+02 0.13594041303E+02 0.13696202366E+02 0.13620652764E+02 0.13366030275E+02
 0.13011839365E+02 0.12701294221E+02 0.12571072089E+02 0.12680336133E+02 0.12979341000E+02
 0.13335951408E+02 0.13604385663E+02 0.13697123243E+02 0.13610209637E+02 0.13368284595E+02
 0.14016164469E+02 0.13776486649E+02 0.13508827352E+02 0.13218938255E+02 0.12901399790E+02
 0.12549459753E+02 0.12169682949E+02 0.11794556039E+02 0.11482486873E+02 0.11299496785E+02
 0.11291348374E+02 0.11460067297E+02 0.11762873133E+02 0.12134687492E+02 0.12515732907E+02
 0.12870905054E+02 0.13191450335E+02 0.13483455797E+02 0.13753098024E+02 0.13995980914E+02
 0.14192542630E+02 0.14309259940E+02 0.14306857400E+02 0.14157231792E+02 0.13853338483E+02
 0.13432488938E+02 0.13012380903E+02 0.12742993858E+02 0.12730244073E+02 0.12979341000E+02
 0.13391936549E+02 0.13818814683E+02 0.14136340447E+02 0.14299886795E+02 0.14314655963E+02
 0.14207017667E+02 0.15157634034E+02 0.15112864466E+02 0.15010688736E+02 0.14833108171E+02
 0.14559019156E+02 0.14182421387E+02 0.13725555577E+02 0.13253645135E+02 0.12885450620E+02
 0.12737914061E+02 0.12862197748E+02 0.13214816327E+02 0.13682387691E+02 0.14143888371E+02
 0.14528877898E+02 0.14812430195E+02 0.14997953744E+02 0.15105964695E+02 0.15155402975E+02
 0.15152867232E+02 0.15089371855E+02 0.14943268158E+02 0.14690754455E+02 0.14324538423E+02
 0.13863391240E+02 0.13377273915E+02 0.12994321853E+02 0.12839917290E+02 0.12969144008E+02
 0.13335951408E+02 0.13818814683E+02 0.14286566885E+02 0.14662604568E+02 0.14925401627E+02
 0.15080161598E+02 0.15150144333E+02 0.16403180177E+02 0.16553775267E+02 0.16589580264E+02
 0.16467073849E+02 0.16140545514E+02 0.15574672953E+02 0.14846307994E+02 0.14147372840E+02
 0.13708050388E+02 0.13687761192E+02 0.14094133271E+02 0.14778977872E+02 0.15513863146E+02
 0.16099391096E+02 0.16446946053E+02 0.16585535779E+02 0.16562136187E+02 0.16420131218E+02
 0.16196785089E+02 0.15913742171E+02 0.15575762363E+02 0.15175795253E+02 0.14707590443E+02
 0.14184699136E+02 0.13650747169E+02 0.13189106814E+02 0.12911189135E+02 0.12898276847E+02
 0.13154527529E+02 0.13604385663E+02 0.14136340447E+02 0.14662604568E+02 0.15136681477E+02
 0.15542620978E+02 0.15885834252E+02 0.16173848745E+02 0.17691813573E+02 0.18006996208E+02
 0.18114065757E+02 0.17880976631E+02 0.17199182361E+02 0.16131867402E+02 0.14933869797E+02
 0.13974728707E+02 0.13587008796E+02 0.13912221936E+02 0.14831662311E+02 0.16024267268E+02
 0.17116533968E+02 0.17838540297E+02 0.18109430540E+02 0.18026249698E+02 0.17726465733E+02
 0.17286160069E+02 0.16762707752E+02 0.16193475000E+02 0.15597208453E+02 0.14981355863E+02
 0.14355648543E+02 0.13748932002E+02 0.13218448183E+02 0.12841874366E+02 0.12696707640E+02
 0.12818133131E+02 0.13176784755E+02 0.13697123243E+02 0.14299886795E+02 0.14925401627E+02
 0.15542620978E+02 0.16140941152E+02 0.16713240171E+02 0.17242029770E+02 0.18932054225E+02
 0.19328370006E+02 0.19253280053E+02 0.18502234446E+02 0.17079196614E+02 0.15259820458E+02
 0.13542199871E+02 0.12474756935E+02 0.12425325759E+02 0.13411468913E+02 0.15092016658E+02
 0.16925154451E+02 0.18399378838E+02 0.19214984064E+02 0.19344838056E+02 0.18979578693E+02
 0.18360468345E+02 0.17604796409E+02 0.16787606277E+02 0.15959603956E+02 0.15151192778E+02
 0.14381247384E+02 0.13670058820E+02 0.13052457031E+02 0.12582242009E+02 0.12320098076E+02
 0.12308358128E+02 0.12549188639E+02 0.13003265904E+02 0.13610209637E+02 0.14314655963E+02
 0.15080161598E+02 0.15885834252E+02 0.16713240171E+02 0.17533234372E+02 0.18297078356E+02
 0.19973483401E+02 0.20133782363E+02 0.19415333116E+02 0.17716270549E+02 0.15267889604E+02
 0.12639867464E+02 0.10586923391E+02 0.97665592670E+01 0.10454956163E+02 0.12419902414E+02
 0.15027879136E+02 0.17520139291E+02 0.19301592056E+02 0.20108504625E+02 0.20016311577E+02
 0.19331372703E+02 0.18388317124E+02 0.17338181798E+02 0.16268576646E+02 0.15239259634E+02
 0.14287823890E+02 0.13438765256E+02 0.12714976732E+02 0.12147610721E+02 0.11776985580E+02
 0.11640526826E+02 0.11754697787E+02 0.12105668880E+02 0.12657134156E+02 0.13368284595E+02
 0.14207017667E+02 0.15150144333E+02 0.16173848745E+02 0.17242029770E+02 0.18297078356E+02
 0.19254021438E+02 0.18993960576E+02 0.17895328934E+02 0.15559180759E+02 0.12337756983E+02
 0.89686398964E+01 0.63777306915E+01 0.53505210644E+01 0.62129291287E+01 0.86906879689E+01
 0.12028036539E+02 0.15297305550E+02 0.17733603385E+02 0.18946796292E+02 0.18958702619E+02
 0.18101556178E+02 0.16838605988E+02 0.15467116088E+02 0.14113269828E+02 0.12863096569E+02
 0.11768309547E+02 0.10853826470E+02 0.10129030623E+02 0.95990317298E+01 0.92711872544E+01
 0.91541172019E+01 0.92520246285E+01 0.95612947987E+01 0.10073430582E+02 0.10780856638E+02
 0.11678508306E+02 0.12757843844E+02 0.13995760235E+02 0.15343232804E+02 0.16717488237E+02
 0.17997727717E+02 0.18910600216E+02 0.17895328934E+02 0.15562998954E+02 0.11972740565E+02
 0.78079442484E+01 0.40842795069E+01 0.18366116118E+01 0.17343899810E+01 0.38086728590E+01
 0.74391747219E+01 0.11608548720E+02 0.15284678007E+02 0.17745962142E+02 0.18733490339E+02
 0.18422058200E+02 0.17270509686E+02 0.15801779150E+02 0.14287791596E+02 0.12851246345E+02
 0.11572932538E+02 0.10495459411E+02 0.96334256102E+01 0.89869032860E+01 0.85528822405E+01
 0.83306611694E+01 0.83211641480E+01 0.85243644092E+01 0.89392679229E+01 0.95664883248E+01
 0.10409080339E+02 0.11467570934E+02 0.12729064151E+02 0.14153958424E+02 0.15665279955E+02
 0.17144631844E+02 0.18344812548E+02 0.18753365466E+02 0.15559180759E+02 0.11972740565E+02
 0.73829772485E+01 0.27724356150E+01 -.69316069172E+00 -.20528342225E+01 -.91271050149E+00
 0.23966013499E+01 0.69521154038E+01 0.11589257955E+02 0.15295611087E+02 0.17482732442E+02
 0.18065791647E+02 0.17376010618E+02 0.15975076903E+02 0.14381324473E+02 0.12809096778E+02
 0.11373260919E+02 0.10141922017E+02 0.91429175888E+01 0.83781020166E+01 0.78384927528E+01
 0.75147033854E+01 0.74011212796E+01 0.74959678750E+01 0.78007021396E+01 0.83205481235E+01
 0.90646613372E+01 0.10042438477E+02 0.11253568518E+02 0.12673114774E+02 0.14236984833E+02
 0.15834605036E+02 0.17270009040E+02 0.18048643186E+02 0.17598520739E+02 0.12337756983E+02
 0.78079442484E+01 0.27724356150E+01 -.16125567389E+01 -.42202702296E+01 -.43390372862E+01
 -.19353458811E+01 0.23329076662E+01 0.73603140816E+01 0.11976713225E+02 0.15300005831E+02
 0.16934952933E+02 0.16985235845E+02 0.15919365853E+02 0.14355754034E+02 0.12718620729E+02
 0.11170287106E+02 0.98099336511E+01 0.86857839368E+01 0.78079548499E+01 0.71666644635E+01
 0.67467619451E+01 0.65356521302E+01 0.65265282530E+01 0.67192592042E+01 0.71201308445E+01
 0.77409828918E+01 0.85968193863E+01 0.96986795164E+01 0.11039192815E+02 0.12574015526E+02
 0.14208483911E+02 0.15789837369E+02 0.16926237140E+02 0.16999642270E+02 0.15517988393E+02
 0.89686398964E+01 0.40842795069E+01 -.69316069172E+00 -.42202702296E+01 -.55910335353E+01
 -.44416711313E+01 -.10775036280E+01 0.36334930181E+01 0.85542062710E+01 0.12635918324E+02
 0.15203744406E+02 0.16083113885E+02 0.15554865771E+02 0.14184718161E+02 0.12560083084E+02
 0.10955951930E+02 0.95031356487E+01 0.82758789561E+01 0.72983555417E+01 0.65641912485E+01
 0.60558007513E+01 0.57557153628E+01 0.56515080833E+01 0.57384271927E+01 0.60205096475E+01
 0.65095446479E+01 0.72226234069E+01 0.81776769359E+01 0.93828510299E+01 0.10817597002E+02
 0.12412647487E+02 0.14042169359E+02 0.15456563946E+02 0.16086364955E+02 0.15350830838E+02
 0.12935048254E+02 0.63777306915E+01 0.18366116118E+01 -.20528342225E+01 -.43390372862E+01
 -.44416711313E+01 -.23348041591E+01 0.14453749200E+01 0.59702822106E+01 0.10205649202E+02
 0.13313704714E+02 0.14866972494E+02 0.14909448857E+02 0.13862955878E+02 0.12325658533E+02
 0.10721674585E+02 0.92180790117E+01 0.79153739446E+01 0.68567229450E+01 0.60434240605E+01
 0.54575769448E+01 0.50784936309E+01 0.48897335307E+01 0.48817972531E+01 0.50540725610E+01
 0.54152486860E+01 0.59815775410E+01 0.67737347447E+01 0.78101009904E+01 0.90917251550E+01
 0.10580253837E+02 0.12180853103E+02 0.13735820497E+02 0.14851739412E+02 0.14928728517E+02
 0.13519920876E+02 0.10541376844E+02 0.53505210644E+01 0.17343899810E+01 -.91271050149E+00
 -.19353458811E+01 -.10775036280E+01 0.14453749200E+01 0.50076236779E+01 0.87529548844E+01
 0.11844023371E+02 0.13702535786E+02 0.14154747481E+02 0.13431947285E+02 0.12035549775E+02
 0.10468626252E+02 0.89508973223E+01 0.76012845151E+01 0.64816603496E+01 0.56044982918E+01
 0.49544204101E+01 0.45084651194E+01 0.42468052167E+01 0.41562577045E+01 0.42318380224E+01
 0.44776450494E+01 0.49062427747E+01 0.55370451431E+01 0.63929840437E+01 0.74907241970E+01
 0.88212795457E+01 0.10327937719E+02 0.11896604381E+02 0.13325282330E+02 0.14131682123E+02
 0.13800193481E+02 0.12067963147E+02 0.90695435059E+01 0.62129291287E+01 0.38086728590E+01
 0.23966013499E+01 0.23329076662E+01 0.36334930181E+01 0.59702822106E+01 0.87529548844E+01
 0.11289299530E+02 0.12989726464E+02 0.13546328155E+02 0.13011666999E+02 0.11743078401E+02
 0.10218401741E+02 0.87056559502E+01 0.73308039066E+01 0.61686315839E+01 0.52422590980E+01
 0.45406027120E+01 0.40399484895E+01 0.37177584789E+01 0.35576272714E+01 0.35507336501E+01
 0.36968022428E+01 0.40039799092E+01 0.44878263332E+01 0.51702854906E+01 0.60755305657E+01
 0.72168373639E+01 0.85749841499E+01 0.10079822873E+02 0.11609800082E+02 0.12920219352E+02
 0.13539153720E+02 0.13088689671E+02 0.11484188065E+02 0.90020636323E+01 0.86906879689E+01
 0.74391747219E+01 0.69521154038E+01 0.73603140816E+01 0.85542062710E+01 0.10205649202E+02
 0.11844023371E+02 0.12989726464E+02 0.13312939922E+02 0.12750519423E+02 0.11519964744E+02
 0.10011384679E+02 0.85000430462E+01 0.71082116773E+01 0.59148955064E+01 0.49505552265E+01
 0.42081548991E+01 0.36636064771E+01 0.32920343302E+01 0.30745514382E+01 0.29993463100E+01
 0.30620866560E+01 0.32663863537E+01 0.36234250676E+01 0.41514752496E+01 0.48750006960E+01
 0.58186771847E+01 0.69919696128E+01 0.83685061859E+01 0.98735116546E+01 0.11389421256E+02
 0.12661835159E+02 0.13296911104E+02 0.13055452048E+02 0.11973952132E+02 0.10361544302E+02
 0.12028036539E+02 0.11608548720E+02 0.11589257955E+02 0.11976713225E+02 0.12635918324E+02
 0.13313704714E+02 0.13702535786E+02 0.13546328155E+02 0.12750519423E+02 0.11435737338E+02
 0.98925513604E+01 0.83601245716E+01 0.69459711837E+01 0.57240515491E+01 0.47268645483E+01
 0.39502149554E+01 0.33699228980E+01 0.29585013143E+01 0.26942066559E+01 0.25628912087E+01
 0.25573616376E+01 0.26771984154E+01 0.29289387640E+01 0.33262801519E+01 0.38904067672E+01
 0.46483584126E+01 0.56250304570E+01 0.68273040996E+01 0.82266867358E+01 0.97526049170E+01
 0.11301500144E+02 0.12650058787E+02 0.13500300276E+02 0.13713142767E+02 0.13364761466E+02
 0.12700566113E+02 0.15297305550E+02 0.15284678007E+02 0.15295611087E+02 0.15300005831E+02
 0.15203744406E+02 0.14866972494E+02 0.14154747481E+02 0.13011666999E+02 0.11519964744E+02
 0.98925513604E+01 0.83100631567E+01 0.68592554402E+01 0.56039368727E+01 0.45736151547E+01
 0.37644111941E+01 0.31520728601E+01 0.27071005154E+01 0.24046037929E+01 0.22275327990E+01
 0.21662199605E+01 0.22173801790E+01 0.23837436825E+01 0.26743701430E+01 0.31056137475E+01
 0.37017172732E+01 0.44920444746E+01 0.55018757053E+01 0.67375902935E+01 0.81730381730E+01
 0.97470864511E+01 0.11375582284E+02 0.12889511646E+02 0.14069296344E+02 0.14819567616E+02
 0.15185268722E+02 0.15297263169E+02 0.17733603385E+02 0.17745962142E+02 0.17482732442E+02
 0.16934952933E+02 0.16083113885E+02 0.14909448857E+02 0.13431947285E+02 0.11743078401E+02
 0.10011384679E+02 0.83601245716E+01 0.68592554402E+01 0.55626420715E+01 0.44951303178E+01
 0.36516040079E+01 0.30072598241E+01 0.25310856344E+01 0.21955864389E+01 0.19807186409E+01
 0.18739830766E+01 0.18694021467E+01 0.19667825886E+01 0.21715808936E+01 0.24955532330E+01
 0.29579865491E+01 0.35858954396E+01 0.44103578000E+01 0.54571550241E+01 0.67335849365E+01
 0.82177814252E+01 0.98583194883E+01 0.11586448207E+02 0.13287015044E+02 0.14788611348E+02
 0.15990991961E+02 0.16871109114E+02 0.17445276289E+02 0.18946796292E+02 0.18733490339E+02
 0.18065791647E+02 0.16985235845E+02 0.15554865771E+02 0.13862955878E+02 0.12035549775E+02
 0.10218401741E+02 0.85000430462E+01 0.69459711837E+01 0.56039368727E+01 0.44951303178E+01
 0.36136316352E+01 0.29347369443E+01 0.24267071111E+01 0.20600848763E+01 0.18121541878E+01
 0.16675938339E+01 0.16176366318E+01 0.16592983099E+01 0.17950881536E+01 0.20332106524E+01
 0.23883295271E+01 0.28825023639E+01 0.35447294562E+01 0.44068353100E+01 0.54945505572E+01
 0.68158950558E+01 0.83523592559E+01 0.10058467691E+02 0.11869914826E+02 0.13702152146E+02
 0.15412171356E+02 0.16870034831E+02 0.17984754358E+02 0.18691541879E+02 0.18958702619E+02
 0.18422058200E+02 0.17376010618E+02 0.15919365853E+02 0.14184718161E+02 0.12325658533E+02
 0.10468626252E+02 0.87056559502E+01 0.71082116773E+01 0.57240515491E+01 0.45736151547E+01
 0.36516040079E+01 0.29347369443E+01 0.23920625998E+01 0.19934577008E+01 0.17142509120E+01
 0.15365055328E+01 0.14486571307E+01 0.14449255031E+01 0.15250516766E+01 0.16943128802E+01
 0.19637557124E+01 0.23507139537E+01 0.28792463704E+01 0.35791425180E+01 0.44816289403E+01
 0.56110539809E+01 0.69745659960E+01 0.85541395076E+01 0.10304554198E+02 0.12156563126E+02
 0.14020081468E+02 0.15772594913E+02 0.17260169820E+02 0.18347693863E+02 0.18933039162E+02
 0.18101556178E+02 0.17270509686E+02 0.15975076903E+02 0.14355754034E+02 0.12560083084E+02
 0.10721674585E+02 0.89508973223E+01 0.73308039066E+01 0.59148955064E+01 0.47268645483E+01
 0.37644111941E+01 0.30072598241E+01 0.24267071111E+01 0.19934577008E+01 0.16821547239E+01
 0.14730112784E+01 0.13519227931E+01 0.13102851383E+01 0.13450206652E+01 0.14586805365E+01
 0.16593949536E+01 0.19607860719E+01 0.23820964205E+01 0.29482071333E+01 0.36882679237E+01
 0.46313722850E+01 0.57988371269E+01 0.71947509756E+01 0.87979415089E+01 0.10557844682E+02
 0.12394239922E+02 0.14199090347E+02 0.15840382204E+02 0.17171128958E+02 0.18048741230E+02
 0.18371663124E+02 0.16838605988E+02 0.15801779150E+02 0.14381324473E+02 0.12718620729E+02
 0.10955951930E+02 0.92180790117E+01 0.76012845151E+01 0.61686315839E+01 0.49505552265E+01
 0.39502149554E+01 0.31520728601E+01 0.25310856344E+01 0.20600848763E+01 0.17142509120E+01
 0.14730112784E+01 0.13204813794E+01 0.12455846430E+01 0.12424192953E+01 0.13107055421E+01
 0.14558488690E+01 0.16885230650E+01 0.20241980923E+01 0.24829700282E+01 0.30892814443E+01
 0.38703042577E+01 0.48516685307E+01 0.60501499261E+01 0.74644936045E+01 0.90668162355E+01
 0.10797075960E+02 0.12562036323E+02 0.14239324558E+02 0.15687606842E+02 0.16764347156E+02
 0.17350478118E+02 0.17376265261E+02 0.15467116088E+02 0.14287791596E+02 0.12809096778E+02
 0.11170287106E+02 0.95031356487E+01 0.79153739446E+01 0.64816603496E+01 0.52422590980E+01
 0.42081548991E+01 0.33699228980E+01 0.27071005154E+01 0.21955864389E+01 0.18121541878E+01
 0.15365055328E+01 0.13519227931E+01 0.12455846430E+01 0.12091519927E+01 0.12395362784E+01
 0.13393075823E+01 0.15163824314E+01 0.17832354183E+01 0.21562190919E+01 0.26552431046E+01
 0.33032976473E+01 0.41246610507E+01 0.51405619715E+01 0.63618249184E+01 0.77795056641E+01
 0.93560173062E+01 0.11019815907E+02 0.12666105095E+02 0.14164908473E+02 0.15376763014E+02
 0.16174662385E+02 0.16468128470E+02 0.16222578104E+02 0.14113269828E+02 0.12851246345E+02
 0.11373260919E+02 0.98099336511E+01 0.82758789561E+01 0.68567229450E+01 0.56044982918E+01
 0.45406027120E+01 0.36636064771E+01 0.29585013143E+01 0.24046037929E+01 0.19807186409E+01
 0.16675938339E+01 0.14486571307E+01 0.13102851383E+01 0.12424192953E+01 0.12395362784E+01
 0.13014000381E+01 0.14330807756E+01 0.16442574795E+01 0.19482826805E+01 0.23615029466E+01
 0.29029008700E+01 0.35934588781E+01 0.44540505453E+01 0.55006233386E+01 0.67363712913E+01
 0.81423088754E+01 0.96692057404E+01 0.11234273957E+02 0.12725145238E+02 0.14012010255E+02
 0.14966705401E+02 0.15485201726E+02 0.15507983424E+02 0.15032419954E+02 0.12863096569E+02
 0.11572932538E+02 0.10141922017E+02 0.86857839368E+01 0.72983555417E+01 0.60434240605E+01
 0.49544204101E+01 0.40399484895E+01 0.32920343302E+01 0.26942066559E+01 0.22275327990E+01
 0.18739830766E+01 0.16176366318E+01 0.14449255031E+01 0.13450206652E+01 0.13107055421E+01
 0.13393075823E+01 0.14330807756E+01 0.15988371979E+01 0.18471122067E+01 0.21913289514E+01
 0.26472640877E+01 0.32326731781E+01 0.39662963385E+01 0.48649905732E+01 0.59380285040E+01
 0.71789055383E+01 0.85567185495E+01 0.10010292896E+02 0.11448124220E+02 0.12755951519E+02
 0.13811779413E+02 0.14505832907E+02 0.14760889638E+02 0.14547612659E+02 0.13890548430E+02
 0.11768309547E+02 0.10495459411E+02 0.91429175888E+01 0.78079548499E+01 0.65641912485E+01
 0.54575769448E+01 0.45084651194E+01 0.37177584789E+01 0.30745514382E+01 0.25628912087E+01
 0.21662199605E+01 0.18694021467E+01 0.16592983099E+01 0.15250516766E+01 0.14586805365E+01
 0.14558488690E+01 0.15163824314E+01 0.16442574795E+01 0.18471122067E+01 0.21355607238E+01
 0.25226238591E+01 0.30233535319E+01 0.36542069217E+01 0.44311963577E+01 0.53658209056E+01
 0.64585947790E+01 0.76913508121E+01 0.90206949062E+01 0.10375388720E+02 0.11659845422E+02
 0.12764496845E+02 0.13581851485E+02 0.14025081078E+02 0.14044617085E+02 0.13638197547E+02
 0.12851379720E+02 0.10853826470E+02 0.96334256102E+01 0.83781020166E+01 0.71666644635E+01
 0.60558007513E+01 0.50784936309E+01 0.42468052167E+01 0.35576272714E+01 0.29993463100E+01
 0.25573616376E+01 0.22173801790E+01 0.19667825886E+01 0.17950881536E+01 0.16943128802E+01
 0.16593949536E+01 0.16885230650E+01 0.17832354183E+01 0.19482826805E+01 0.21913289514E+01
 0.25226238591E+01 0.29547184462E+01 0.35019631453E+01 0.41790709226E+01 0.49979318482E+01
 0.59624425659E+01 0.70621348236E+01 0.82662834051E+01 0.95205326432E+01 0.10747837494E+02
 0.11854770036E+02 0.12743073484E+02 0.13324855271E+02 0.13538300446E+02 0.13359851610E+02
 0.12809156926E+02 0.11945055045E+02 0.10129030623E+02 0.89869032860E+01 0.78384927528E+01
 0.67467619451E+01 0.57557153628E+01 0.48897335307E+01 0.41562577045E+01 0.35507336501E+01
 0.30620866560E+01 0.26771984154E+01 0.23837436825E+01 0.21715808936E+01 0.20332106524E+01
 0.19637557124E+01 0.19607860719E+01 0.20241980923E+01 0.21562190919E+01 0.23615029466E+01
 0.26472640877E+01 0.30233535319E+01 0.35019631453E+01 0.40963616895E+01 0.48180690308E+01
 0.56723854703E+01 0.66530169638E+01 0.77371906314E+01 0.88827673910E+01 0.10028458771E+02
 0.11097690754E+02 0.12006196207E+02 0.12672903838E+02 0.13032730189E+02 0.13048527842E+02
 0.12718618673E+02 0.12077176533E+02 0.11187258549E+02 0.95990317298E+01 0.85528822405E+01
 0.75147033854E+01 0.65356521302E+01 0.56515080833E+01 0.48817972531E+01 0.42318380224E+01
 0.36968022428E+01 0.32663863537E+01 0.29289387640E+01 0.26743701430E+01 0.24955532330E+01
 0.23883295271E+01 0.23507139537E+01 0.23820964205E+01 0.24829700282E+01 0.26552431046E+01
 0.29029008700E+01 0.32326731781E+01 0.36542069217E+01 0.41790709226E+01 0.48180690308E+01
 0.55769650336E+01 0.64515471629E+01 0.74234817928E+01 0.84582947665E+01 0.95061239501E+01
 0.10505057430E+02 0.11386497362E+02 0.12082210317E+02 0.12532883172E+02 0.12697287063E+02
 0.12559803953E+02 0.12133545634E+02 0.11457699525E+02 0.10590276618E+02 0.92711872544E+01
 0.83306611694E+01 0.74011212796E+01 0.65265282530E+01 0.57384271927E+01 0.50540725610E+01
 0.44776450494E+01 0.40039799092E+01 0.36234250676E+01 0.33262801519E+01 0.31056137475E+01
 0.29579865491E+01 0.28825023639E+01 0.28792463704E+01 0.29482071333E+01 0.30892814443E+01
 0.33032976473E+01 0.35934588781E+01 0.39662963385E+01 0.44311963577E+01 0.49979318482E+01
 0.56723854703E+01 0.64515471629E+01 0.73194723350E+01 0.82457885779E+01 0.91874123779E+01
 0.10092805320E+02 0.10907252333E+02 0.11577933046E+02 0.12058594612E+02 0.12314205850E+02
 0.12325368396E+02 0.12091231489E+02 0.11629612895E+02 0.10974282605E+02 0.10170658909E+02
 0.91541172019E+01 0.83211641480E+01 0.74959678750E+01 0.67192592042E+01 0.60205096475E+01
 0.54152486860E+01 0.49062427747E+01 0.44878263332E+01 0.41514752496E+01 0.38904067672E+01
 0.37017172732E+01 0.35858954396E+01 0.35447294562E+01 0.35791425180E+01 0.36882679237E+01
 0.38703042577E+01 0.41246610507E+01 0.44540505453E+01 0.48649905732E+01 0.53658209056E+01
 0.59624425659E+01 0.66530169638E+01 0.74234817928E+01 0.82457885779E+01 0.90800136123E+01
 0.98799256902E+01 0.10599935585E+02 0.11200802914E+02 0.11652540331E+02 0.11934747275E+02
 0.12035697392E+02 0.11951390023E+02 0.11685146456E+02 0.11247932977E+02 0.10659334381E+02
 0.99485479153E+01 0.92520246285E+01 0.85243644092E+01 0.78007021396E+01 0.71201308445E+01
 0.65095446479E+01 0.59815775410E+01 0.55370451431E+01 0.51702854906E+01 0.48750006960E+01
 0.46483584126E+01 0.44920444746E+01 0.44103578000E+01 0.44068353100E+01 0.44816289403E+01
 0.46313722850E+01 0.48516685307E+01 0.51405619715E+01 0.55006233386E+01 0.59380285040E+01
 0.64585947790E+01 0.70621348236E+01 0.77371906314E+01 0.84582947665E+01 0.91874123779E+01
 0.98799256902E+01 0.10493538052E+02 0.10996738953E+02 0.11373258329E+02 0.11620558827E+02
 0.11743383156E+02 0.11748615707E+02 0.11636626180E+02 0.11400714193E+02 0.11035782703E+02
 0.10543541745E+02 0.99389105946E+01 0.95612947987E+01 0.89392679229E+01 0.83205481235E+01
 0.77409828918E+01 0.72226234069E+01 0.67737347447E+01 0.63929840437E+01 0.60755305657E+01
 0.58186771847E+01 0.56250304570E+01 0.55018757053E+01 0.54571550241E+01 0.54945505572E+01
 0.56110539809E+01 0.57988371269E+01 0.60501499261E+01 0.63618249184E+01 0.67363712913E+01
 0.71789055383E+01 0.76913508121E+01 0.82662834051E+01 0.88827673910E+01 0.95061239501E+01
 0.10092805320E+02 0.10599935585E+02 0.10996738953E+02 0.11273133696E+02 0.11439907294E+02
 0.11520368390E+02 0.11543792272E+02 0.11524426095E+02 0.11450133999E+02 0.11292135115E+02
 0.11026314517E+02 0.10640478092E+02 0.10142469088E+02 0.10073430582E+02 0.95664883248E+01
 0.90646613372E+01 0.85968193863E+01 0.81776769359E+01 0.78101009904E+01 0.74907241970E+01
 0.72168373639E+01 0.69919696128E+01 0.68273040996E+01 0.67375902935E+01 0.67335849365E+01
 0.68158950558E+01 0.69745659960E+01 0.71947509756E+01 0.74644936045E+01 0.77795056641E+01
 0.81423088754E+01 0.85567185495E+01 0.90206949062E+01 0.95205326432E+01 0.10028458771E+02
 0.10505057430E+02 0.10907252333E+02 0.11200802914E+02 0.11373258329E+02 0.11439907294E+02
 0.11436297916E+02 0.11413843738E+02 0.11412462621E+02 0.11434092258E+02 0.11441484108E+02
 0.11382940166E+02 0.11221250265E+02 0.10938737301E+02 0.10545200709E+02 0.10780856638E+02
 0.10409080339E+02 0.10042438477E+02 0.96986795164E+01 0.93828510299E+01 0.90917251550E+01
 0.88212795457E+01 0.85749841499E+01 0.83685061859E+01 0.82266867358E+01 0.81730381730E+01
 0.82177814252E+01 0.83523592559E+01 0.85541395076E+01 0.87979415089E+01 0.90668162355E+01
 0.93560173062E+01 0.96692057404E+01 0.10010292896E+02 0.10375388720E+02 0.10747837494E+02
 0.11097690754E+02 0.11386497362E+02 0.11577933046E+02 0.11652540331E+02 0.11620558827E+02
 0.11520368390E+02 0.11413843738E+02 0.11366033376E+02 0.11406139558E+02 0.11509622671E+02
 0.11613315046E+02 0.11653602226E+02 0.11589786092E+02 0.11408488111E+02 0.11126951456E+02
 0.11678508306E+02 0.11467570934E+02 0.11253568518E+02 0.11039192815E+02 0.10817597002E+02
 0.10580253837E+02 0.10327937719E+02 0.10079822873E+02 0.98735116546E+01 0.97526049170E+01
 0.97470864511E+01 0.98583194883E+01 0.10058467691E+02 0.10304554198E+02 0.10557844682E+02
 0.10797075960E+02 0.11019815907E+02 0.11234273957E+02 0.11448124220E+02 0.11659845422E+02
 0.11854770036E+02 0.12006196207E+02 0.12082210317E+02 0.12058594612E+02 0.11934747275E+02
 0.11743383156E+02 0.11543792272E+02 0.11412462621E+02 0.11406139558E+02 0.11527682872E+02
 0.11724342161E+02 0.11919529542E+02 0.12051598361E+02 0.12084758951E+02 0.12016801863E+02
 0.11870719040E+02 0.12757843844E+02 0.12729064151E+02 0.12673114774E+02 0.12574015526E+02
 0.12412647487E+02 0.12180853103E+02 0.11896604381E+02 0.11609800082E+02 0.11389421256E+02
 0.11301500144E+02 0.11375582284E+02 0.11586448207E+02 0.11869914826E+02 0.12156563126E+02
 0.12394239922E+02 0.12562036323E+02 0.12666105095E+02 0.12725145238E+02 0.12755951519E+02
 0.12764496845E+02 0.12743073484E+02 0.12672903838E+02 0.12532883172E+02 0.12314205850E+02
 0.12035697392E+02 0.11748615707E+02 0.11524426095E+02 0.11434092258E+02 0.11509622671E+02
 0.11724342161E+02 0.12009216317E+02 0.12291348548E+02 0.12516777879E+02 0.12663707120E+02
 0.12739244660E+02 0.12764170186E+02 0.13995760235E+02 0.14153958424E+02 0.14236984833E+02
 0.14208483911E+02 0.14042169359E+02 0.13735820497E+02 0.13325282330E+02 0.12920219352E+02
 0.12661835159E+02 0.12650058787E+02 0.12889511646E+02 0.13287015044E+02 0.13702152146E+02
 0.14020081468E+02 0.14199090347E+02 0.14239324558E+02 0.14164908473E+02 0.14012010255E+02
 0.13811779413E+02 0.13581851485E+02 0.13324855271E+02 0.13032730189E+02 0.12697287063E+02
 0.12325368396E+02 0.11951390023E+02 0.11636626180E+02 0.11450133999E+02 0.11441484108E+02
 0.11613315046E+02 0.11919529542E+02 0.12291348548E+02 0.12665442679E+02 0.13004666082E+02
 0.13300347518E+02 0.13560106527E+02 0.13792418022E+02 0.15343232804E+02 0.15665279955E+02
 0.15834605036E+02 0.15789837369E+02 0.15456563946E+02 0.14851739412E+02 0.14131682123E+02
 0.13539153720E+02 0.13296911104E+02 0.13500300276E+02 0.14069296344E+02 0.14788611348E+02
 0.15412171356E+02 0.15772594913E+02 0.15840382204E+02 0.15687606842E+02 0.15376763014E+02
 0.14966705401E+02 0.14505832907E+02 0.14025081078E+02 0.13538300446E+02 0.13048527842E+02
 0.12559803953E+02 0.12091231489E+02 0.11685146456E+02 0.11400714193E+02 0.11292135115E+02
 0.11382940166E+02 0.11653602226E+02 0.12051598361E+02 0.12516777879E+02 0.13004666082E+02
 0.13494489901E+02 0.13981605370E+02 0.14463330680E+02 0.14926959878E+02 0.16717488237E+02
 0.17144631844E+02 0.17270009040E+02 0.16926237140E+02 0.16086364955E+02 0.14928728517E+02
 0.13800193481E+02 0.13088689671E+02 0.13055452048E+02 0.13713142767E+02 0.14819567616E+02
 0.15990991961E+02 0.16870034831E+02 0.17260169820E+02 0.17171128958E+02 0.16764347156E+02
 0.16174662385E+02 0.15485201726E+02 0.14760889638E+02 0.14044617085E+02 0.13359851610E+02
 0.12718618673E+02 0.12133545634E+02 0.11629612895E+02 0.11247932977E+02 0.11035782703E+02
 0.11026314517E+02 0.11221250265E+02 0.11589786092E+02 0.12084758951E+02 0.12663707120E+02
 0.13300347518E+02 0.13981605370E+02 0.14695881933E+02 0.15420920887E+02 0.16115739101E+02
 0.17997727717E+02 0.18344812548E+02 0.18048643186E+02 0.16999642270E+02 0.15350830838E+02
 0.13519920876E+02 0.12067963147E+02 0.11484188065E+02 0.11973952132E+02 0.13364761466E+02
 0.15185268722E+02 0.16871109114E+02 0.17984754358E+02 0.18347693863E+02 0.18048741230E+02
 0.17350478118E+02 0.16468128470E+02 0.15507983424E+02 0.14547612659E+02 0.13638197547E+02
 0.12809156926E+02 0.12077176533E+02 0.11457699525E+02 0.10974282605E+02 0.10659334381E+02
 0.10543541745E+02 0.10640478092E+02 0.10938737301E+02 0.11408488111E+02 0.12016801863E+02
 0.12739244660E+02 0.13560106527E+02 0.14463330680E+02 0.15420920887E+02 0.16383791958E+02
 0.17276859186E+02 0.18910600216E+02 0.18753365466E+02 0.17598520739E+02 0.15517988393E+02
 0.12935048254E+02 0.10541376844E+02 0.90695435059E+01 0.90020636323E+01 0.10361544302E+02
 0.12700566113E+02 0.15297263169E+02 0.17445276289E+02 0.18691541879E+02 0.18933039162E+02
 0.18371663124E+02 0.17376265261E+02 0.16222578104E+02 0.15032419954E+02 0.13890548430E+02
 0.12851379720E+02 0.11945055045E+02 0.11187258549E+02 0.10590276618E+02 0.10170658909E+02
 0.99485479153E+01 0.99389105946E+01 0.10142469088E+02 0.10545200709E+02 0.11126951456E+02
 0.11870719040E+02 0.12764170186E+02 0.13792418022E+02 0.14926959878E+02 0.16115739101E+02
 0.17276859186E+02 0.18293966460E+02 0.17475679370E+02 0.16028764933E+02 0.13552235402E+02
 0.10565544194E+02 0.78496574161E+01 0.61983841222E+01 0.61232190762E+01 0.76477606088E+01
 0.10298135001E+02 0.13294372648E+02 0.15842955419E+02 0.17394012201E+02 0.17769744622E+02
 0.17146614406E+02 0.15930186907E+02 0.14521977751E+02 0.13099163175E+02 0.11768227328E+02
 0.10596588542E+02 0.96163371632E+01 0.88351873771E+01 0.82498801636E+01 0.78566115554E+01
 0.76550100961E+01 0.76463825660E+01 0.78307093152E+01 0.82066489506E+01 0.87744947988E+01
 0.95379374799E+01 0.10500481918E+02 0.11655733837E+02 0.12974363644E+02 0.14392633938E+02
 0.15807555178E+02 0.17054587867E+02 0.17749837247E+02 0.16028764933E+02 0.13465426044E+02
 0.10036468176E+02 0.65274521526E+01 0.38685202638E+01 0.28223310653E+01 0.37001382672E+01
 0.62402766843E+01 0.97106197239E+01 0.13182841362E+02 0.15847608059E+02 0.17241874644E+02
 0.17323792911E+02 0.16403275538E+02 0.14977657916E+02 0.13438893007E+02 0.11945062835E+02
 0.10596332660E+02 0.94488667818E+01 0.85222847594E+01 0.78141071587E+01 0.73141699338E+01
 0.70137307906E+01 0.69082209189E+01 0.69963218324E+01 0.72790769673E+01 0.77607410630E+01
 0.84497826189E+01 0.93564877621E+01 0.10484464080E+02 0.11816683053E+02 0.13300806498E+02
 0.14840743642E+02 0.16287848940E+02 0.17275482352E+02 0.17300623958E+02 0.13552235402E+02
 0.10036468176E+02 0.60443847136E+01 0.25359556328E+01 0.44172360476E+00 0.34641444476E+00
 0.22772376315E+01 0.56936271881E+01 0.96835409501E+01 0.13276280693E+02 0.15739612219E+02
 0.16756365526E+02 0.16442664644E+02 0.15232101238E+02 0.13670161353E+02 0.12077216345E+02
 0.10589782300E+02 0.92941308952E+01 0.82292159322E+01 0.73998097093E+01 0.67940532659E+01
 0.63969331641E+01 0.61969911405E+01 0.61883574859E+01 0.63709015147E+01 0.67500312880E+01
 0.73365245237E+01 0.81451233691E+01 0.91885804524E+01 0.10464493806E+02 0.11937548612E+02
 0.13525769220E+02 0.15098263753E+02 0.16362344124E+02 0.16778030444E+02 0.15891703560E+02
 0.10565544194E+02 0.65274521526E+01 0.25359556328E+01 -.42413356583E+00 -.15765571165E+01
 -.61064020183E+00 0.22130350901E+01 0.61512415468E+01 0.10225113337E+02 0.13527728097E+02
 0.15478054236E+02 0.15940302272E+02 0.15188174834E+02 0.13748939814E+02 0.12133793495E+02
 0.10561790056E+02 0.91510024303E+01 0.79660749958E+01 0.70252735549E+01 0.63194914556E+01
 0.58305539013E+01 0.55416064467E+01 0.54411675708E+01 0.55249460563E+01 0.57965824935E+01
 0.62669472674E+01 0.69524596048E+01 0.78714740444E+01 0.90346184359E+01 0.10426959335E+02
 0.11988528754E+02 0.13605831161E+02 0.15077973678E+02 0.15915697946E+02 0.15579096547E+02
 0.13763930099E+02 0.78496574161E+01 0.38685202638E+01 0.44172360476E+00 -.15765571165E+01
 -.16674449538E+01 0.19229896975E+00 0.35235573881E+01 0.74932149879E+01 0.11168810884E+02
 0.13793404072E+02 0.14985975751E+02 0.14802613014E+02 0.13650314075E+02 0.12091466710E+02
 0.10495040279E+02 0.90114759440E+01 0.77330361006E+01 0.66973811503E+01 0.59029518800E+01
 0.53308555218E+01 0.49604763406E+01 0.47759131710E+01 0.47681489341E+01 0.49366006776E+01
 0.52895089757E+01 0.58425633120E+01 0.66162878582E+01 0.76299295364E+01 0.88872149086E+01
 0.10355056309E+02 0.11946604476E+02 0.13518515472E+02 0.14730689867E+02 0.15021660515E+02
 0.13961515012E+02 0.11457084909E+02 0.61983841222E+01 0.28223310653E+01 0.34641444476E+00
 -.61064020183E+00 0.19229896975E+00 0.25521864243E+01 0.58785993106E+01 0.93612760107E+01
 0.12205935824E+02 0.13864670436E+02 0.14177983965E+02 0.13376756918E+02 0.11951213237E+02
 0.10379589504E+02 0.88661999745E+01 0.75252506073E+01 0.64151951262E+01 0.55465469322E+01
 0.49030792012E+01 0.44616399977E+01 0.42025520139E+01 0.41128756577E+01 0.41877383389E+01
 0.44311287418E+01 0.48553841402E+01 0.54797686224E+01 0.63273511272E+01 0.74155514284E+01
 0.87372400921E+01 0.10239007070E+02 0.11811345263E+02 0.13265624273E+02 0.14145340360E+02
 0.13947095774E+02 0.12409635347E+02 0.96545787024E+01 0.61232190762E+01 0.37001382672E+01
 0.22772376315E+01 0.22130350901E+01 0.35235573881E+01 0.58785993106E+01 0.86841552818E+01
 0.11243912909E+02 0.12964851704E+02 0.13536955135E+02 0.13012131457E+02 0.11748281363E+02
 0.10225017637E+02 0.87124625735E+01 0.73371430059E+01 0.61742459770E+01 0.52471439809E+01
 0.45448759563E+01 0.40437718894E+01 0.37212969601E+01 0.35610286408E+01 0.35541285601E+01
 0.37003216626E+01 0.40077714427E+01 0.44920533694E+01 0.51751098002E+01 0.60810764502E+01
 0.72231165712E+01 0.85817683584E+01 0.10086495578E+02 0.11615225314E+02 0.12921310146E+02
 0.13530902953E+02 0.13065432782E+02 0.11440803820E+02 0.89354208041E+01 0.76477606088E+01
 0.62402766843E+01 0.56936271881E+01 0.61512415468E+01 0.74932149879E+01 0.93612760107E+01
 0.11243912909E+02 0.12621203825E+02 0.13133115775E+02 0.12701360980E+02 0.11543366295E+02
 0.10063040266E+02 0.85615212851E+01 0.71693914252E+01 0.59707281596E+01 0.49995837767E+01
 0.42508760413E+01 0.37013130899E+01 0.33262443595E+01 0.31067516690E+01 0.30308751897E+01
 0.30941818930E+01 0.33003557026E+01 0.36607443626E+01 0.41936880433E+01 0.49234383587E+01
 0.58739194246E+01 0.70527932326E+01 0.84302927322E+01 0.99266526951E+01 0.11416826110E+02
 0.12621343916E+02 0.13131090021E+02 0.12705904298E+02 0.11396017654E+02 0.95393297181E+01
 0.10298135001E+02 0.97106197239E+01 0.96835409501E+01 0.10225113337E+02 0.11168810884E+02
 0.12205935824E+02 0.12964851704E+02 0.13133115775E+02 0.12579666827E+02 0.11413481285E+02
 0.99385130714E+01 0.84365263151E+01 0.70315487586E+01 0.58065884858E+01 0.48011797107E+01
 0.40154420379E+01 0.34272319269E+01 0.30097863564E+01 0.27415309859E+01 0.26082629050E+01
 0.26026645794E+01 0.27242834888E+01 0.29797713127E+01 0.33829445092E+01 0.39548639932E+01
 0.47218711127E+01 0.57069619733E+01 0.69129888707E+01 0.83046711984E+01 0.98024062730E+01
 0.11288030410E+02 0.12495977492E+02 0.13112248854E+02 0.13007285651E+02 0.12291373657E+02
 0.11264538328E+02 0.13294372648E+02 0.13182841362E+02 0.13276280693E+02 0.13527728097E+02
 0.13793404072E+02 0.13864670436E+02 0.13536955135E+02 0.12701360980E+02 0.11413481285E+02
 0.98917032464E+01 0.83647659768E+01 0.69387702645E+01 0.56887508456E+01 0.46538152730E+01
 0.38364891560E+01 0.32158953636E+01 0.27639724650E+01 0.24563621313E+01 0.22761811480E+01
 0.22137760838E+01 0.22658479681E+01 0.24351409938E+01 0.27307034568E+01 0.31687425093E+01
 0.37730257262E+01 0.45715977109E+01 0.55865762706E+01 0.68182348504E+01 0.82310878031E+01
 0.97527910888E+01 0.11282154352E+02 0.12601680630E+02 0.13482482887E+02 0.13853401603E+02
 0.13810817879E+02 0.13554130239E+02 0.15842955419E+02 0.15847608059E+02 0.15739612219E+02
 0.15478054236E+02 0.14985975751E+02 0.14177983965E+02 0.13012131457E+02 0.11543366295E+02
 0.99385130714E+01 0.83647659768E+01 0.69058235480E+01 0.56264249835E+01 0.45619387019E+01
 0.37149296211E+01 0.30649852510E+01 0.25831472229E+01 0.22428376434E+01 0.20245013719E+01
 0.19159219132E+01 0.19112551880E+01 0.20103243703E+01 0.22184669409E+01 0.25471499880E+01
 0.30151869965E+01 0.36487485299E+01 0.44770144292E+01 0.55216456129E+01 0.67826044194E+01
 0.82277022305E+01 0.97944025823E+01 0.11401675574E+02 0.12890786730E+02 0.14087459419E+02
 0.14926855683E+02 0.15444347554E+02 0.15723449868E+02 0.17394012201E+02 0.17241874644E+02
 0.16756365526E+02 0.15940302272E+02 0.14802613014E+02 0.13376756918E+02 0.11748281363E+02
 0.10063040266E+02 0.84365263151E+01 0.69387702645E+01 0.56264249835E+01 0.45305761418E+01
 0.36530908122E+01 0.29740150261E+01 0.24640031933E+01 0.20947707668E+01 0.18443373142E+01
 0.16979632113E+01 0.16473033724E+01 0.16895490143E+01 0.18270759182E+01 0.20676709714E+01
 0.24254086381E+01 0.29216416385E+01 0.35842836174E+01 0.44429145455E+01 0.55187546080E+01
 0.68123254452E+01 0.82953498066E+01 0.99131500829E+01 0.11596716790E+02 0.13237068913E+02
 0.14685566673E+02 0.15850961480E+02 0.16696384514E+02 0.17211755098E+02 0.17769744622E+02
 0.17323792911E+02 0.16442664644E+02 0.15188174834E+02 0.13650314075E+02 0.11951213237E+02
 0.10225017637E+02 0.85615212851E+01 0.70315487586E+01 0.56887508456E+01 0.45619387019E+01
 0.36530908122E+01 0.29435560391E+01 0.24047340838E+01 0.20076868935E+01 0.17285904655E+01
 0.15502986451E+01 0.14619383472E+01 0.14581718375E+01 0.15387799673E+01 0.17086305170E+01
 0.19780545973E+01 0.23636005985E+01 0.28885375995E+01 0.35815142389E+01 0.44714611687E+01
 0.55783109412E+01 0.69023001061E+01 0.84171925851E+01 0.10071433013E+02 0.11795423675E+02
 0.13502192208E+02 0.15060113112E+02 0.16344075594E+02 0.17261585704E+02 0.17748463458E+02
 0.17146614406E+02 0.16403275538E+02 0.15232101238E+02 0.13748939814E+02 0.12091466710E+02
 0.10379589504E+02 0.87124625735E+01 0.71693914252E+01 0.58065884858E+01 0.46538152730E+01
 0.37149296211E+01 0.29740150261E+01 0.24047340838E+01 0.19789437881E+01 0.16720658316E+01
 0.14651357739E+01 0.13449122806E+01 0.13034794592E+01 0.13380427134E+01 0.14509227545E+01
 0.16495860224E+01 0.19467906165E+01 0.23609507377E+01 0.29161745625E+01 0.36405048103E+01
 0.45607999465E+01 0.56942298584E+01 0.70388853645E+01 0.85674209221E+01 0.10226087704E+02
 0.11937704262E+02 0.13604804400E+02 0.15109472260E+02 0.16314045911E+02 0.17099602360E+02
 0.17386967390E+02 0.15930186907E+02 0.14977657916E+02 0.13670161353E+02 0.12133793495E+02
 0.10495040279E+02 0.88661999745E+01 0.73371430059E+01 0.59707281596E+01 0.48011797107E+01
 0.38364891560E+01 0.30649852510E+01 0.24640031933E+01 0.20076868935E+01 0.16720658316E+01
 0.14373479241E+01 0.12884876894E+01 0.12152035912E+01 0.12121034470E+01 0.12789302113E+01
 0.14206189124E+01 0.16470629623E+01 0.19728805643E+01 0.24173917847E+01 0.30042574987E+01
 0.37594333986E+01 0.47062103554E+01 0.58574697618E+01 0.72071023827E+01 0.87234008164E+01
 0.10346296047E+02 0.11988412888E+02 0.13539182581E+02 0.14872735339E+02 0.15862026606E+02
 0.16400087727E+02 0.16423755976E+02 0.14521977751E+02 0.13438893007E+02 0.12077216345E+02
 0.10561790056E+02 0.90114759440E+01 0.75252506073E+01 0.61742459770E+01 0.49995837767E+01
 0.40154420379E+01 0.32158953636E+01 0.25831472229E+01 0.20947707668E+01 0.17285904655E+01
 0.14651357739E+01 0.12884876894E+01 0.11865766705E+01 0.11516284929E+01 0.11807784749E+01
 0.12764075278E+01 0.14458872551E+01 0.17009482458E+01 0.20571585745E+01 0.25336346363E+01
 0.31523632100E+01 0.39359916288E+01 0.49031146469E+01 0.60610677654E+01 0.73976484386E+01
 0.88741817073E+01 0.10422223683E+02 0.11945237159E+02 0.13325831341E+02 0.14438972170E+02
 0.15170758312E+02 0.15439764120E+02 0.15214756928E+02 0.13099163175E+02 0.11945062835E+02
 0.10589782300E+02 0.91510024303E+01 0.77330361006E+01 0.64151951262E+01 0.52471439809E+01
 0.42508760413E+01 0.34272319269E+01 0.27639724650E+01 0.22428376434E+01 0.18443373142E+01
 0.15502986451E+01 0.13449122806E+01 0.12152035912E+01 0.11516284929E+01 0.11489375607E+01
 0.12068895078E+01 0.13303034005E+01 0.15283995877E+01 0.18138904523E+01 0.22023064927E+01
 0.27115535099E+01 0.33610625920E+01 0.41694910960E+01 0.51500551391E+01 0.63034398534E+01
 0.76096643327E+01 0.90214970657E+01 0.10462208272E+02 0.11829560546E+02 0.13006590001E+02
 0.13878252795E+02 0.14351196699E+02 0.14371973992E+02 0.13938238025E+02 0.11768227328E+02
 0.10596332660E+02 0.92941308952E+01 0.79660749958E+01 0.66973811503E+01 0.55465469322E+01
 0.45448759563E+01 0.37013130899E+01 0.30097863564E+01 0.24563621313E+01 0.20245013719E+01
 0.16979632113E+01 0.14619383472E+01 0.13034794592E+01 0.12121034470E+01 0.11807784749E+01
 0.12068895078E+01 0.12926390339E+01 0.14446792801E+01 0.16732170557E+01 0.19910464022E+01
 0.24128501835E+01 0.29546998683E+01 0.36330841861E+01 0.44623559391E+01 0.54497242456E+01
 0.65880542935E+01 0.78482796312E+01 0.91742700061E+01 0.10482917371E+02 0.11671042211E+02
 0.12628891369E+02 0.13257942346E+02 0.13488985366E+02 0.13295750060E+02 0.12700235369E+02
 0.10596588542E+02 0.94488667818E+01 0.82292159322E+01 0.70252735549E+01 0.59029518800E+01
 0.49030792012E+01 0.40437718894E+01 0.33262443595E+01 0.27415309859E+01 0.22761811480E+01
 0.19159219132E+01 0.16473033724E+01 0.14581718375E+01 0.13380427134E+01 0.12789302113E+01
 0.12764075278E+01 0.13303034005E+01 0.14446792801E+01 0.16271824759E+01 0.18881261551E+01
 0.22396517336E+01 0.26951500035E+01 0.32687034807E+01 0.39737416109E+01 0.48198473914E+01
 0.58072408434E+01 0.69198095019E+01 0.81188989615E+01 0.93406155436E+01 0.10498841748E+02
 0.11494711650E+02 0.12231333247E+02 0.12630648476E+02 0.12648228071E+02 0.12282062735E+02
 0.11572981001E+02 0.96163371632E+01 0.85222847594E+01 0.73998097093E+01 0.63194914556E+01
 0.53308555218E+01 0.44616399977E+01 0.37212969601E+01 0.31067516690E+01 0.26082629050E+01
 0.22137760838E+01 0.19112551880E+01 0.16895490143E+01 0.15387799673E+01 0.14509227545E+01
 0.14206189124E+01 0.14458872551E+01 0.15283995877E+01 0.16732170557E+01 0.18881261551E+01
 0.21828752150E+01 0.25685864039E+01 0.30573007186E+01 0.36611050812E+01 0.43899722770E+01
 0.52477072533E+01 0.62262765578E+01 0.72999140309E+01 0.84211808510E+01 0.95211792603E+01
 0.10515250207E+02 0.11313942931E+02 0.11837322032E+02 0.12029367914E+02 0.11868807842E+02
 0.11373407009E+02 0.10596446208E+02 0.88351873771E+01 0.78141071587E+01 0.67940532659E+01
 0.58305539013E+01 0.49604763406E+01 0.42025520139E+01 0.35610286408E+01 0.30308751897E+01
 0.26026645794E+01 0.22658479681E+01 0.20103243703E+01 0.18270759182E+01 0.17086305170E+01
 0.16495860224E+01 0.16470629623E+01 0.17009482458E+01 0.18138904523E+01 0.19910464022E+01
 0.22396517336E+01 0.25685864039E+01 0.29879928365E+01 0.35086011045E+01 0.41400695017E+01
 0.48877997685E+01 0.57483660023E+01 0.67045210580E+01 0.77213130096E+01 0.87449706291E+01
 0.97058397555E+01 0.10525767610E+02 0.11129094449E+02 0.11455172912E+02 0.11469505833E+02
 0.11170524356E+02 0.10589955760E+02 0.97865707252E+01 0.82498801636E+01 0.73141699338E+01
 0.63969331641E+01 0.55416064467E+01 0.47759131710E+01 0.41128756577E+01 0.35541285601E+01
 0.30941818930E+01 0.27242834888E+01 0.24351409938E+01 0.22184669409E+01 0.20676709714E+01
 0.19780545973E+01 0.19467906165E+01 0.19728805643E+01 0.20571585745E+01 0.22023064927E+01
 0.24128501835E+01 0.26951500035E+01 0.30573007186E+01 0.35086011045E+01 0.40580808791E+01
 0.47117419548E+01 0.54686903262E+01 0.63169517006E+01 0.72301634287E+01 0.81663334242E+01
 0.90694854946E+01 0.98744619683E+01 0.10514582587E+02 0.10931219435E+02 0.11083559498E+02
 0.10956155021E+02 0.10561953428E+02 0.99397536611E+01 0.91469537848E+01 0.78566115554E+01
 0.70137307906E+01 0.61969911405E+01 0.54411675708E+01 0.47681489341E+01 0.41877383389E+01
 0.37003216626E+01 0.33003557026E+01 0.29797713127E+01 0.27307034568E+01 0.25471499880E+01
 0.24254086381E+01 0.23636005985E+01 0.23609507377E+01 0.24173917847E+01 0.25336346363E+01
 0.27115535099E+01 0.29546998683E+01 0.32687034807E+01 0.36611050812E+01 0.41400695017E+01
 0.47117419548E+01 0.53766201479E+01 0.61258447627E+01 0.69385010536E+01 0.77808296543E+01
 0.86077474438E+01 0.93665109007E+01 0.10002034502E+02 0.10463356788E+02 0.10710627960E+02
 0.10721447801E+02 0.10494828755E+02 0.10051368134E+02 0.94295661147E+01 0.86796446293E+01
 0.76550100961E+01 0.69082209189E+01 0.61883574859E+01 0.55249460563E+01 0.49366006776E+01
 0.44311287418E+01 0.40077714427E+01 0.36607443626E+01 0.33829445092E+01 0.31687425093E+01
 0.30151869965E+01 0.29216416385E+01 0.28885375995E+01 0.29161745625E+01 0.30042574987E+01
 0.31523632100E+01 0.33610625920E+01 0.36330841861E+01 0.39737416109E+01 0.43899722770E+01
 0.48877997685E+01 0.54686903262E+01 0.61258447627E+01 0.68416927547E+01 0.75875756975E+01
 0.83258417635E+01 0.90136864569E+01 0.96076300598E+01 0.10067808787E+02 0.10361854440E+02
 0.10468330044E+02 0.10379319802E+02 0.10101463884E+02 0.96550661624E+01 0.90716273127E+01
 0.83904934502E+01 0.76463825660E+01 0.69963218324E+01 0.63709015147E+01 0.57965824935E+01
 0.52895089757E+01 0.48553841402E+01 0.44920533694E+01 0.41936880433E+01 0.39548639932E+01
 0.37730257262E+01 0.36487485299E+01 0.35842836174E+01 0.35815142389E+01 0.36405048103E+01
 0.37594333986E+01 0.39359916288E+01 0.41694910960E+01 0.44623559391E+01 0.48198473914E+01
 0.52477072533E+01 0.57483660023E+01 0.63169517006E+01 0.69385010536E+01 0.75875756975E+01
 0.82307901173E+01 0.88315717702E+01 0.93554124293E+01 0.97737749572E+01 0.10065814342E+02
 0.10218322503E+02 0.10224914886E+02 0.10085345519E+02 0.98054406284E+01 0.93977335381E+01
 0.88823593872E+01 0.82872227497E+01 0.78307093152E+01 0.72790769673E+01 0.67500312880E+01
 0.62669472674E+01 0.58425633120E+01 0.54797686224E+01 0.51751098002E+01 0.49234383587E+01
 0.47218711127E+01 0.45715977109E+01 0.44770144292E+01 0.44429145455E+01 0.44714611687E+01
 0.45607999465E+01 0.47062103554E+01 0.49031146469E+01 0.51500551391E+01 0.54497242456E+01
 0.58072408434E+01 0.62262765578E+01 0.67045210580E+01 0.72301634287E+01 0.77808296543E+01
 0.83258417635E+01 0.88315717702E+01 0.92682028499E+01 0.96152040642E+01 0.98631755560E+01
 0.10011467890E+02 0.10063122578E+02 0.10019966439E+02 0.98804833663E+01 0.96415840267E+01
 0.93033484437E+01 0.88741979190E+01 0.83736127305E+01 0.82066489506E+01 0.77607410630E+01
 0.73365245237E+01 0.69524596048E+01 0.66162878582E+01 0.63273511272E+01 0.60810764502E+01
 0.58739194246E+01 0.57069619733E+01 0.55865762706E+01 0.55216456129E+01 0.55187546080E+01
 0.55783109412E+01 0.56942298584E+01 0.58574697618E+01 0.60610677654E+01 0.63034398534E+01
 0.65880542935E+01 0.69198095019E+01 0.72999140309E+01 0.77213130096E+01 0.81663334242E+01
 0.86077474438E+01 0.90136864569E+01 0.93554124293E+01 0.96152040642E+01 0.97906927310E+01
 0.98929920544E+01 0.99388868053E+01 0.99406957394E+01 0.98990622752E+01 0.98025761130E+01
 0.96344296606E+01 0.93825056410E+01 0.90476631810E+01 0.86463214235E+01 0.87744947988E+01
 0.84497826189E+01 0.81451233691E+01 0.78714740444E+01 0.76299295364E+01 0.74155514284E+01
 0.72231165712E+01 0.70527932326E+01 0.69129888707E+01 0.68182348504E+01 0.67826044194E+01
 0.68123254452E+01 0.69023001061E+01 0.70388853645E+01 0.72071023827E+01 0.73976484386E+01
 0.76096643327E+01 0.78482796312E+01 0.81188989615E+01 0.84211808510E+01 0.87449706291E+01
 0.90694854946E+01 0.93665109007E+01 0.96076300598E+01 0.97737749572E+01 0.98631755560E+01
 0.98929920544E+01 0.98921638193E+01 0.98877595160E+01 0.98914719106E+01 0.98936070955E+01
 0.98680017093E+01 0.97851141020E+01 0.96261299942E+01 0.93910410943E+01 0.90977792487E+01
 0.95379374799E+01 0.93564877621E+01 0.91885804524E+01 0.90346184359E+01 0.88872149086E+01
 0.87372400921E+01 0.85817683584E+01 0.84302927322E+01 0.83046711984E+01 0.82310878031E+01
 0.82277022305E+01 0.82953498066E+01 0.84171925851E+01 0.85674209221E+01 0.87234008164E+01
 0.88741817073E+01 0.90214970657E+01 0.91742700061E+01 0.93406155436E+01 0.95211792603E+01
 0.97058397555E+01 0.98744619683E+01 0.10002034502E+02 0.10067808787E+02 0.10065814342E+02
 0.10011467890E+02 0.99388868053E+01 0.98877595160E+01 0.98852706191E+01 0.99327999019E+01
 0.10005176021E+02 0.10062974253E+02 0.10070694291E+02 0.10010895900E+02 0.98879675157E+01
 0.97219677481E+01 0.10500481918E+02 0.10484464080E+02 0.10464493806E+02 0.10426959335E+02
 0.10355056309E+02 0.10239007070E+02 0.10086495578E+02 0.99266526951E+01 0.98024062730E+01
 0.97527910888E+01 0.97944025823E+01 0.99131500829E+01 0.10071433013E+02 0.10226087704E+02
 0.10346296047E+02 0.10422223683E+02 0.10462208272E+02 0.10482917371E+02 0.10498841748E+02
 0.10515250207E+02 0.10525767610E+02 0.10514582587E+02 0.10463356788E+02 0.10361854440E+02
 0.10218322503E+02 0.10063122578E+02 0.99406957394E+01 0.98914719106E+01 0.99327999019E+01
 0.10050210237E+02 0.10204576163E+02 0.10350754146E+02 0.10456514635E+02 0.10511807719E+02
 0.10525831983E+02 0.10516673934E+02 0.11655733837E+02 0.11816683053E+02 0.11937548612E+02
 0.11988528754E+02 0.11946604476E+02 0.11811345263E+02 0.11615225314E+02 0.11416826110E+02
 0.11288030410E+02 0.11282154352E+02 0.11401675574E+02 0.11596716790E+02 0.11795423675E+02
 0.11937704262E+02 0.11988412888E+02 0.11945237159E+02 0.11829560546E+02 0.11671042211E+02
 0.11494711650E+02 0.11313942931E+02 0.11129094449E+02 0.10931219435E+02 0.10710627960E+02
 0.10468330044E+02 0.10224914886E+02 0.10019966439E+02 0.98990622752E+01 0.98936070955E+01
 0.10005176021E+02 0.10204576163E+02 0.10446426216E+02 0.10689778528E+02 0.10912338206E+02
 0.11111890036E+02 0.11297625115E+02 0.11478710835E+02 0.12974363644E+02 0.13300806498E+02
 0.13525769220E+02 0.13605831161E+02 0.13518515472E+02 0.13265624273E+02 0.12921310146E+02
 0.12621343916E+02 0.12495977492E+02 0.12601680630E+02 0.12890786730E+02 0.13237068913E+02
 0.13502192208E+02 0.13604804400E+02 0.13539182581E+02 0.13325831341E+02 0.13006590001E+02
 0.12628891369E+02 0.12231333247E+02 0.11837322032E+02 0.11455172912E+02 0.11083559498E+02
 0.10721447801E+02 0.10379319802E+02 0.10085345519E+02 0.98804833663E+01 0.98025761130E+01
 0.98680017093E+01 0.10062974253E+02 0.10350754146E+02 0.10689778528E+02 0.11050494350E+02
 0.11421239738E+02 0.11802484721E+02 0.12195720262E+02 0.12593615527E+02 0.14392633938E+02
 0.14840743642E+02 0.15098263753E+02 0.15077973678E+02 0.14730689867E+02 0.14145340360E+02
 0.13530902953E+02 0.13131090021E+02 0.13112248854E+02 0.13482482887E+02 0.14087459419E+02
 0.14685566673E+02 0.15060113112E+02 0.15109472260E+02 0.14872735339E+02 0.14438972170E+02
 0.13878252795E+02 0.13257942346E+02 0.12630648476E+02 0.12029367914E+02 0.11469505833E+02
 0.10956155021E+02 0.10494828755E+02 0.10101463884E+02 0.98054406284E+01 0.96415840267E+01
 0.96344296606E+01 0.97851141020E+01 0.10070694291E+02 0.10456514635E+02 0.10912338206E+02
 0.11421239738E+02 0.11977194777E+02 0.12575330616E+02 0.13201326763E+02 0.13824004924E+02
 0.15807555178E+02 0.16287848940E+02 0.16362344124E+02 0.15915697946E+02 0.15021660515E+02
 0.13947095774E+02 0.13065432782E+02 0.12705904298E+02 0.13007285651E+02 0.13853401603E+02
 0.14926855683E+02 0.15850961480E+02 0.16344075594E+02 0.16314045911E+02 0.15862026606E+02
 0.15170758312E+02 0.14351196699E+02 0.13488985366E+02 0.12648228071E+02 0.11868807842E+02
 0.11170524356E+02 0.10561953428E+02 0.10051368134E+02 0.96550661624E+01 0.93977335381E+01
 0.93033484437E+01 0.93825056410E+01 0.96261299942E+01 0.10010895900E+02 0.10511807719E+02
 0.11111890036E+02 0.11802484721E+02 0.12575330616E+02 0.13411857906E+02 0.14274272283E+02
 0.15100841865E+02 0.17054587867E+02 0.17275482352E+02 0.16778030444E+02 0.15579096547E+02
 0.13961515012E+02 0.12409635347E+02 0.11440803820E+02 0.11396017654E+02 0.12291373657E+02
 0.13810817879E+02 0.15444347554E+02 0.16696384514E+02 0.17261585704E+02 0.17099602360E+02
 0.16400087727E+02 0.15439764120E+02 0.14371973992E+02 0.13295750060E+02 0.12282062735E+02
 0.11373407009E+02 0.10589955760E+02 0.99397536611E+01 0.94295661147E+01 0.90716273127E+01
 0.88823593872E+01 0.88741979190E+01 0.90476631810E+01 0.93910410943E+01 0.98879675157E+01
 0.10525831983E+02 0.11297625115E+02 0.12195720262E+02 0.13201326763E+02 0.14274272283E+02
 0.15346389593E+02 0.16321050206E+02 0.17749837247E+02 0.17300623958E+02 0.15891703560E+02
 0.13763930099E+02 0.11457084909E+02 0.96545787024E+01 0.89354208041E+01 0.95393297181E+01
 0.11264538328E+02 0.13554130239E+02 0.15723449868E+02 0.17211755098E+02 0.17748463458E+02
 0.17386967390E+02 0.16423755976E+02 0.15214756928E+02 0.13938238025E+02 0.12700235369E+02
 0.11572981001E+02 0.10596446208E+02 0.97865707252E+01 0.91469537848E+01 0.86796446293E+01
 0.83904934502E+01 0.82872227497E+01 0.83736127305E+01 0.86463214235E+01 0.90977792487E+01
 0.97219677481E+01 0.10516673934E+02 0.11478710835E+02 0.12593615527E+02 0.13824004924E+02
 0.15100841865E+02 0.16321050206E+02 0.17319363074E+02 0.16278538103E+02 0.14846737614E+02
 0.12702817975E+02 0.10408869453E+02 0.86358698124E+01 0.79328079797E+01 0.85230651393E+01
 0.10218725801E+02 0.12492953782E+02 0.14676222488E+02 0.16188514721E+02 0.16714669284E+02
 0.16267187623E+02 0.15131576920E+02 0.13711504250E+02 0.12245894604E+02 0.10853827168E+02
 0.96162306491E+01 0.85742511268E+01 0.77377901366E+01 0.70996796856E+01 0.66487518932E+01
 0.63771867080E+01 0.62816687155E+01 0.63614265558E+01 0.66170145447E+01 0.70514961889E+01
 0.76723784133E+01 0.84906899239E+01 0.95142709071E+01 0.10735318266E+02 0.12116112037E+02
 0.13579506016E+02 0.15009935742E+02 0.16187604338E+02 0.16711855650E+02 0.14846737614E+02
 0.12578001052E+02 0.98654646685E+01 0.74273843828E+01 0.59578669164E+01 0.58908598557E+01
 0.72464417354E+01 0.96235257677E+01 0.12342213015E+02 0.14676290920E+02 0.16083362194E+02
 0.16350103880E+02 0.15612087737E+02 0.14257242333E+02 0.12715001881E+02 0.11187294057E+02
 0.97864192600E+01 0.85809958915E+01 0.75976520772E+01 0.68343995021E+01 0.62770424515E+01
 0.59109958549E+01 0.57263267933E+01 0.57183543777E+01 0.58869640397E+01 0.62364483641E+01
 0.67761304361E+01 0.75201949926E+01 0.84833189572E+01 0.96693301163E+01 0.11054797098E+02
 0.12575075382E+02 0.14121490016E+02 0.15508492937E+02 0.16320568427E+02 0.16154565290E+02
 0.12702817975E+02 0.98654646685E+01 0.69848934106E+01 0.48235062759E+01 0.39782348225E+01
 0.46868024984E+01 0.67497999335E+01 0.95960803771E+01 0.12468376683E+02 0.14662974007E+02
 0.15737775180E+02 0.15617359543E+02 0.14566475581E+02 0.13052399474E+02 0.11457855268E+02
 0.99396158505E+01 0.85964451857E+01 0.74784467302E+01 0.65951479482E+01 0.59335903484E+01
 0.54749398551E+01 0.52033749551E+01 0.51088365886E+01 0.51877004946E+01 0.54430203907E+01
 0.58842983686E+01 0.65268696315E+01 0.73895130894E+01 0.84863000321E+01 0.98105494124E+01
 0.11316380709E+02 0.12909268786E+02 0.14441637857E+02 0.15554821980E+02 0.15774061532E+02
 0.14809475294E+02 0.10408869453E+02 0.74273843828E+01 0.48235062759E+01 0.32805079286E+01
 0.32106718172E+01 0.46325963335E+01 0.71659671756E+01 0.10144685359E+02 0.12817667708E+02
 0.14575604988E+02 0.15124959310E+02 0.14545916031E+02 0.13218033013E+02 0.11629768222E+02
 0.10051519331E+02 0.86087142983E+01 0.73781594512E+01 0.63872704005E+01 0.56293314215E+01
 0.50837884849E+01 0.47302395896E+01 0.45537910473E+01 0.45463426099E+01 0.47073977710E+01
 0.50443475246E+01 0.55717727508E+01 0.63098373220E+01 0.72792838972E+01 0.84886585371E+01
 0.99145802543E+01 0.11485179346E+02 0.13079330590E+02 0.14449904141E+02 0.15114934684E+02
 0.14675715075E+02 0.13020402063E+02 0.86358698124E+01 0.59578669164E+01 0.39782348225E+01
 0.32106718172E+01 0.38544152613E+01 0.57420571288E+01 0.83837072354E+01 0.11101377700E+02
 0.13226594176E+02 0.14302305632E+02 0.14212890380E+02 0.13188611158E+02 0.11684943882E+02
 0.10101675601E+02 0.86032025314E+01 0.72897381205E+01 0.62095007931E+01 0.53671381692E+01
 0.47439930833E+01 0.43164635384E+01 0.40653267496E+01 0.39783250722E+01 0.40509425491E+01
 0.42868958870E+01 0.46978243098E+01 0.53024536339E+01 0.61242025333E+01 0.71827266735E+01
 0.84763917055E+01 0.99615954075E+01 0.11542562443E+02 0.13065295703E+02 0.14153118591E+02
 0.14340602576E+02 0.13370769175E+02 0.11325953100E+02 0.79328079797E+01 0.58908598557E+01
 0.46868024984E+01 0.46325963335E+01 0.57420571288E+01 0.77278710744E+01 0.10070028633E+02
 0.12154921808E+02 0.13459445574E+02 0.13717230511E+02 0.12994084673E+02 0.11636310847E+02
 0.10085435379E+02 0.85696668094E+01 0.72044717579E+01 0.60568734366E+01 0.51450607159E+01
 0.44555472364E+01 0.39638057221E+01 0.36472800622E+01 0.34898865720E+01 0.34831122796E+01
 0.36266915969E+01 0.39284759752E+01 0.44036999881E+01 0.50742914924E+01 0.59651356968E+01
 0.70917129398E+01 0.84394734845E+01 0.99458133365E+01 0.11499043762E+02 0.12890908594E+02
 0.13688611420E+02 0.13527049773E+02 0.12310790512E+02 0.10277343329E+02 0.85230651393E+01
 0.72464417354E+01 0.67497999335E+01 0.71659671756E+01 0.83837072354E+01 0.10070028633E+02
 0.11747738608E+02 0.12930748288E+02 0.13284359414E+02 0.12742960801E+02 0.11524023521E+02
 0.10019938061E+02 0.85101532269E+01 0.71182473538E+01 0.59240462262E+01 0.49585889518E+01
 0.42151554496E+01 0.36697874867E+01 0.32976447126E+01 0.30798330555E+01 0.30045172919E+01
 0.30673504438E+01 0.32719574679E+01 0.36295435808E+01 0.41583925518E+01 0.48829364608E+01
 0.58277308524E+01 0.70019476498E+01 0.83786643480E+01 0.98822985797E+01 0.11394111224E+02
 0.12655669396E+02 0.13270596919E+02 0.12999544485E+02 0.11881239922E+02 0.10229471746E+02
 0.10218725801E+02 0.96235257677E+01 0.95960803771E+01 0.10144685359E+02 0.11101377700E+02
 0.12154921808E+02 0.12930748288E+02 0.13113841840E+02 0.12571490620E+02 0.11412159042E+02
 0.99403743925E+01 0.84398003060E+01 0.70352718441E+01 0.58101996475E+01 0.48044372019E+01
 0.40183027609E+01 0.34297452534E+01 0.30120336783E+01 0.27436028035E+01 0.26102490286E+01
 0.26046484874E+01 0.27263455911E+01 0.29819978052E+01 0.33854284796E+01 0.39576919165E+01
 0.47250948457E+01 0.57105462720E+01 0.69167177746E+01 0.83080230584E+01 0.98044507151E+01
 0.11287117631E+02 0.12488558272E+02 0.13094106916E+02 0.12974629802E+02 0.12241945772E+02
 0.11198555107E+02 0.12492953782E+02 0.12342213015E+02 0.12468376683E+02 0.12817667708E+02
 0.13226594176E+02 0.13459445574E+02 0.13284359414E+02 0.12571490620E+02 0.11365971815E+02
 0.98874509880E+01 0.83826369114E+01 0.69668562416E+01 0.57194257299E+01 0.46830869279E+01
 0.38628608213E+01 0.32392418486E+01 0.27847541411E+01 0.24752412746E+01 0.22938942566E+01
 0.22310849599E+01 0.22835050426E+01 0.24538852426E+01 0.27512720323E+01 0.31918311378E+01
 0.37991292093E+01 0.46006476501E+01 0.56172431350E+01 0.68468328125E+01 0.82503374256E+01
 0.97510649612E+01 0.11239785030E+02 0.12480623841E+02 0.13242227161E+02 0.13462761997E+02
 0.13258510007E+02 0.12855734465E+02 0.14676222488E+02 0.14676290920E+02 0.14662974007E+02
 0.14575604988E+02 0.14302305632E+02 0.13717230511E+02 0.12742960801E+02 0.11412159042E+02
 0.98874509880E+01 0.83607615367E+01 0.69277353051E+01 0.56595499948E+01 0.45976941921E+01
 0.37492040085E+01 0.30963003799E+01 0.26113357541E+01 0.22683400356E+01 0.20480587823E+01
 0.19384397262E+01 0.19337230603E+01 0.20337436568E+01 0.22437637446E+01 0.25750788955E+01
 0.30462132014E+01 0.36827855638E+01 0.45127622630E+01 0.55553023942E+01 0.68060530551E+01
 0.82268199129E+01 0.97485737478E+01 0.11279872237E+02 0.12636257200E+02 0.13645390220E+02
 0.14263357582E+02 0.14560124113E+02 0.14659558263E+02 0.16188514721E+02 0.16083362194E+02
 0.15737775180E+02 0.15124959310E+02 0.14212890380E+02 0.12994084673E+02 0.11524023521E+02
 0.99403743925E+01 0.83826369114E+01 0.69277353051E+01 0.56385704440E+01 0.45532386256E+01
 0.36792911675E+01 0.30003693593E+01 0.24890069608E+01 0.21178776296E+01 0.18656136547E+01
 0.17179308922E+01 0.16667734924E+01 0.17094361413E+01 0.18482098232E+01 0.20906061874E+01
 0.24502571359E+01 0.29479206107E+01 0.36105930525E+01 0.44660879697E+01 0.55322490026E+01
 0.68041491634E+01 0.82465321853E+01 0.97981395186E+01 0.11383878670E+02 0.12870717899E+02
 0.14115250411E+02 0.15055118565E+02 0.15693758586E+02 0.16062272002E+02 0.16714669284E+02
 0.16350103880E+02 0.15617359543E+02 0.14545916031E+02 0.13188611158E+02 0.11636310847E+02
 0.10019938061E+02 0.84398003060E+01 0.69668562416E+01 0.56595499948E+01 0.45532386256E+01
 0.36556655027E+01 0.29520698462E+01 0.24160417513E+01 0.20198411434E+01 0.17404584346E+01
 0.15614528266E+01 0.14725450012E+01 0.14687539568E+01 0.15498747300E+01 0.17204450506E+01
 0.19902213038E+01 0.23750536668E+01 0.28974066466E+01 0.35847837494E+01 0.44640588569E+01
 0.55514703859E+01 0.68416447243E+01 0.83017618902E+01 0.98751425316E+01 0.11491622498E+02
 0.13055503343E+02 0.14434683293E+02 0.15534239648E+02 0.16298777224E+02 0.16697304927E+02
 0.16267187623E+02 0.15612087737E+02 0.14566475581E+02 0.13218033013E+02 0.11684943882E+02
 0.10085435379E+02 0.85101532269E+01 0.70352718441E+01 0.57194257299E+01 0.45976941921E+01
 0.36792911675E+01 0.29520698462E+01 0.23917983236E+01 0.19715101221E+01 0.16675346753E+01
 0.14617890317E+01 0.13418488031E+01 0.13004183330E+01 0.13349696474E+01 0.14476257811E+01
 0.16452342882E+01 0.19397153046E+01 0.23486302879E+01 0.28952272596E+01 0.36063754902E+01
 0.45068520659E+01 0.56102343348E+01 0.69095235126E+01 0.83720913382E+01 0.99413116603E+01
 0.11542324635E+02 0.13085892565E+02 0.14456178530E+02 0.15532968270E+02 0.16225859515E+02
 0.16477583648E+02 0.15131576920E+02 0.14257242333E+02 0.13052399474E+02 0.11629768222E+02
 0.10101675601E+02 0.85696668094E+01 0.71182473538E+01 0.58101996475E+01 0.46830869279E+01
 0.37492040085E+01 0.30003693593E+01 0.24160417513E+01 0.19715101221E+01 0.16436181224E+01
 0.14134475431E+01 0.12669054308E+01 0.11945467008E+01 0.11914799215E+01 0.12574742845E+01
 0.13970037844E+01 0.16191421806E+01 0.19375586836E+01 0.23706956304E+01 0.29413931184E+01
 0.36744863856E+01 0.45912457587E+01 0.57012211732E+01 0.69940742746E+01 0.84345858604E+01
 0.99623165028E+01 0.11494695975E+02 0.12931469353E+02 0.14160762276E+02 0.15069207026E+02
 0.15561007936E+02 0.15582576998E+02 0.13711504250E+02 0.12715001881E+02 0.11457855268E+02
 0.10051519331E+02 0.86032025314E+01 0.72044717579E+01 0.59240462262E+01 0.48044372019E+01
 0.38628608213E+01 0.30963003799E+01 0.24890069608E+01 0.20198411434E+01 0.16675346753E+01
 0.14134475431E+01 0.12425454680E+01 0.11436467354E+01 0.11096679695E+01 0.11380161444E+01
 0.12308362807E+01 0.13948478420E+01 0.16409055331E+01 0.19836723012E+01 0.24414411408E+01
 0.30353665906E+01 0.37868832653E+01 0.47125172278E+01 0.58166039210E+01 0.70838445917E+01
 0.84741278713E+01 0.99212088347E+01 0.11335502882E+02 0.12610794826E+02 0.13635277627E+02
 0.14307328475E+02 0.14554126398E+02 0.14347666284E+02 0.12245894604E+02 0.11187294057E+02
 0.99396158505E+01 0.86087142983E+01 0.72897381205E+01 0.60568734366E+01 0.49585889518E+01
 0.40183027609E+01 0.32392418486E+01 0.26113357541E+01 0.21178776296E+01 0.17404584346E+01
 0.14617890317E+01 0.12669054308E+01 0.11436467354E+01 0.10831539425E+01 0.10805906988E+01
 0.11357392751E+01 0.12530364846E+01 0.14410209572E+01 0.17115923901E+01 0.20794629272E+01
 0.25617008280E+01 0.31766875783E+01 0.39415272800E+01 0.48672505749E+01 0.59521257468E+01
 0.71746500186E+01 0.84885509675E+01 0.98218557446E+01 0.11081126449E+02 0.12161049191E+02
 0.12958762682E+02 0.13390970422E+02 0.13409968948E+02 0.13013650442E+02 0.10853827168E+02
 0.97864192600E+01 0.85964451857E+01 0.73781594512E+01 0.62095007931E+01 0.51450607159E+01
 0.42151554496E+01 0.34297452534E+01 0.27847541411E+01 0.22683400356E+01 0.18656136547E+01
 0.15614528266E+01 0.13418488031E+01 0.11945467008E+01 0.11096679695E+01 0.10805906988E+01
 0.11048372451E+01 0.11844768462E+01 0.13257927364E+01 0.15384279250E+01 0.18344662320E+01
 0.22277418383E+01 0.27332354575E+01 0.33659323236E+01 0.41382415644E+01 0.50553442829E+01
 0.61088188476E+01 0.72701992671E+01 0.84869376133E+01 0.96830191055E+01 0.10765383218E+02
 0.11635835779E+02 0.12206580777E+02 0.12416045552E+02 0.12240881818E+02 0.11700650812E+02
 0.96162306491E+01 0.85809958915E+01 0.74784467302E+01 0.63872704005E+01 0.53671381692E+01
 0.44555472364E+01 0.36697874867E+01 0.30120336783E+01 0.24752412746E+01 0.20480587823E+01
 0.17179308922E+01 0.14725450012E+01 0.13004183330E+01 0.11914799215E+01 0.11380161444E+01
 0.11357392751E+01 0.11844768462E+01 0.12881688005E+01 0.14542245535E+01 0.16925447659E+01
 0.20145707678E+01 0.24325805089E+01 0.29590612068E+01 0.36054666778E+01 0.43794315894E+01
 0.52800020999E+01 0.62916008997E+01 0.73786488913E+01 0.84832901209E+01 0.95281859505E+01
 0.10425009205E+02 0.11087504010E+02 0.11446343701E+02 0.11462122260E+02 0.11133064333E+02
 0.10495388751E+02 0.85742511268E+01 0.75976520772E+01 0.65951479482E+01 0.56293314215E+01
 0.47439930833E+01 0.39638057221E+01 0.32976447126E+01 0.27436028035E+01 0.22938942566E+01
 0.19384397262E+01 0.16667734924E+01 0.14687539568E+01 0.13349696474E+01 0.12574742845E+01
 0.12308362807E+01 0.12530364846E+01 0.13257927364E+01 0.14542245535E+01 0.16460524963E+01
 0.19106437964E+01 0.22582007046E+01 0.26991807283E+01 0.32435936348E+01 0.38993921647E+01
 0.46692309358E+01 0.55456246790E+01 0.65056633880E+01 0.75073026339E+01 0.84893464805E+01
 0.93764422712E+01 0.10088921947E+02 0.10555654651E+02 0.10726874484E+02 0.10583709413E+02
 0.10141919555E+02 0.94488355434E+01 0.77377901366E+01 0.68343995021E+01 0.59335903484E+01
 0.50837884849E+01 0.43164635384E+01 0.36472800622E+01 0.30798330555E+01 0.26102490286E+01
 0.22310849599E+01 0.19337230603E+01 0.17094361413E+01 0.15498747300E+01 0.14476257811E+01
 0.13970037844E+01 0.13948478420E+01 0.14410209572E+01 0.15384279250E+01 0.16925447659E+01
 0.19106437964E+01 0.22010242764E+01 0.25724536474E+01 0.30336461983E+01 0.35921982471E+01
 0.42523286980E+01 0.50112126027E+01 0.58544915277E+01 0.67523411730E+01 0.76578814646E+01
 0.85094374817E+01 0.92371674443E+01 0.97731830120E+01 0.10063034368E+02 0.10075780540E+02
 0.98100202681E+01 0.92942029975E+01 0.85810746062E+01 0.70996796856E+01 0.62770424515E+01
 0.54749398551E+01 0.47302395896E+01 0.40653267496E+01 0.34898865720E+01 0.30045172919E+01
 0.26046484874E+01 0.22835050426E+01 0.20337436568E+01 0.18482098232E+01 0.17204450506E+01
 0.16452342882E+01 0.16191421806E+01 0.16409055331E+01 0.17115923901E+01 0.18344662320E+01
 0.20145707678E+01 0.22582007046E+01 0.25724536474E+01 0.29648073241E+01 0.34423036215E+01
 0.40098103955E+01 0.46671432020E+01 0.54054077485E+01 0.62034965475E+01 0.70260241837E+01
 0.78239505927E+01 0.85386230351E+01 0.91090537787E+01 0.94812332711E+01 0.96174847725E+01
 0.95035396868E+01 0.91513502162E+01 0.85967487343E+01 0.78926320603E+01 0.66487518932E+01
 0.59109958549E+01 0.52033749551E+01 0.45537910473E+01 0.39783250722E+01 0.34831122796E+01
 0.30673504438E+01 0.27263455911E+01 0.24538852426E+01 0.22437637446E+01 0.20906061874E+01
 0.19902213038E+01 0.19397153046E+01 0.19375586836E+01 0.19836723012E+01 0.20794629272E+01
 0.22277418383E+01 0.24325805089E+01 0.26991807283E+01 0.30336461983E+01 0.34423036215E+01
 0.39301963546E+01 0.44986427977E+01 0.51421803412E+01 0.58456143164E+01 0.65821099913E+01
 0.73132029333E+01 0.79912543077E+01 0.85643629180E+01 0.89831931453E+01 0.92086105067E+01
 0.92184867324E+01 0.90118428284E+01 0.86090324724E+01 0.80479021818E+01 0.73771545860E+01
 0.63771867080E+01 0.57263267933E+01 0.51088365886E+01 0.45463426099E+01 0.40509425491E+01
 0.36266915969E+01 0.32719574679E+01 0.29819978052E+01 0.27512720323E+01 0.25750788955E+01
 0.24502571359E+01 0.23750536668E+01 0.23486302879E+01 0.23706956304E+01 0.24414411408E+01
 0.25617008280E+01 0.27332354575E+01 0.29590612068E+01 0.32435936348E+01 0.35921982471E+01
 0.40098103955E+01 0.44986427977E+01 0.50554146309E+01 0.56688112528E+01 0.63179478077E+01
 0.69724318779E+01 0.75942321189E+01 0.81411579912E+01 0.85715460652E+01 0.88496483101E+01
 0.89509509945E+01 0.88662504343E+01 0.86032674401E+01 0.81852616347E+01 0.76471550310E+01
 0.70303259081E+01 0.62816687155E+01 0.57183543777E+01 0.51877004946E+01 0.47073977710E+01
 0.42868958870E+01 0.39284759752E+01 0.36295435808E+01 0.33854284796E+01 0.31918311378E+01
 0.30462132014E+01 0.29479206107E+01 0.28974066466E+01 0.28952272596E+01 0.29413931184E+01
 0.30353665906E+01 0.31766875783E+01 0.33659323236E+01 0.36054666778E+01 0.38993921647E+01
 0.42523286980E+01 0.46671432020E+01 0.51421803412E+01 0.56688112528E+01 0.62301259762E+01
 0.68013042674E+01 0.73516415748E+01 0.78476622685E+01 0.82565949846E+01 0.85497499987E+01
 0.87056149232E+01 0.87124146736E+01 0.85696396635E+01 0.82881002536E+01 0.78885128554E+01
 0.73990414088E+01 0.68522432474E+01 0.63614265558E+01 0.58869640397E+01 0.54430203907E+01
 0.50443475246E+01 0.46978243098E+01 0.44036999881E+01 0.41583925518E+01 0.39576919165E+01
 0.37991292093E+01 0.36827855638E+01 0.36105930525E+01 0.35847837494E+01 0.36063754902E+01
 0.36744863856E+01 0.37868832653E+01 0.39415272800E+01 0.41382415644E+01 0.43794315894E+01
 0.46692309358E+01 0.50112126027E+01 0.54054077485E+01 0.58456143164E+01 0.63179478077E+01
 0.68013042674E+01 0.72697763097E+01 0.76962447718E+01 0.80558840169E+01 0.83285652970E+01
 0.84999044661E+01 0.85613613794E+01 0.85099891609E+01 0.83482732164E+01 0.80842432011E+01
 0.77317408208E+01 0.73103876734E+01 0.68446230011E+01 0.66170145447E+01 0.62364483641E+01
 0.58842983686E+01 0.55717727508E+01 0.53024536339E+01 0.50742914924E+01 0.48829364608E+01
 0.47250948457E+01 0.46006476501E+01 0.45127622630E+01 0.44660879697E+01 0.44640588569E+01
 0.45068520659E+01 0.45912457587E+01 0.47125172278E+01 0.48672505749E+01 0.50553442829E+01
 0.52800020999E+01 0.55456246790E+01 0.58544915277E+01 0.62034965475E+01 0.65821099913E+01
 0.69724318779E+01 0.73516415748E+01 0.76962447718E+01 0.79865877480E+01 0.82098077012E+01
 0.83600933505E+01 0.84364959223E+01 0.84397450039E+01 0.83699292950E+01 0.82263496757E+01
 0.80096446605E+01 0.77250013584E+01 0.73845604996E+01 0.70074409225E+01 0.70514961889E+01
 0.67761304361E+01 0.65268696315E+01 0.63098373220E+01 0.61242025333E+01 0.59651356968E+01
 0.58277308524E+01 0.57105462720E+01 0.56172431350E+01 0.55553023942E+01 0.55322490026E+01
 0.55514703859E+01 0.56102343348E+01 0.57012211732E+01 0.58166039210E+01 0.59521257468E+01
 0.61088188476E+01 0.62916008997E+01 0.65056633880E+01 0.67523411730E+01 0.70260241837E+01
 0.73132029333E+01 0.75942321189E+01 0.78476622685E+01 0.80558840169E+01 0.82098077012E+01
 0.83102361226E+01 0.83649558930E+01 0.83828226632E+01 0.83679036395E+01 0.83168658399E+01
 0.82210729918E+01 0.80722562052E+01 0.78686772346E+01 0.76185312316E+01 0.73389700555E+01
 0.76723784133E+01 0.75201949926E+01 0.73895130894E+01 0.72792838972E+01 0.71827266735E+01
 0.70917129398E+01 0.70019476498E+01 0.69167177746E+01 0.68468328125E+01 0.68060530551E+01
 0.68041491634E+01 0.68416447243E+01 0.69095235126E+01 0.69940742746E+01 0.70838445917E+01
 0.71746500186E+01 0.72701992671E+01 0.73786488913E+01 0.75073026339E+01 0.76578814646E+01
 0.78239505927E+01 0.79912543077E+01 0.81411579912E+01 0.82565949846E+01 0.83285652970E+01
 0.83600933505E+01 0.83649558930E+01 0.83609343227E+01 0.83606220887E+01 0.83646952895E+01
 0.83614930509E+01 0.83332060802E+01 0.82651785156E+01 0.81532500718E+01 0.80056131096E+01
 0.78390639060E+01 0.84906899239E+01 0.84833189572E+01 0.84863000321E+01 0.84886585371E+01
 0.84763917055E+01 0.84394734845E+01 0.83786643480E+01 0.83080230584E+01 0.82503374256E+01
 0.82268199129E+01 0.82465321853E+01 0.83017618902E+01 0.83720913382E+01 0.84345858604E+01
 0.84741278713E+01 0.84885509675E+01 0.84869376133E+01 0.84832901209E+01 0.84893464805E+01
 0.85094374817E+01 0.85386230351E+01 0.85643629180E+01 0.85715460652E+01 0.85497499987E+01
 0.84999044661E+01 0.84364959223E+01 0.83828226632E+01 0.83606220887E+01 0.83793114225E+01
 0.84310620051E+01 0.84947696907E+01 0.85466005548E+01 0.85709275407E+01 0.85658052897E+01
 0.85411051346E+01 0.85118098937E+01 0.95142709071E+01 0.96693301163E+01 0.98105494124E+01
 0.99145802543E+01 0.99615954075E+01 0.99458133365E+01 0.98822985797E+01 0.98044507151E+01
 0.97510649612E+01 0.97485737478E+01 0.97981395186E+01 0.98751425316E+01 0.99413116603E+01
 0.99623165028E+01 0.99212088347E+01 0.98218557446E+01 0.96830191055E+01 0.95281859505E+01
 0.93764422712E+01 0.92371674443E+01 0.91090537787E+01 0.89831931453E+01 0.88496483101E+01
 0.87056149232E+01 0.85613613794E+01 0.84397450039E+01 0.83679036395E+01 0.83646952895E+01
 0.84310620051E+01 0.85494377427E+01 0.86927179557E+01 0.88371397818E+01 0.89713769627E+01
 0.90975206215E+01 0.92252076455E+01 0.93634694829E+01 0.10735318266E+02 0.11054797098E+02
 0.11316380709E+02 0.11485179346E+02 0.11542562443E+02 0.11499043762E+02 0.11394111224E+02
 0.11287117631E+02 0.11239785030E+02 0.11279872237E+02 0.11383878670E+02 0.11491622498E+02
 0.11542324635E+02 0.11494695975E+02 0.11335502882E+02 0.11081126449E+02 0.10765383218E+02
 0.10425009205E+02 0.10088921947E+02 0.97731830120E+01 0.94812332711E+01 0.92086105067E+01
 0.89509509945E+01 0.87124146736E+01 0.85099891609E+01 0.83699292950E+01 0.83168658399E+01
 0.83614930509E+01 0.84947696907E+01 0.86927179557E+01 0.89286276083E+01 0.91845937044E+01
 0.94556844855E+01 0.97458550991E+01 0.10059647199E+02 0.10394377681E+02 0.12116112037E+02
 0.12575075382E+02 0.12909268786E+02 0.13079330590E+02 0.13065295703E+02 0.12890908594E+02
 0.12655669396E+02 0.12488558272E+02 0.12480623841E+02 0.12636257200E+02 0.12870717899E+02
 0.13055503343E+02 0.13085892565E+02 0.12931469353E+02 0.12610794826E+02 0.12161049191E+02
 0.11635835779E+02 0.11087504010E+02 0.10555654651E+02 0.10063034368E+02 0.96174847725E+01
 0.92184867324E+01 0.88662504343E+01 0.85696396635E+01 0.83482732164E+01 0.82263496757E+01
 0.82210729918E+01 0.83332060802E+01 0.85466005548E+01 0.88371397818E+01 0.91845937044E+01
 0.95793807569E+01 0.10020853964E+02 0.10509611263E+02 0.11038646709E+02 0.11586785941E+02
 0.13579506016E+02 0.14121490016E+02 0.14441637857E+02 0.14449904141E+02 0.14153118591E+02
 0.13688611420E+02 0.13270596919E+02 0.13094106916E+02 0.13242227161E+02 0.13645390220E+02
 0.14115250411E+02 0.14434683293E+02 0.14456178530E+02 0.14160762276E+02 0.13635277627E+02
 0.12958762682E+02 0.12206580777E+02 0.11446343701E+02 0.10726874484E+02 0.10075780540E+02
 0.95035396868E+01 0.90118428284E+01 0.86032674401E+01 0.82881002536E+01 0.80842432011E+01
 0.80096446605E+01 0.80722562052E+01 0.82651785156E+01 0.85709275407E+01 0.89713769627E+01
 0.94556844855E+01 0.10020853964E+02 0.10665309888E+02 0.11379524479E+02 0.12137685213E+02
 0.12893070155E+02 0.15009935742E+02 0.15508492937E+02 0.15554821980E+02 0.15114934684E+02
 0.14340602576E+02 0.13527049773E+02 0.12999544485E+02 0.12974629802E+02 0.13462761997E+02
 0.14263357582E+02 0.15055118565E+02 0.15534239648E+02 0.15532968270E+02 0.15069207026E+02
 0.14307328475E+02 0.13390970422E+02 0.12416045552E+02 0.11462122260E+02 0.10583709413E+02
 0.98100202681E+01 0.91513502162E+01 0.86090324724E+01 0.81852616347E+01 0.78885128554E+01
 0.77317408208E+01 0.77250013584E+01 0.78686772346E+01 0.81532500718E+01 0.85658052897E+01
 0.90975206215E+01 0.97458550991E+01 0.10509611263E+02 0.11379524479E+02 0.12328405551E+02
 0.13304295420E+02 0.14229736082E+02 0.16187604338E+02 0.16320568427E+02 0.15774061532E+02
 0.14675715075E+02 0.13370769175E+02 0.12310790512E+02 0.11881239922E+02 0.12241945772E+02
 0.13258510007E+02 0.14560124113E+02 0.15693758586E+02 0.16298777224E+02 0.16225859515E+02
 0.15561007936E+02 0.14554126398E+02 0.13409968948E+02 0.12240881818E+02 0.11133064333E+02
 0.10141919555E+02 0.92942029975E+01 0.85967487343E+01 0.80479021818E+01 0.76471550310E+01
 0.73990414088E+01 0.73103876734E+01 0.73845604996E+01 0.76185312316E+01 0.80056131096E+01
 0.85411051346E+01 0.92252076455E+01 0.10059647199E+02 0.11038646709E+02 0.12137685213E+02
 0.13304295420E+02 0.14454984497E+02 0.15480262495E+02 0.16711855650E+02 0.16154565290E+02
 0.14809475294E+02 0.13020402063E+02 0.11325953100E+02 0.10277343329E+02 0.10229471746E+02
 0.11198555107E+02 0.12855734465E+02 0.14659558263E+02 0.16062272002E+02 0.16697304927E+02
 0.16477583648E+02 0.15582576998E+02 0.14347666284E+02 0.13013650442E+02 0.11700650812E+02
 0.10495388751E+02 0.94488355434E+01 0.85810746062E+01 0.78926320603E+01 0.73771545860E+01
 0.70303259081E+01 0.68522432474E+01 0.68446230011E+01 0.70074409225E+01 0.73389700555E+01
 0.78390639060E+01 0.85118098937E+01 0.93634694829E+01 0.10394377681E+02 0.11586785941E+02
 0.12893070155E+02 0.14229736082E+02 0.15480262495E+02 0.16420588557E+02 0.15772958390E+02
 0.14741918010E+02 0.13299603745E+02 0.11920577776E+02 0.11067205600E+02 0.11028165896E+02
 0.11816627164E+02 0.13165677497E+02 0.14622582559E+02 0.15707027262E+02 0.16074519189E+02
 0.15624343915E+02 0.14513801195E+02 0.13073969460E+02 0.11571175849E+02 0.10129021221E+02
 0.88350392308E+01 0.77376901206E+01 0.68502333255E+01 0.61639424029E+01 0.56627117662E+01
 0.53327555066E+01 0.51658679233E+01 0.51586578897E+01 0.53110617246E+01 0.56261755819E+01
 0.61116127414E+01 0.67805907176E+01 0.76493189777E+01 0.87278617397E+01 0.10005608770E+02
 0.11437528867E+02 0.12939305153E+02 0.14392219944E+02 0.15547368816E+02 0.16066919817E+02
 0.14741918010E+02 0.13201644558E+02 0.11517108635E+02 0.10212139092E+02 0.96953676298E+01
 0.10128792303E+02 0.11376535881E+02 0.13047833972E+02 0.14622448018E+02 0.15620694143E+02
 0.15759655967E+02 0.15036307945E+02 0.13705449326E+02 0.12147463230E+02 0.10590317925E+02
 0.91468262367E+01 0.78923691244E+01 0.68598498055E+01 0.60489105194E+01 0.54426246995E+01
 0.50218136744E+01 0.47720403226E+01 0.46849175228E+01 0.47576029421E+01 0.49924989342E+01
 0.53974678608E+01 0.59863596154E+01 0.67780630103E+01 0.77902221037E+01 0.90254677749E+01
 0.10454469892E+02 0.12005590164E+02 0.13569223222E+02 0.14936001916E+02 0.15727483947E+02
 0.15670367749E+02 0.13299603745E+02 0.11517108635E+02 0.98962029029E+01 0.89192292587E+01
 0.88747505906E+01 0.97757630893E+01 0.11356302822E+02 0.13146535378E+02 0.14613465067E+02
 0.15330758145E+02 0.15117385248E+02 0.14086426291E+02 0.12581843753E+02 0.10974312951E+02
 0.94296376653E+01 0.80476421729E+01 0.68850937089E+01 0.59564442893E+01 0.52487127850E+01
 0.47395566492E+01 0.44090958018E+01 0.42438349641E+01 0.42368424561E+01 0.43877093242E+01
 0.47027401238E+01 0.51950362460E+01 0.58840746379E+01 0.67921492533E+01 0.79336322987E+01
 0.92974370138E+01 0.10831090906E+02 0.12438034120E+02 0.13964221383E+02 0.15053986759E+02
 0.15349620909E+02 0.14713296033E+02 0.11920577776E+02 0.10212139092E+02 0.89192292587E+01
 0.84133722041E+01 0.88375289969E+01 0.10071956026E+02 0.11762677453E+02 0.13413730799E+02
 0.14534057091E+02 0.14798561764E+02 0.14157583509E+02 0.12841410805E+02 0.11247696622E+02
 0.96551770734E+01 0.81851874660E+01 0.69172634999E+01 0.58846594231E+01 0.50836493268E+01
 0.44922697817E+01 0.40864516507E+01 0.38477496391E+01 0.37649489890E+01 0.38340557017E+01
 0.40583707643E+01 0.44484804258E+01 0.50222379540E+01 0.58033896692E+01 0.68146011701E+01
 0.80620591105E+01 0.95164900429E+01 0.11102406901E+02 0.12703234534E+02 0.14061466212E+02
 0.14776018653E+02 0.14595363602E+02 0.13542424441E+02 0.11067205600E+02 0.96953676298E+01
 0.88747505906E+01 0.88375289969E+01 0.95941794583E+01 0.10931255721E+02 0.12456801725E+02
 0.13702467237E+02 0.14270758148E+02 0.13976013206E+02 0.12910894900E+02 0.11400359571E+02
 0.98054684293E+01 0.82881044209E+01 0.69448745882E+01 0.58279198361E+01 0.49460295014E+01
 0.42812106036E+01 0.38075220722E+01 0.35024921487E+01 0.33506809758E+01 0.33441451968E+01
 0.34826470226E+01 0.37734944632E+01 0.42312574575E+01 0.48777168745E+01 0.57389949327E+01
 0.68346965773E+01 0.81591640922E+01 0.96642790170E+01 0.11256876083E+02 0.12787118397E+02
 0.13908118764E+02 0.14279958659E+02 0.13785470385E+02 0.12586647596E+02 0.11028165896E+02
 0.10128792303E+02 0.97757630893E+01 0.10071956026E+02 0.10931255721E+02 0.12093098506E+02
 0.13178699888E+02 0.13799738123E+02 0.13695892053E+02 0.12839789389E+02 0.11449688237E+02
 0.98804105599E+01 0.83484171311E+01 0.69589394207E+01 0.57792507777E+01 0.48316110822E+01
 0.41045114799E+01 0.35720339040E+01 0.32088482105E+01 0.29962131936E+01 0.29226528493E+01
 0.29840204281E+01 0.31837786309E+01 0.35327630668E+01 0.40490613327E+01 0.47575239081E+01
 0.56844912126E+01 0.68435959842E+01 0.82163260288E+01 0.97394311070E+01 0.11310785254E+02
 0.12731764118E+02 0.13647863182E+02 0.13822002491E+02 0.13258386566E+02 0.12199633252E+02
 0.11816627164E+02 0.11376535881E+02 0.11356302822E+02 0.11762677453E+02 0.12456801725E+02
 0.13178699888E+02 0.13612964203E+02 0.13496568675E+02 0.12730429099E+02 0.11433711664E+02
 0.98987456496E+01 0.83700112507E+01 0.69569208308E+01 0.57345661472E+01 0.47363181054E+01
 0.39585108264E+01 0.33772143850E+01 0.29650312864E+01 0.27002368525E+01 0.25686739887E+01
 0.25631346162E+01 0.26831972279E+01 0.29354127023E+01 0.33334913649E+01 0.38986036981E+01
 0.46577079454E+01 0.56354673298E+01 0.68382628967E+01 0.82367588978E+01 0.97592626405E+01
 0.11300538439E+02 0.12632037242E+02 0.13453647292E+02 0.13627476513E+02 0.13233945963E+02
 0.12525218896E+02 0.13165677497E+02 0.13047833972E+02 0.13146535378E+02 0.13413730799E+02
 0.13702467237E+02 0.13799738123E+02 0.13496568675E+02 0.12680687862E+02 0.11406007845E+02
 0.98911426663E+01 0.83677669356E+01 0.69434040807E+01 0.56937850839E+01 0.46586103143E+01
 0.38408081646E+01 0.32197197816E+01 0.27673775774E+01 0.24594570411E+01 0.22790866338E+01
 0.22166155570E+01 0.22687435172E+01 0.24382139639E+01 0.27340747726E+01 0.31725249455E+01
 0.37772999542E+01 0.45763560122E+01 0.55916085607E+01 0.68229487098E+01 0.82343081636E+01
 0.97526407577E+01 0.11275513308E+02 0.12582431602E+02 0.13444076324E+02 0.13790799360E+02
 0.13722201004E+02 0.13442009891E+02 0.14622582559E+02 0.14622448018E+02 0.14613465067E+02
 0.14534057091E+02 0.14270758148E+02 0.13695892053E+02 0.12730429099E+02 0.11406007845E+02
 0.98850229574E+01 0.83604777196E+01 0.69286388436E+01 0.56609791373E+01 0.45992582911E+01
 0.37507101791E+01 0.30976769927E+01 0.26125743481E+01 0.22694600732E+01 0.20490920404E+01
 0.19394259770E+01 0.19347073059E+01 0.20347709486E+01 0.22448743345E+01 0.25763056672E+01
 0.30475771812E+01 0.36842816832E+01 0.45143274077E+01 0.55567589734E+01 0.68070300347E+01
 0.82266761936E+01 0.97463733343E+01 0.11274145327E+02 0.12624398778E+02 0.13624922851E+02
 0.14232749597E+02 0.14519412267E+02 0.14610622004E+02 0.15707027262E+02 0.15620694143E+02
 0.15330758145E+02 0.14798561764E+02 0.13976013206E+02 0.12839789389E+02 0.11433711664E+02
 0.98911426663E+01 0.83604777196E+01 0.69224473136E+01 0.56424657862E+01 0.45613966136E+01
 0.36889620036E+01 0.30101600961E+01 0.24982785832E+01 0.21264142810E+01 0.18734511781E+01
 0.17252642300E+01 0.16739067583E+01 0.17167290359E+01 0.18559911747E+01 0.20990844676E+01
 0.24594670150E+01 0.29576723700E+01 0.36203212030E+01 0.44744947922E+01 0.55367024062E+01
 0.67999305513E+01 0.82262572904E+01 0.97518704525E+01 0.11298327148E+02 0.12723153528E+02
 0.13886182067E+02 0.14736325757E+02 0.15292788072E+02 0.15602955646E+02 0.16074519189E+02
 0.15759655967E+02 0.15117385248E+02 0.14157583509E+02 0.12910894900E+02 0.11449688237E+02
 0.98987456496E+01 0.83677669356E+01 0.69286388436E+01 0.56424657862E+01 0.45483602637E+01
 0.36574521175E+01 0.29572901353E+01 0.24227774755E+01 0.20269246038E+01 0.17472545260E+01
 0.15677625629E+01 0.14785035736E+01 0.14746923231E+01 0.15561406469E+01 0.17272055057E+01
 0.19973033452E+01 0.23818571632E+01 0.29028271194E+01 0.35869889497E+01 0.44599469865E+01
 0.55357574263E+01 0.68058250615E+01 0.82335774550E+01 0.97593709616E+01 0.11312091900E+02
 0.12786979057E+02 0.14056313232E+02 0.15043287677E+02 0.15714661567E+02 0.16059438762E+02
 0.15624343915E+02 0.15036307945E+02 0.14086426291E+02 0.12841410805E+02 0.11400359571E+02
 0.98804105599E+01 0.83700112507E+01 0.69434040807E+01 0.56609791373E+01 0.45613966136E+01
 0.36574521175E+01 0.29396120221E+01 0.23852407289E+01 0.19683478265E+01 0.16659915721E+01
 0.14607487554E+01 0.13407981607E+01 0.12992996409E+01 0.13339090335E+01 0.14465980428E+01
 0.16437777258E+01 0.19367679689E+01 0.23424690003E+01 0.28834133732E+01 0.35855385397E+01
 0.44721057356E+01 0.55541811326E+01 0.68212556690E+01 0.82370674779E+01 0.97429736882E+01
 0.11265597247E+02 0.12718404253E+02 0.13985450038E+02 0.14964778801E+02 0.15587260443E+02
 0.15811971120E+02 0.14513801195E+02 0.13705449326E+02 0.12581843753E+02 0.11247696622E+02
 0.98054684293E+01 0.83484171311E+01 0.69569208308E+01 0.56937850839E+01 0.45992582911E+01
 0.36889620036E+01 0.29572901353E+01 0.23852407289E+01 0.19490332282E+01 0.16262977739E+01
 0.13989351344E+01 0.12536643072E+01 0.11817316163E+01 0.11786732213E+01 0.12442897781E+01
 0.13826626811E+01 0.16021677665E+01 0.19156596319E+01 0.23407884602E+01 0.28996258916E+01
 0.36160574606E+01 0.45098200037E+01 0.55880042070E+01 0.68371152986E+01 0.82192454804E+01
 0.96735672226E+01 0.11121010596E+02 0.12469084662E+02 0.13615973673E+02 0.14456304811E+02
 0.14908241135E+02 0.14928072396E+02 0.13073969460E+02 0.12147463230E+02 0.10974312951E+02
 0.96551770734E+01 0.82881044209E+01 0.69589394207E+01 0.57345661472E+01 0.46586103143E+01
 0.37507101791E+01 0.30101600961E+01 0.24227774755E+01 0.19683478265E+01 0.16262977739E+01
 0.13787624069E+01 0.12116116714E+01 0.11145455980E+01 0.10811272174E+01 0.11090114243E+01
 0.12001329401E+01 0.13605974884E+01 0.16003965968E+01 0.19332860978E+01 0.23767648567E+01
 0.29512788516E+01 0.36773578299E+01 0.45700287974E+01 0.56313998297E+01 0.68437631098E+01
 0.81657342493E+01 0.95325507285E+01 0.10859921918E+02 0.12050493176E+02 0.13003229802E+02
 0.13626725328E+02 0.13855439740E+02 0.13664114091E+02 0.11571175849E+02 0.10590317925E+02
 0.94296376653E+01 0.81851874660E+01 0.69448745882E+01 0.57792507777E+01 0.47363181054E+01
 0.38408081646E+01 0.30976769927E+01 0.24982785832E+01 0.20269246038E+01 0.16659915721E+01
 0.13989351344E+01 0.12116116714E+01 0.10927436041E+01 0.10342572582E+01 0.10317817957E+01
 0.10851095834E+01 0.11982492794E+01 0.13789970454E+01 0.16383642224E+01 0.19902038018E+01
 0.24508541874E+01 0.30379961703E+01 0.37677573654E+01 0.46496592224E+01 0.56801115973E+01
 0.68362465715E+01 0.80722319939E+01 0.93195497555E+01 0.10491644419E+02 0.11492694777E+02
 0.12230019598E+02 0.12628836220E+02 0.12646334078E+02 0.12280638514E+02 0.10129021221E+02
 0.91468262367E+01 0.80476421729E+01 0.69172634999E+01 0.58279198361E+01 0.48316110822E+01
 0.39585108264E+01 0.32197197816E+01 0.26125743481E+01 0.21264142810E+01 0.17472545260E+01
 0.14607487554E+01 0.12536643072E+01 0.11145455980E+01 0.10342572582E+01 0.10067244016E+01
 0.10296846806E+01 0.11050288230E+01 0.12385137649E+01 0.14390417034E+01 0.17178984229E+01
 0.20881630178E+01 0.25640764915E+01 0.31597379742E+01 0.38863502237E+01 0.47476265447E+01
 0.57339367477E+01 0.68168517089E+01 0.79462210537E+01 0.90514659386E+01 0.10047745285E+02
 0.10846561635E+02 0.11369288952E+02 0.11560941524E+02 0.11400685974E+02 0.10905973586E+02
 0.88350392308E+01 0.78923691244E+01 0.68850937089E+01 0.58846594231E+01 0.49460295014E+01
 0.41045114799E+01 0.33772143850E+01 0.27673775774E+01 0.22694600732E+01 0.18734511781E+01
 0.15677625629E+01 0.13407981607E+01 0.11817316163E+01 0.10811272174E+01 0.10317817957E+01
 0.10296846806E+01 0.10746680100E+01 0.11704147042E+01 0.13238579861E+01 0.15442827813E+01
 0.18424516074E+01 0.22298887447E+01 0.27181374381E+01 0.33174227740E+01 0.40339798599E+01
 0.48657270348E+01 0.57969885588E+01 0.67940167800E+01 0.78034158617E+01 0.87550063349E+01
 0.95694986864E+01 0.10169964765E+02 0.10494804497E+02 0.10509084440E+02 0.10211245136E+02
 0.96333733157E+01 0.77376901206E+01 0.68598498055E+01 0.59564442893E+01 0.50836493268E+01
 0.42812106036E+01 0.35720339040E+01 0.29650312864E+01 0.24594570411E+01 0.20490920404E+01
 0.17252642300E+01 0.14785035736E+01 0.12992996409E+01 0.11786732213E+01 0.11090114243E+01
 0.10851095834E+01 0.11050288230E+01 0.11704147042E+01 0.12861862424E+01 0.14597505310E+01
 0.17000252701E+01 0.20165554629E+01 0.24188361492E+01 0.29155726633E+01 0.35132312245E+01
 0.42132487133E+01 0.50078929547E+01 0.58757484806E+01 0.67785867047E+01 0.76614801330E+01
 0.84572990406E+01 0.90954094533E+01 0.95129464964E+01 0.96660194276E+01 0.95380106765E+01
 0.91428145662E+01 0.85221598995E+01 0.68502333255E+01 0.60489105194E+01 0.52487127850E+01
 0.44922697817E+01 0.38075220722E+01 0.32088482105E+01 0.27002368525E+01 0.22790866338E+01
 0.19394259770E+01 0.16739067583E+01 0.14746923231E+01 0.13339090335E+01 0.12442897781E+01
 0.12001329401E+01 0.11982492794E+01 0.12385137649E+01 0.13238579861E+01 0.14597505310E+01
 0.16533412214E+01 0.19125406652E+01 0.22452880437E+01 0.26589861936E+01 0.31596609889E+01
 0.37502089438E+01 0.44274143637E+01 0.51781456987E+01 0.59759062921E+01 0.67793364270E+01
 0.75340817437E+01 0.81785810190E+01 0.86530174390E+01 0.89094696455E+01 0.89207388156E+01
 0.86855902349E+01 0.82290349242E+01 0.75975172102E+01 0.61639424029E+01 0.54426246995E+01
 0.47395566492E+01 0.40864516507E+01 0.35024921487E+01 0.29962131936E+01 0.25686739887E+01
 0.22166155570E+01 0.19347073059E+01 0.17167290359E+01 0.15561406469E+01 0.14465980428E+01
 0.13826626811E+01 0.13605974884E+01 0.13789970454E+01 0.14390417034E+01 0.15442827813E+01
 0.17000252701E+01 0.19125406652E+01 0.21883823924E+01 0.25338772039E+01 0.29545228017E+01
 0.34538044393E+01 0.40310640649E+01 0.46785121365E+01 0.53780802109E+01 0.60993047135E+01
 0.67995349567E+01 0.74273047644E+01 0.79287813581E+01 0.82561515386E+01 0.83760340612E+01
 0.82757870848E+01 0.79659944512E+01 0.74783988228E+01 0.68598460804E+01 0.56627117662E+01
 0.50218136744E+01 0.44090958018E+01 0.38477496391E+01 0.33506809758E+01 0.29226528493E+01
 0.25631346162E+01 0.22687435172E+01 0.20347709486E+01 0.18559911747E+01 0.17272055057E+01
 0.16437777258E+01 0.16021677665E+01 0.16003965968E+01 0.16383642224E+01 0.17178984229E+01
 0.18424516074E+01 0.20165554629E+01 0.22452880437E+01 0.25338772039E+01 0.28872435963E+01
 0.33090918351E+01 0.38002649761E+01 0.43563974522E+01 0.49652872540E+01 0.56047718469E+01
 0.62420985770E+01 0.68356252061E+01 0.73391109813E+01 0.77080747430E+01 0.79069999910E+01
 0.79157323806E+01 0.77333677009E+01 0.73784444138E+01 0.68853408630E+01 0.62979910491E+01
 0.53327555066E+01 0.47720403226E+01 0.42438349641E+01 0.37649489890E+01 0.33441451968E+01
 0.29840204281E+01 0.26831972279E+01 0.24382139639E+01 0.22448743345E+01 0.20990844676E+01
 0.19973033452E+01 0.19367679689E+01 0.19156596319E+01 0.19332860978E+01 0.19902038018E+01
 0.20881630178E+01 0.22298887447E+01 0.24188361492E+01 0.26589861936E+01 0.29545228017E+01
 0.33090918351E+01 0.37244294996E+01 0.41984063804E+01 0.47228303469E+01 0.52815922586E+01
 0.58498434740E+01 0.63947898548E+01 0.68783786197E+01 0.72617343930E+01 0.75107408172E+01
 0.76016963044E+01 0.75256438128E+01 0.72900894809E+01 0.69175501261E+01 0.64414133101E+01
 0.59003618614E+01 0.51658679233E+01 0.46849175228E+01 0.42368424561E+01 0.38340557017E+01
 0.34826470226E+01 0.31837786309E+01 0.29354127023E+01 0.27340747726E+01 0.25763056672E+01
 0.24594670150E+01 0.23818571632E+01 0.23424690003E+01 0.23407884602E+01 0.23767648567E+01
 0.24508541874E+01 0.25640764915E+01 0.27181374381E+01 0.29155726633E+01 0.31596609889E+01
 0.34538044393E+01 0.38002649761E+01 0.41984063804E+01 0.46427850595E+01 0.51215740302E+01
 0.56158523500E+01 0.61001389696E+01 0.65442403013E+01 0.69162374598E+01 0.71863374049E+01
 0.73311370108E+01 0.73374737278E+01 0.72047780885E+01 0.69451472116E+01 0.65811654044E+01
 0.61422218675E+01 0.56602784702E+01 0.51586578897E+01 0.47576029421E+01 0.43877093242E+01
 0.40583707643E+01 0.37734944632E+01 0.35327630668E+01 0.33334913649E+01 0.31725249455E+01
 0.30475771812E+01 0.29576723700E+01 0.29028271194E+01 0.28834133732E+01 0.28996258916E+01
 0.29512788516E+01 0.30379961703E+01 0.31597379742E+01 0.33174227740E+01 0.35132312245E+01
 0.37502089438E+01 0.40310640649E+01 0.43563974522E+01 0.47228303469E+01 0.51215740302E+01
 0.55379221467E+01 0.59518983138E+01 0.63399219836E+01 0.66771054334E+01 0.69398307584E+01
 0.71084096142E+01 0.71695908925E+01 0.71184506557E+01 0.69591258483E+01 0.67041672057E+01
 0.63727591078E+01 0.59882877440E+01 0.55756609103E+01 0.53110617246E+01 0.49924989342E+01
 0.47027401238E+01 0.44484804258E+01 0.42312574575E+01 0.40490613327E+01 0.38986036981E+01
 0.37772999542E+01 0.36842816832E+01 0.36203212030E+01 0.35869889497E+01 0.35855385397E+01
 0.36160574606E+01 0.36773578299E+01 0.37677573654E+01 0.38863502237E+01 0.40339798599E+01
 0.42132487133E+01 0.44274143637E+01 0.46785121365E+01 0.49652872540E+01 0.52815922586E+01
 0.56158523500E+01 0.59518983138E+01 0.62709215560E+01 0.65538559225E+01 0.67834818148E+01
 0.69459129844E+01 0.70314861891E+01 0.70352034364E+01 0.69568708699E+01 0.68010670898E+01
 0.65770082287E+01 0.62982017831E+01 0.59816318782E+01 0.56462817458E+01 0.56261755819E+01
 0.53974678608E+01 0.51950362460E+01 0.50222379540E+01 0.48777168745E+01 0.47575239081E+01
 0.46577079454E+01 0.45763560122E+01 0.45143274077E+01 0.44744947922E+01 0.44599469865E+01
 0.44721057356E+01 0.45098200037E+01 0.45700287974E+01 0.46496592224E+01 0.47476265447E+01
 0.48657270348E+01 0.50078929547E+01 0.51781456987E+01 0.53780802109E+01 0.56047718469E+01
 0.58498434740E+01 0.61001389696E+01 0.63399219836E+01 0.65538559225E+01 0.67296234094E+01
 0.68592335041E+01 0.69387404980E+01 0.69668529931E+01 0.69433849673E+01 0.68685155249E+01
 0.67433487248E+01 0.65714636635E+01 0.63604511648E+01 0.61223272309E+01 0.58722936649E+01
 0.61116127414E+01 0.59863596154E+01 0.58840746379E+01 0.58033896692E+01 0.57389949327E+01
 0.56844912126E+01 0.56354673298E+01 0.55916085607E+01 0.55567589734E+01 0.55367024062E+01
 0.55357574263E+01 0.55541811326E+01 0.55880042070E+01 0.56313998297E+01 0.56801115973E+01
 0.57339367477E+01 0.57969885588E+01 0.58757484806E+01 0.59759062921E+01 0.60993047135E+01
 0.62420985770E+01 0.63947898548E+01 0.65442403013E+01 0.66771054334E+01 0.67834818148E+01
 0.68592335041E+01 0.69058421893E+01 0.69277695804E+01 0.69287075102E+01 0.69088312868E+01
 0.68646640286E+01 0.67916373318E+01 0.66878581305E+01 0.65569492556E+01 0.64084416432E+01
 0.62555722763E+01 0.67805907176E+01 0.67780630103E+01 0.67921492533E+01 0.68146011701E+01
 0.68346965773E+01 0.68435959842E+01 0.68382628967E+01 0.68229487098E+01 0.68070300347E+01
 0.67999305513E+01 0.68058250615E+01 0.68212556690E+01 0.68371152986E+01 0.68437631098E+01
 0.68362465715E+01 0.68168517089E+01 0.67940167800E+01 0.67785867047E+01 0.67793364270E+01
 0.67995349567E+01 0.68356252061E+01 0.68783786197E+01 0.69162374598E+01 0.69398307584E+01
 0.69459129844E+01 0.69387404980E+01 0.69277695804E+01 0.69224805321E+01 0.69270333948E+01
 0.69378761639E+01 0.69457762178E+01 0.69410463923E+01 0.69188864535E+01 0.68819728052E+01
 0.68393039791E+01 0.68023575497E+01 0.76493189777E+01 0.77902221037E+01 0.79336322987E+01
 0.80620591105E+01 0.81591640922E+01 0.82163260288E+01 0.82367588978E+01 0.82343081636E+01
 0.82266761936E+01 0.82262572904E+01 0.82335774550E+01 0.82370674779E+01 0.82192454804E+01
 0.81657342493E+01 0.80722319939E+01 0.79462210537E+01 0.78034158617E+01 0.76614801330E+01
 0.75340817437E+01 0.74273047644E+01 0.73391109813E+01 0.72617343930E+01 0.71863374049E+01
 0.71084096142E+01 0.70314861891E+01 0.69668529931E+01 0.69287075102E+01 0.69270333948E+01
 0.69622663768E+01 0.70250518280E+01 0.71012723706E+01 0.71792260924E+01 0.72547454942E+01
 0.73317706277E+01 0.74188299722E+01 0.75237999755E+01 0.87278617397E+01 0.90254677749E+01
 0.92974370138E+01 0.95164900429E+01 0.96642790170E+01 0.97394311070E+01 0.97592626405E+01
 0.97526407577E+01 0.97463733343E+01 0.97518704525E+01 0.97593709616E+01 0.97429736882E+01
 0.96735672226E+01 0.95325507285E+01 0.93195497555E+01 0.90514659386E+01 0.87550063349E+01
 0.84572990406E+01 0.81785810190E+01 0.79287813581E+01 0.77080747430E+01 0.75107408172E+01
 0.73311370108E+01 0.71695908925E+01 0.70352034364E+01 0.69433849673E+01 0.69088312868E+01
 0.69378761639E+01 0.70250518280E+01 0.71561189125E+01 0.73155404350E+01 0.74936354921E+01
 0.76893706677E+01 0.79079245231E+01 0.81550782005E+01 0.84313339897E+01 0.10005608770E+02
 0.10454469892E+02 0.10831090906E+02 0.11102406901E+02 0.11256876083E+02 0.11310785254E+02
 0.11300538439E+02 0.11275513308E+02 0.11274145327E+02 0.11298327148E+02 0.11312091900E+02
 0.11265597247E+02 0.11121010596E+02 0.10859921918E+02 0.10491644419E+02 0.10047745285E+02
 0.95694986864E+01 0.90954094533E+01 0.86530174390E+01 0.82561515386E+01 0.79069999910E+01
 0.76016963044E+01 0.73374737278E+01 0.71184506557E+01 0.69568708699E+01 0.68685155249E+01
 0.68646640286E+01 0.69457762178E+01 0.71012723706E+01 0.73155404350E+01 0.75759515963E+01
 0.78776949247E+01 0.82229551205E+01 0.86155752187E+01 0.90541452121E+01 0.95262162316E+01
 0.11437528867E+02 0.12005590164E+02 0.12438034120E+02 0.12703234534E+02 0.12787118397E+02
 0.12731764118E+02 0.12632037242E+02 0.12582431602E+02 0.12624398778E+02 0.12723153528E+02
 0.12786979057E+02 0.12718404253E+02 0.12469084662E+02 0.12050493176E+02 0.11492694777E+02
 0.10846561635E+02 0.10169964765E+02 0.95129464964E+01 0.89094696455E+01 0.83760340612E+01
 0.79157323806E+01 0.75256438128E+01 0.72047780885E+01 0.69591258483E+01 0.68010670898E+01
 0.67433487248E+01 0.67916373318E+01 0.69410463923E+01 0.71792260924E+01 0.74936354921E+01
 0.78776949247E+01 0.83317847988E+01 0.88587326352E+01 0.94562507864E+01 0.10109452537E+02
 0.10786172987E+02 0.12939305153E+02 0.13569223222E+02 0.13964221383E+02 0.14061466212E+02
 0.13908118764E+02 0.13647863182E+02 0.13453647292E+02 0.13444076324E+02 0.13624922851E+02
 0.13886182067E+02 0.14056313232E+02 0.13985450038E+02 0.13615973673E+02 0.13003229802E+02
 0.12230019598E+02 0.11369288952E+02 0.10494804497E+02 0.96660194276E+01 0.89207388156E+01
 0.82757870848E+01 0.77333677009E+01 0.72900894809E+01 0.69451472116E+01 0.67041672057E+01
 0.65770082287E+01 0.65714636635E+01 0.66878581305E+01 0.69188864535E+01 0.72547454942E+01
 0.76893706677E+01 0.82229551205E+01 0.88587326352E+01 0.95953227371E+01 0.10417692589E+02
 0.11290204386E+02 0.12155130966E+02 0.14392219944E+02 0.14936001916E+02 0.15053986759E+02
 0.14776018653E+02 0.14279958659E+02 0.13822002491E+02 0.13627476513E+02 0.13790799360E+02
 0.14232749597E+02 0.14736325757E+02 0.15043287677E+02 0.14964778801E+02 0.14456304811E+02
 0.13626725328E+02 0.12628836220E+02 0.11560941524E+02 0.10509084440E+02 0.95380106765E+01
 0.86855902349E+01 0.79659944512E+01 0.73784444138E+01 0.69175501261E+01 0.65811654044E+01
 0.63727591078E+01 0.62982017831E+01 0.63604511648E+01 0.65569492556E+01 0.68819728052E+01
 0.73317706277E+01 0.79079245231E+01 0.86155752187E+01 0.94562507864E+01 0.10417692589E+02
 0.11464559822E+02 0.12534381683E+02 0.13542374315E+02 0.15547368816E+02 0.15727483947E+02
 0.15349620909E+02 0.14595363602E+02 0.13785470385E+02 0.13258386566E+02 0.13233945963E+02
 0.13722201004E+02 0.14519412267E+02 0.15292788072E+02 0.15714661567E+02 0.15587260443E+02
 0.14908241135E+02 0.13855439740E+02 0.12646334078E+02 0.11400685974E+02 0.10211245136E+02
 0.91428145662E+01 0.82290349242E+01 0.74783988228E+01 0.68853408630E+01 0.64414133101E+01
 0.61422218675E+01 0.59882877440E+01 0.59816318782E+01 0.61223272309E+01 0.64084416432E+01
 0.68393039791E+01 0.74188299722E+01 0.81550782005E+01 0.90541452121E+01 0.10109452537E+02
 0.11290204386E+02 0.12534381683E+02 0.13751111580E+02 0.14825239637E+02 0.16066919817E+02
 0.15670367749E+02 0.14713296033E+02 0.13542424441E+02 0.12586647596E+02 0.12199633252E+02
 0.12525218896E+02 0.13442009891E+02 0.14610622004E+02 0.15602955646E+02 0.16059438762E+02
 0.15811971120E+02 0.14928072396E+02 0.13664114091E+02 0.12280638514E+02 0.10905973586E+02
 0.96333733157E+01 0.85221598995E+01 0.75975172102E+01 0.68598460804E+01 0.62979910491E+01
 0.59003618614E+01 0.56602784702E+01 0.55756609103E+01 0.56462817458E+01 0.58722936649E+01
 0.62555722763E+01 0.68023575497E+01 0.75237999755E+01 0.84313339897E+01 0.95262162316E+01
 0.10786172987E+02 0.12155130966E+02 0.13542374315E+02 0.14825239637E+02 0.15755873980E+02
 0.16127783352E+02 0.15750359331E+02 0.15138673535E+02 0.14600051224E+02 0.14376710295E+02
 0.14564629864E+02 0.15083117466E+02 0.15700494669E+02 0.16111150576E+02 0.16045218308E+02
 0.15373791878E+02 0.14164419168E+02 0.12656835419E+02 0.11096227787E+02 0.95990414650E+01
 0.82497898724E+01 0.70995229087E+01 0.61639343135E+01 0.54334998778E+01 0.48882226381E+01
 0.45092084817E+01 0.42836392108E+01 0.42047909496E+01 0.42705712406E+01 0.44827721073E+01
 0.48476362748E+01 0.53773121528E+01 0.60901892339E+01 0.70065855178E+01 0.81376825816E+01
 0.94706405022E+01 0.10957619162E+02 0.12516521831E+02 0.14036362834E+02 0.15284217629E+02
 0.16009835098E+02 0.15750359331E+02 0.15123663878E+02 0.14447150535E+02 0.14012081240E+02
 0.13991888913E+02 0.14394392471E+02 0.15059854846E+02 0.15704573765E+02 0.16009014773E+02
 0.15732640434E+02 0.14812416391E+02 0.13395593549E+02 0.11776734963E+02 0.10170648227E+02
 0.86796689559E+01 0.73769714577E+01 0.62978303038E+01 0.54433253173E+01 0.47945607235E+01
 0.43279763754E+01 0.40246167589E+01 0.38725550103E+01 0.38660892694E+01 0.40049295262E+01
 0.42942502154E+01 0.47454641307E+01 0.53769482694E+01 0.62120181868E+01 0.72705145784E+01
 0.85539364187E+01 0.10030540879E+02 0.11630174743E+02 0.13253448132E+02 0.14701319120E+02
 0.15675031174E+02 0.16010038698E+02 0.15138673535E+02 0.14447150535E+02 0.13871552868E+02
 0.13638479210E+02 0.13834120720E+02 0.14386391862E+02 0.15079667971E+02 0.15608173373E+02
 0.15672372725E+02 0.15094514669E+02 0.13900536420E+02 0.12319808023E+02 0.10659170895E+02
 0.90716549989E+01 0.76470927372E+01 0.64412112217E+01 0.54703667241E+01 0.47217921872E+01
 0.41703155375E+01 0.37917406634E+01 0.35687037248E+01 0.34912210745E+01 0.35558858169E+01
 0.37655309308E+01 0.41295177124E+01 0.46645250200E+01 0.53942632003E+01 0.63442700158E+01
 0.75291537765E+01 0.89357836745E+01 0.10511978134E+02 0.12170193878E+02 0.13769399680E+02
 0.15009911256E+02 0.15647479368E+02 0.15636482979E+02 0.14600051224E+02 0.14012081240E+02
 0.13638479210E+02 0.13621247285E+02 0.13966790378E+02 0.14544797351E+02 0.15110658157E+02
 0.15367974827E+02 0.15072529799E+02 0.14139817696E+02 0.12696540053E+02 0.11035541080E+02
 0.93976986536E+01 0.78884733863E+01 0.65809529999E+01 0.55085577960E+01 0.46685802291E+01
 0.40378220692E+01 0.35889112122E+01 0.32996613344E+01 0.31555303360E+01 0.31493295101E+01
 0.32808460346E+01 0.35566692334E+01 0.39904729625E+01 0.46036843929E+01 0.54236282282E+01
 0.64746422789E+01 0.77619167243E+01 0.92554813683E+01 0.10885479649E+02 0.12550988000E+02
 0.14027389804E+02 0.15014158233E+02 0.15366201245E+02 0.15150157809E+02 0.14376710295E+02
 0.13991888913E+02 0.13834120720E+02 0.13966790378E+02 0.14336985911E+02 0.14780809576E+02
 0.15053385002E+02 0.14902730375E+02 0.14174869401E+02 0.12898192205E+02 0.11291791844E+02
 0.96414624886E+01 0.80843201655E+01 0.67039936455E+01 0.55495807635E+01 0.46307705977E+01
 0.39294148769E+01 0.34170490970E+01 0.30678094132E+01 0.28632451064E+01 0.27924248342E+01
 0.28515031081E+01 0.30437038036E+01 0.33792999013E+01 0.38760218684E+01 0.45591649915E+01
 0.54573902194E+01 0.65904924841E+01 0.79519357357E+01 0.94962659421E+01 0.11142218740E+02
 0.12762878843E+02 0.14080430408E+02 0.14861562346E+02 0.15059860600E+02 0.14815716940E+02
 0.14564629864E+02 0.14394392471E+02 0.14386391862E+02 0.14544797351E+02 0.14780809576E+02
 0.14923296996E+02 0.14760576789E+02 0.14122052436E+02 0.12969339797E+02 0.11441180393E+02
 0.98022091217E+01 0.82263614509E+01 0.68010733583E+01 0.55862068084E+01 0.46034036637E+01
 0.38419623366E+01 0.32747125879E+01 0.28731409881E+01 0.26153065726E+01 0.24871896615E+01
 0.24817863525E+01 0.25987035315E+01 0.28443036353E+01 0.32321102429E+01 0.37834412191E+01
 0.45262743498E+01 0.54882854045E+01 0.66824824866E+01 0.80908226180E+01 0.96566557134E+01
 0.11294476122E+02 0.12843993390E+02 0.14038453027E+02 0.14724013375E+02 0.14923908776E+02
 0.14800189976E+02 0.15083117466E+02 0.15059854846E+02 0.15079667971E+02 0.15110658157E+02
 0.15053385002E+02 0.14760576789E+02 0.14089732262E+02 0.12979609749E+02 0.11509533972E+02
 0.98932372972E+01 0.83166957130E+01 0.68684863135E+01 0.56136498717E+01 0.45827499297E+01
 0.37726069134E+01 0.31593316560E+01 0.27135758309E+01 0.24105040064E+01 0.22330833084E+01
 0.21716474792E+01 0.22229101858E+01 0.23896033453E+01 0.26807851381E+01 0.31127943044E+01
 0.37098250349E+01 0.45011027785E+01 0.55115677581E+01 0.67469338202E+01 0.81800276396E+01
 0.97484867683E+01 0.11366538821E+02 0.12859868851E+02 0.14007611495E+02 0.14717048473E+02
 0.15038752368E+02 0.15111034469E+02 0.15700494669E+02 0.15704573765E+02 0.15608173373E+02
 0.15367974827E+02 0.14902730375E+02 0.14122052436E+02 0.12979609749E+02 0.11527610657E+02
 0.99324598459E+01 0.83644977193E+01 0.69087283387E+01 0.56306816025E+01 0.45664902549E+01
 0.37192788674E+01 0.30689583342E+01 0.25867264927E+01 0.22460787923E+01 0.20274986626E+01
 0.19187896994E+01 0.19141166182E+01 0.20133043213E+01 0.22216825643E+01 0.25506968937E+01
 0.30191236828E+01 0.36530671437E+01 0.44815619908E+01 0.55259623975E+01 0.67856945556E+01
 0.82278231589E+01 0.97890084298E+01 0.11387071474E+02 0.12860047768E+02 0.14033795078E+02
 0.14846066105E+02 0.15336507738E+02 0.15593594398E+02 0.16111150576E+02 0.16009014773E+02
 0.15672372725E+02 0.15072529799E+02 0.14174869401E+02 0.12969339797E+02 0.11509533972E+02
 0.99324598459E+01 0.83790862091E+01 0.69269077844E+01 0.56392250910E+01 0.45545776999E+01
 0.36808701664E+01 0.30019663532E+01 0.24905209779E+01 0.21192732390E+01 0.18668956665E+01
 0.17191313243E+01 0.16679421933E+01 0.17106307330E+01 0.18494828169E+01 0.20919917355E+01
 0.24517613585E+01 0.29495123276E+01 0.36121808029E+01 0.44674643217E+01 0.55329920213E+01
 0.68034978332E+01 0.82432924401E+01 0.97907052513E+01 0.11370143669E+02 0.12847041768E+02
 0.14078479994E+02 0.15003921346E+02 0.15629346888E+02 0.15988478026E+02 0.16045218308E+02
 0.15732640434E+02 0.15094514669E+02 0.14139817696E+02 0.12898192205E+02 0.11441180393E+02
 0.98932372972E+01 0.83644977193E+01 0.69269077844E+01 0.56416916240E+01 0.45481379957E+01
 0.36575333762E+01 0.29575283921E+01 0.24230829087E+01 0.20272429370E+01 0.17475583548E+01
 0.15680441463E+01 0.14787687189E+01 0.14749558558E+01 0.15564194770E+01 0.17275082535E+01
 0.19976220422E+01 0.23821644969E+01 0.29030737119E+01 0.35870914584E+01 0.44597621191E+01
 0.55350426974E+01 0.68041949818E+01 0.82304793060E+01 0.97541170917E+01 0.11303928537E+02
 0.12774708902E+02 0.14038998380E+02 0.15020812735E+02 0.15687918587E+02 0.16030235463E+02
 0.15373791878E+02 0.14812416391E+02 0.13900536420E+02 0.12696540053E+02 0.11291791844E+02
 0.98022091217E+01 0.83166957130E+01 0.69087283387E+01 0.56392250910E+01 0.45481379957E+01
 0.36496733398E+01 0.29353599268E+01 0.23831802485E+01 0.19675008696E+01 0.16656737080E+01
 0.14605606644E+01 0.13405776810E+01 0.12990421644E+01 0.13336772345E+01 0.14464113880E+01
 0.16434916631E+01 0.19359920888E+01 0.23405471753E+01 0.28794116381E+01 0.35781490848E+01
 0.44594106320E+01 0.55332965948E+01 0.67879922185E+01 0.81858834250E+01 0.96675444221E+01
 0.11160111295E+02 0.12577029506E+02 0.13803031470E+02 0.14743741248E+02 0.15338340746E+02
 0.15552354550E+02 0.14164419168E+02 0.13395593549E+02 0.12319808023E+02 0.11035541080E+02
 0.96414624886E+01 0.82263614509E+01 0.68684863135E+01 0.56306816025E+01 0.45545776999E+01
 0.36575333762E+01 0.29353599268E+01 0.23699714711E+01 0.19381669259E+01 0.16180528947E+01
 0.13920227117E+01 0.12472883996E+01 0.11755062805E+01 0.11724518858E+01 0.12379381880E+01
 0.13758262912E+01 0.15940907814E+01 0.19050955601E+01 0.23259977259E+01 0.28783925088E+01
 0.35856004476E+01 0.44664883976E+01 0.55267949528E+01 0.67513130550E+01 0.81006688712E+01
 0.95137921929E+01 0.10913491126E+02 0.12211553824E+02 0.13310261027E+02 0.14109864786E+02
 0.14537972952E+02 0.14556740028E+02 0.12656835419E+02 0.11776734963E+02 0.10659170895E+02
 0.93976986536E+01 0.80843201655E+01 0.68010733583E+01 0.56136498717E+01 0.45664902549E+01
 0.36808701664E+01 0.29575283921E+01 0.23831802485E+01 0.19381669259E+01 0.16024441802E+01
 0.13587763928E+01 0.11937141989E+01 0.10975884978E+01 0.10644328099E+01 0.10920954021E+01
 0.11823585369E+01 0.13408693348E+01 0.15769827519E+01 0.19037815993E+01 0.23381541615E+01
 0.29000104240E+01 0.36092863740E+01 0.44801041468E+01 0.55132090632E+01 0.66893649769E+01
 0.79663383056E+01 0.92802750991E+01 0.10550274780E+02 0.11684752901E+02 0.12589815613E+02
 0.13180956432E+02 0.13397614030E+02 0.13216383817E+02 0.11096227787E+02 0.10170648227E+02
 0.90716549989E+01 0.78884733863E+01 0.67039936455E+01 0.55862068084E+01 0.45827499297E+01
 0.37192788674E+01 0.30019663532E+01 0.24230829087E+01 0.19675008696E+01 0.16180528947E+01
 0.13587763928E+01 0.11762746205E+01 0.10600622049E+01 0.10027311862E+01 0.10003005145E+01
 0.10525835691E+01 0.11632301754E+01 0.13393828747E+01 0.15912656028E+01 0.19319868120E+01
 0.23772906821E+01 0.29443739452E+01 0.36487932586E+01 0.44991930289E+01 0.54908266291E+01
 0.65998909254E+01 0.77807628492E+01 0.89672124187E+01 0.10077437186E+02 0.11022318049E+02
 0.11716488258E+02 0.12091386268E+02 0.12107821986E+02 0.11764072532E+02 0.95990414650E+01
 0.86796689559E+01 0.76470927372E+01 0.65809529999E+01 0.55495807635E+01 0.46034036637E+01
 0.37726069134E+01 0.30689583342E+01 0.24905209779E+01 0.20272429370E+01 0.16656737080E+01
 0.13920227117E+01 0.11937141989E+01 0.10600622049E+01 0.98270231077E+00 0.95613207615E+00
 0.97829921065E+00 0.10509025413E+01 0.11791715745E+01 0.13712656667E+01 0.16376697583E+01
 0.19907676400E+01 0.24442783930E+01 0.30118397332E+01 0.37040389388E+01 0.45237451911E+01
 0.54605458865E+01 0.64859722147E+01 0.75514247308E+01 0.85900787635E+01 0.95230090253E+01
 0.10268901476E+02 0.10756044215E+02 0.10934462361E+02 0.10785253710E+02 0.10324289046E+02
 0.82497898724E+01 0.73769714577E+01 0.64412112217E+01 0.55085577960E+01 0.46307705977E+01
 0.38419623366E+01 0.31593316560E+01 0.25867264927E+01 0.21192732390E+01 0.17475583548E+01
 0.14605606644E+01 0.12472883996E+01 0.10975884978E+01 0.10027311862E+01 0.95613207615E+00
 0.95415178137E+00 0.99663632088E+00 0.10869268008E+01 0.12313582479E+01 0.14385039351E+01
 0.17184371637E+01 0.20820922090E+01 0.25404883146E+01 0.31032652097E+01 0.37759301574E+01
 0.45556989573E+01 0.54267361607E+01 0.63564222752E+01 0.72944301676E+01 0.81757777588E+01
 0.89279812039E+01 0.94813244417E+01 0.97802729552E+01 0.97934099106E+01 0.95193294264E+01
 0.89868886404E+01 0.70995229087E+01 0.62978303038E+01 0.54703667241E+01 0.46685802291E+01
 0.39294148769E+01 0.32747125879E+01 0.27135758309E+01 0.22460787923E+01 0.18668956665E+01
 0.15680441463E+01 0.13405776810E+01 0.11755062805E+01 0.10644328099E+01 0.10003005145E+01
 0.97829921065E+00 0.99663632088E+00 0.10568306559E+01 0.11634272843E+01 0.13232972624E+01
 0.15447808079E+01 0.18368755208E+01 0.22085184720E+01 0.26677448647E+01 0.32202159910E+01
 0.38666095046E+01 0.45989068515E+01 0.53964982880E+01 0.62236822294E+01 0.70301110404E+01
 0.77550249416E+01 0.83350203333E+01 0.87139587515E+01 0.88527718529E+01 0.87366997346E+01
 0.83780846417E+01 0.78140254339E+01 0.61639343135E+01 0.54433253173E+01 0.47217921872E+01
 0.40378220692E+01 0.34170490970E+01 0.28731409881E+01 0.24105040064E+01 0.20274986626E+01
 0.17191313243E+01 0.14787687189E+01 0.12990421644E+01 0.11724518858E+01 0.10920954021E+01
 0.10525835691E+01 0.10509025413E+01 0.10869268008E+01 0.11634272843E+01 0.12855925878E+01
 0.14602184866E+01 0.16948084223E+01 0.19967991850E+01 0.23729079553E+01 0.28282718237E+01
 0.33648811364E+01 0.39790285259E+01 0.46580902995E+01 0.53776412062E+01 0.61002944008E+01
 0.67774781598E+01 0.73545806015E+01 0.77787779796E+01 0.80078642170E+01 0.80179225732E+01
 0.78078758277E+01 0.73997154697E+01 0.68343182701E+01 0.54334998778E+01 0.47945607235E+01
 0.41703155375E+01 0.35889112122E+01 0.30678094132E+01 0.26153065726E+01 0.22330833084E+01
 0.19187896994E+01 0.16679421933E+01 0.14749558558E+01 0.13336772345E+01 0.12379381880E+01
 0.11823585369E+01 0.11632301754E+01 0.11791715745E+01 0.12313582479E+01 0.13232972624E+01
 0.14602184866E+01 0.16482521675E+01 0.18936328400E+01 0.22020743682E+01 0.25781722215E+01
 0.30244283727E+01 0.35395329796E+01 0.41159218342E+01 0.47371668912E+01 0.53761949907E+01
 0.59954546846E+01 0.65498108930E+01 0.69921486703E+01 0.72806894277E+01 0.73863068859E+01
 0.72979789541E+01 0.70249337362E+01 0.65948807196E+01 0.60487685954E+01 0.48882226381E+01
 0.43279763754E+01 0.37917406634E+01 0.32996613344E+01 0.28632451064E+01 0.24871896615E+01
 0.21716474792E+01 0.19141166182E+01 0.17106307330E+01 0.15564194770E+01 0.14464113880E+01
 0.13758262912E+01 0.13408693348E+01 0.13393828747E+01 0.13712656667E+01 0.14385039351E+01
 0.15447808079E+01 0.16948084223E+01 0.18936328400E+01 0.21460775718E+01 0.24562572147E+01
 0.28268859301E+01 0.32580813625E+01 0.37455595854E+01 0.42784736527E+01 0.48375464509E+01
 0.53943983320E+01 0.59128765959E+01 0.63527039705E+01 0.66750359960E+01 0.68488230888E+01
 0.68564494124E+01 0.66971298963E+01 0.63870681664E+01 0.59563125337E+01 0.54432420099E+01
 0.45092084817E+01 0.40246167589E+01 0.35687037248E+01 0.31555303360E+01 0.27924248342E+01
 0.24817863525E+01 0.22229101858E+01 0.20133043213E+01 0.18494828169E+01 0.17275082535E+01
 0.16434916631E+01 0.15940907814E+01 0.15769827519E+01 0.15912656028E+01 0.16376697583E+01
 0.17184371637E+01 0.18368755208E+01 0.19967991850E+01 0.22020743682E+01 0.24562572147E+01
 0.27620862484E+01 0.31205747968E+01 0.35296191147E+01 0.39822692649E+01 0.44650548850E+01
 0.49569826555E+01 0.54298880145E+01 0.58505900222E+01 0.61848072998E+01 0.64022358884E+01
 0.64817293820E+01 0.64152723590E+01 0.62095705616E+01 0.58847239072E+01 0.54704071891E+01
 0.50007419372E+01 0.42836392108E+01 0.38725550103E+01 0.34912210745E+01 0.31493295101E+01
 0.28515031081E+01 0.25987035315E+01 0.23896033453E+01 0.22216825643E+01 0.20919917355E+01
 0.19976220422E+01 0.19359920888E+01 0.19050955601E+01 0.19037815993E+01 0.19319868120E+01
 0.19907676400E+01 0.20820922090E+01 0.22085184720E+01 0.23729079553E+01 0.25781722215E+01
 0.28268859301E+01 0.31205747968E+01 0.34586003321E+01 0.38367421355E+01 0.42457689806E+01
 0.46704398256E+01 0.50894084108E+01 0.54763817929E+01 0.58026451019E+01 0.60407562432E+01
 0.61688315608E+01 0.61744519391E+01 0.60570631444E+01 0.58280800544E+01 0.55086693907E+01
 0.51259528080E+01 0.47087220452E+01 0.42047909496E+01 0.38660892694E+01 0.35558858169E+01
 0.32808460346E+01 0.30437038036E+01 0.28443036353E+01 0.26807851381E+01 0.25506968937E+01
 0.24517613585E+01 0.23821644969E+01 0.23405471753E+01 0.23259977259E+01 0.23381541615E+01
 0.23772906821E+01 0.24442783930E+01 0.25404883146E+01 0.26677448647E+01 0.28282718237E+01
 0.30244283727E+01 0.32580813625E+01 0.35296191147E+01 0.38367421355E+01 0.41732639233E+01
 0.45282484291E+01 0.48858221260E+01 0.52258660525E+01 0.55256177966E+01 0.57621117091E+01
 0.59152660928E+01 0.59711268900E+01 0.59244239103E+01 0.57795827697E+01 0.55498446190E+01
 0.52548521052E+01 0.49174765645E+01 0.45606538514E+01 0.42705712406E+01 0.40049295262E+01
 0.37655309308E+01 0.35566692334E+01 0.33792999013E+01 0.32321102429E+01 0.31127943044E+01
 0.30191236828E+01 0.29495123276E+01 0.29030737119E+01 0.28794116381E+01 0.28783925088E+01
 0.29000104240E+01 0.29443739452E+01 0.30118397332E+01 0.31032652097E+01 0.32202159910E+01
 0.33648811364E+01 0.35395329796E+01 0.37455595854E+01 0.39822692649E+01 0.42457689806E+01
 0.45282484291E+01 0.48179189315E+01 0.50996567394E+01 0.53562160677E+01 0.55698548026E+01
 0.57242916663E+01 0.58068592508E+01 0.58104693497E+01 0.57348197091E+01 0.55864257476E+01
 0.53774985750E+01 0.51240707541E+01 0.48438611877E+01 0.45542471493E+01 0.44827721073E+01
 0.42942502154E+01 0.41295177124E+01 0.39904729625E+01 0.38760218684E+01 0.37834412191E+01
 0.37098250349E+01 0.36530671437E+01 0.36121808029E+01 0.35870914584E+01 0.35781490848E+01
 0.35856004476E+01 0.36092863740E+01 0.36487932586E+01 0.37040389388E+01 0.37759301574E+01
 0.38666095046E+01 0.39790285259E+01 0.41159218342E+01 0.42784736527E+01 0.44650548850E+01
 0.46704398256E+01 0.48858221260E+01 0.50996567394E+01 0.52990094065E+01 0.54709858121E+01
 0.56039955910E+01 0.56888225003E+01 0.57194942135E+01 0.56938534671E+01 0.56137345476E+01
 0.54847604164E+01 0.53158381177E+01 0.51183834978E+01 0.49052624103E+01 0.46894832599E+01
 0.48476362748E+01 0.47454641307E+01 0.46645250200E+01 0.46036843929E+01 0.45591649915E+01
 0.45262743498E+01 0.45011027785E+01 0.44815619908E+01 0.44674643217E+01 0.44597621191E+01
 0.44594106320E+01 0.44664883976E+01 0.44801041468E+01 0.44991930289E+01 0.45237451911E+01
 0.45556989573E+01 0.45989068515E+01 0.46580902995E+01 0.47371668912E+01 0.48375464509E+01
 0.49569826555E+01 0.50894084108E+01 0.52258660525E+01 0.53562160677E+01 0.54709858121E+01
 0.55627178874E+01 0.56264822339E+01 0.56596152057E+01 0.56610542034E+01 0.56307696186E+01
 0.55697062486E+01 0.54803102213E+01 0.53672749219E+01 0.52378943345E+01 0.51015691315E+01
 0.49684524950E+01 0.53773121528E+01 0.53769482694E+01 0.53942632003E+01 0.54236282282E+01
 0.54573902194E+01 0.54882854045E+01 0.55115677581E+01 0.55259623975E+01 0.55329920213E+01
 0.55350426974E+01 0.55332965948E+01 0.55267949528E+01 0.55132090632E+01 0.54908266291E+01
 0.54605458865E+01 0.54267361607E+01 0.53964982880E+01 0.53776412062E+01 0.53761949907E+01
 0.53943983320E+01 0.54298880145E+01 0.54763817929E+01 0.55256177966E+01 0.55698548026E+01
 0.56039955910E+01 0.56264822339E+01 0.56385882329E+01 0.56425025935E+01 0.56393013408E+01
 0.56280351913E+01 0.56065140234E+01 0.55733080096E+01 0.55297381916E+01 0.54806814580E+01
 0.54337363992E+01 0.53971394056E+01 0.60901892339E+01 0.62120181868E+01 0.63442700158E+01
 0.64746422789E+01 0.65904924841E+01 0.66824824866E+01 0.67469338202E+01 0.67856945556E+01
 0.68034978332E+01 0.68041949818E+01 0.67879922185E+01 0.67513130550E+01 0.66893649769E+01
 0.65998909254E+01 0.64859722147E+01 0.63564222752E+01 0.62236822294E+01 0.61002944008E+01
 0.59954546846E+01 0.59128765959E+01 0.58505900222E+01 0.58026451019E+01 0.57621117091E+01
 0.57242916663E+01 0.56888225003E+01 0.56596152057E+01 0.56425025935E+01 0.56417718431E+01
 0.56575843463E+01 0.56858839544E+01 0.57208582023E+01 0.57584116577E+01 0.57986003406E+01
 0.58457987235E+01 0.59067285081E+01 0.59874000393E+01 0.70065855178E+01 0.72705145784E+01
 0.75291537765E+01 0.77619167243E+01 0.79519357357E+01 0.80908226180E+01 0.81800276396E+01
 0.82278231589E+01 0.82432924401E+01 0.82304793060E+01 0.81858834250E+01 0.81006688712E+01
 0.79663383056E+01 0.77807628492E+01 0.75514247308E+01 0.72944301676E+01 0.70301110404E+01
 0.67774781598E+01 0.65498108930E+01 0.63527039705E+01 0.61848072998E+01 0.60407562432E+01
 0.59152660928E+01 0.58068592508E+01 0.57194942135E+01 0.56610542034E+01 0.56393013408E+01
 0.56575843463E+01 0.57129572966E+01 0.57979023504E+01 0.59045159735E+01 0.60285405432E+01
 0.61709852166E+01 0.63367367578E+01 0.65311231942E+01 0.67559800334E+01 0.81376825816E+01
 0.85539364187E+01 0.89357836745E+01 0.92554813683E+01 0.94962659421E+01 0.96566557134E+01
 0.97484867683E+01 0.97890084298E+01 0.97907052513E+01 0.97541170917E+01 0.96675444221E+01
 0.95137921929E+01 0.92802750991E+01 0.89672124187E+01 0.85900787635E+01 0.81757777588E+01
 0.77550249416E+01 0.73545806015E+01 0.69921486703E+01 0.66750359960E+01 0.64022358884E+01
 0.61688315608E+01 0.59711268900E+01 0.58104693497E+01 0.56938534671E+01 0.56307696186E+01
 0.56280351913E+01 0.56858839544E+01 0.57979023504E+01 0.59547842180E+01 0.61493508652E+01
 0.63797293613E+01 0.66490591109E+01 0.69621169912E+01 0.73204493873E+01 0.77178262215E+01
 0.94706405022E+01 0.10030540879E+02 0.10511978134E+02 0.10885479649E+02 0.11142218740E+02
 0.11294476122E+02 0.11366538821E+02 0.11387071474E+02 0.11370143669E+02 0.11303928537E+02
 0.11160111295E+02 0.10913491126E+02 0.10550274780E+02 0.10077437186E+02 0.95230090253E+01
 0.89279812039E+01 0.83350203333E+01 0.77787779796E+01 0.72806894277E+01 0.68488230888E+01
 0.64817293820E+01 0.61744519391E+01 0.59244239103E+01 0.57348197091E+01 0.56137345476E+01
 0.55697062486E+01 0.56065140234E+01 0.57208582023E+01 0.59045159735E+01 0.61493508652E+01
 0.64517200850E+01 0.68135506529E+01 0.72395272571E+01 0.77316384886E+01 0.82831100634E+01
 0.88739923303E+01 0.10957619162E+02 0.11630174743E+02 0.12170193878E+02 0.12550988000E+02
 0.12762878843E+02 0.12843993390E+02 0.12859868851E+02 0.12860047768E+02 0.12847041768E+02
 0.12774708902E+02 0.12577029506E+02 0.12211553824E+02 0.11684752901E+02 0.11022318049E+02
 0.10268901476E+02 0.94813244417E+01 0.87139587515E+01 0.80078642170E+01 0.73863068859E+01
 0.68564494124E+01 0.64152723590E+01 0.60570631444E+01 0.57795827697E+01 0.55864257476E+01
 0.54847604164E+01 0.54803102213E+01 0.55733080096E+01 0.57584116577E+01 0.60285405432E+01
 0.63797293613E+01 0.68135506529E+01 0.73353268120E+01 0.79485569055E+01 0.86475092226E+01
 0.94107552568E+01 0.10198715746E+02 0.12516521831E+02 0.13253448132E+02 0.13769399680E+02
 0.14027389804E+02 0.14080430408E+02 0.14038453027E+02 0.14007611495E+02 0.14033795078E+02
 0.14078479994E+02 0.14038998380E+02 0.13803031470E+02 0.13310261027E+02 0.12589815613E+02
 0.11716488258E+02 0.10756044215E+02 0.97802729552E+01 0.88527718529E+01 0.80179225732E+01
 0.72979789541E+01 0.66971298963E+01 0.62095705616E+01 0.58280800544E+01 0.55498446190E+01
 0.53774985750E+01 0.53158381177E+01 0.53672749219E+01 0.55297381916E+01 0.57986003406E+01
 0.61709852166E+01 0.66490591109E+01 0.72395272571E+01 0.79485569055E+01 0.87734471505E+01
 0.96940542625E+01 0.10667932516E+02 0.11632664103E+02 0.14036362834E+02 0.14701319120E+02
 0.15009911256E+02 0.15014158233E+02 0.14861562346E+02 0.14724013375E+02 0.14717048473E+02
 0.14846066105E+02 0.15003921346E+02 0.15020812735E+02 0.14743741248E+02 0.14109864786E+02
 0.13180956432E+02 0.12091386268E+02 0.10934462361E+02 0.97934099106E+01 0.87366997346E+01
 0.78078758277E+01 0.70249337362E+01 0.63870681664E+01 0.58847239072E+01 0.55086693907E+01
 0.52548521052E+01 0.51240707541E+01 0.51183834978E+01 0.52378943345E+01 0.54806814580E+01
 0.58457987235E+01 0.63367367578E+01 0.69621169912E+01 0.77316384886E+01 0.86475092226E+01
 0.96940542625E+01 0.10830105098E+02 0.11988904646E+02 0.13087838794E+02 0.15284217629E+02
 0.15675031174E+02 0.15647479368E+02 0.15366201245E+02 0.15059860600E+02 0.14923908776E+02
 0.15038752368E+02 0.15336507738E+02 0.15629346888E+02 0.15687918587E+02 0.15338340746E+02
 0.14537972952E+02 0.13397614030E+02 0.12107821986E+02 0.10785253710E+02 0.95193294264E+01
 0.83780846417E+01 0.73997154697E+01 0.65948807196E+01 0.59563125337E+01 0.54704071891E+01
 0.51259528080E+01 0.49174765645E+01 0.48438611877E+01 0.49052624103E+01 0.51015691315E+01
 0.54337363992E+01 0.59067285081E+01 0.65311231942E+01 0.73204493873E+01 0.82831100634E+01
 0.94107552568E+01 0.10667932516E+02 0.11988904646E+02 0.13285434479E+02 0.14446507634E+02
 0.16009835098E+02 0.16010038698E+02 0.15636482979E+02 0.15150157809E+02 0.14815716940E+02
 0.14800189976E+02 0.15111034469E+02 0.15593594398E+02 0.15988478026E+02 0.16030235463E+02
 0.15552354550E+02 0.14556740028E+02 0.13216383817E+02 0.11764072532E+02 0.10324289046E+02
 0.89868886404E+01 0.78140254339E+01 0.68343182701E+01 0.60487685954E+01 0.54432420099E+01
 0.50007419372E+01 0.47087220452E+01 0.45606538514E+01 0.45542471493E+01 0.46894832599E+01
 0.49684524950E+01 0.53971394056E+01 0.59874000393E+01 0.67559800334E+01 0.77178262215E+01
 0.88739923303E+01 0.10198715746E+02 0.11632664103E+02 0.13087838794E+02 0.14446507634E+02
 0.15482473379E+02 0.17223971629E+02 0.17533428175E+02 0.17623405588E+02 0.17627785921E+02
 0.17627327008E+02 0.17625688536E+02 0.17548459202E+02 0.17264833609E+02 0.16636120049E+02
 0.15583862373E+02 0.14148771519E+02 0.12503134495E+02 0.10844654135E+02 0.92711810055E+01
 0.78566421876E+01 0.66486716037E+01 0.56627026045E+01 0.48883076408E+01 0.43022505263E+01
 0.38807677744E+01 0.36062623839E+01 0.34683829728E+01 0.34625097058E+01 0.35884273992E+01
 0.38502974823E+01 0.42579142316E+01 0.48282387285E+01 0.55846513700E+01 0.65508597000E+01
 0.77390329064E+01 0.91364980735E+01 0.10698449555E+02 0.12352678766E+02 0.14005860596E+02
 0.15468549743E+02 0.16558901770E+02 0.17533428175E+02 0.17722269606E+02 0.17766134017E+02
 0.17768002166E+02 0.17766670060E+02 0.17730016007E+02 0.17560064121E+02 0.17117739472E+02
 0.16277632476E+02 0.15000111626E+02 0.13381754596E+02 0.11640319133E+02 0.99484788580E+01
 0.83905018433E+01 0.70302950071E+01 0.59002547074E+01 0.50007722179E+01 0.43111751972E+01
 0.38040848530E+01 0.34558162208E+01 0.32503207629E+01 0.31788322124E+01 0.32384899639E+01
 0.34316888543E+01 0.37665789332E+01 0.42584760696E+01 0.49304949628E+01 0.58100660699E+01
 0.69190066903E+01 0.82593222658E+01 0.98017138362E+01 0.11484768752E+02 0.13226477703E+02
 0.14865916196E+02 0.16179972473E+02 0.17059485931E+02 0.17623405588E+02 0.17766134017E+02
 0.17807726082E+02 0.17808902254E+02 0.17772526265E+02 0.17643178473E+02 0.17312167564E+02
 0.16647272450E+02 0.15555970307E+02 0.14056342033E+02 0.12308152415E+02 0.10543422568E+02
 0.88823397897E+01 0.73990001929E+01 0.61420820704E+01 0.51258914615E+01 0.43364434000E+01
 0.37458982825E+01 0.33260384785E+01 0.30553466139E+01 0.29203138478E+01 0.29145073410E+01
 0.30377376980E+01 0.32958772075E+01 0.37015893770E+01 0.42755996704E+01 0.50458609691E+01
 0.60408320829E+01 0.72762553578E+01 0.87406784545E+01 0.10388513647E+02 0.12147360698E+02
 0.13906098098E+02 0.15436507217E+02 0.16566974601E+02 0.17267450871E+02 0.17627785921E+02
 0.17768002166E+02 0.17808902254E+02 0.17775166003E+02 0.17646326028E+02 0.17354674220E+02
 0.16792663690E+02 0.15853069423E+02 0.14498214183E+02 0.12817929921E+02 0.11026109728E+02
 0.93032769564E+01 0.77317801357E+01 0.63726161669E+01 0.52546609423E+01 0.43739093709E+01
 0.37053536699E+01 0.32182299283E+01 0.28864406816E+01 0.26920130890E+01 0.26246501330E+01
 0.26808370326E+01 0.28635356092E+01 0.31823734944E+01 0.36545505110E+01 0.43055174745E+01
 0.51659792345E+01 0.62620201958E+01 0.76000935508E+01 0.91545607721E+01 0.10866979895E+02
 0.12657781630E+02 0.14358264387E+02 0.15747922595E+02 0.16724545983E+02 0.17316473805E+02
 0.17627327008E+02 0.17766670060E+02 0.17772526265E+02 0.17646326028E+02 0.17355026398E+02
 0.16828462336E+02 0.15976368996E+02 0.14739629785E+02 0.13154459993E+02 0.11382727936E+02
 0.96341686923E+01 0.80096551084E+01 0.65769894849E+01 0.53773061261E+01 0.44178686247E+01
 0.36795647303E+01 0.31316262431E+01 0.27445077475E+01 0.24961585937E+01 0.23727447587E+01
 0.23675147718E+01 0.24801363167E+01 0.27167422509E+01 0.30905640394E+01 0.36229540942E+01
 0.43428762460E+01 0.52813257480E+01 0.64591035144E+01 0.78719397935E+01 0.94818059074E+01
 0.11222530871E+02 0.12999738023E+02 0.14610054764E+02 0.15881213920E+02 0.16766214482E+02
 0.17318221053E+02 0.17625688536E+02 0.17730016007E+02 0.17643178473E+02 0.17354674220E+02
 0.16828462336E+02 0.16006574089E+02 0.14838783397E+02 0.13335958270E+02 0.11613273235E+02
 0.98677114262E+01 0.82209334089E+01 0.67433029824E+01 0.54846441186E+01 0.44624942868E+01
 0.36650737419E+01 0.30641035854E+01 0.26285053087E+01 0.23328720722E+01 0.21599834935E+01
 0.21001364502E+01 0.21500619461E+01 0.23124942340E+01 0.25965072163E+01 0.30185850396E+01
 0.36034472925E+01 0.43819207021E+01 0.53830092725E+01 0.66205458860E+01 0.80800203736E+01
 0.97143622411E+01 0.11454437257E+02 0.13187753067E+02 0.14716763246E+02 0.15916283599E+02
 0.16767496370E+02 0.17317636312E+02 0.17548459202E+02 0.17560064121E+02 0.17312167564E+02
 0.16792663690E+02 0.15976368996E+02 0.14838783397E+02 0.13391874089E+02 0.11724326190E+02
 0.10004943736E+02 0.83613469560E+01 0.68645636934E+01 0.55695684551E+01 0.45022737892E+01
 0.36583353812E+01 0.30133874650E+01 0.25366187058E+01 0.22006194533E+01 0.19853908287E+01
 0.18784625971E+01 0.18738729139E+01 0.19714299149E+01 0.21765758602E+01 0.25010377348E+01
 0.29640586705E+01 0.35925744552E+01 0.44174788096E+01 0.54641443507E+01 0.67391308045E+01
 0.82195231165E+01 0.98527643940E+01 0.11569122472E+02 0.13249255342E+02 0.14720953916E+02
 0.15887527327E+02 0.16731801315E+02 0.17276804052E+02 0.17264833609E+02 0.17117739472E+02
 0.16647272450E+02 0.15853069423E+02 0.14739629785E+02 0.13335958270E+02 0.11724326190E+02
 0.10049936358E+02 0.84308804768E+01 0.69377555741E+01 0.56278996671E+01 0.45331676261E+01
 0.36560489449E+01 0.29769810561E+01 0.24668196505E+01 0.20973802270E+01 0.18467466692E+01
 0.17002290421E+01 0.16495146719E+01 0.16918062505E+01 0.18294697879E+01 0.20702616230E+01
 0.24282081385E+01 0.29245989887E+01 0.35872517529E+01 0.44455585574E+01 0.55203736157E+01
 0.68116212038E+01 0.82902554937E+01 0.99008759693E+01 0.11573962355E+02 0.13198010253E+02
 0.14624672537E+02 0.15765842307E+02 0.16589029548E+02 0.17088605305E+02 0.16636120049E+02
 0.16277632476E+02 0.15555970307E+02 0.14498214183E+02 0.13154459993E+02 0.11613273235E+02
 0.10004943736E+02 0.84308804768E+01 0.69621135643E+01 0.56574219440E+01 0.45526233490E+01
 0.36558761839E+01 0.29527074195E+01 0.24168723706E+01 0.20207218114E+01 0.17413081775E+01
 0.15622442064E+01 0.14732940727E+01 0.14695013901E+01 0.15506616828E+01 0.17212899130E+01
 0.19911015935E+01 0.23758943819E+01 0.28980700111E+01 0.35850437496E+01 0.44635360090E+01
 0.55495158108E+01 0.68372062753E+01 0.82933176803E+01 0.98608036183E+01 0.11469426553E+02
 0.13022469429E+02 0.14388217804E+02 0.15473984332E+02 0.16227105451E+02 0.16619044310E+02
 0.15583862373E+02 0.15000111626E+02 0.14056342033E+02 0.12817929921E+02 0.11382727936E+02
 0.98677114262E+01 0.83613469560E+01 0.69377555741E+01 0.56574219440E+01 0.45592193934E+01
 0.36561684115E+01 0.29389035348E+01 0.23848899291E+01 0.19681972014E+01 0.16659307113E+01
 0.14607114280E+01 0.13407563448E+01 0.12992521773E+01 0.13338658741E+01 0.14465610269E+01
 0.16437218777E+01 0.19366295061E+01 0.23421415085E+01 0.28827448612E+01 0.35843168204E+01
 0.44700214541E+01 0.55507688602E+01 0.68158362046E+01 0.82287403595E+01 0.97307125388E+01
 0.11248461869E+02 0.12695494209E+02 0.13955936987E+02 0.14929048929E+02 0.15547042716E+02
 0.15770032626E+02 0.14148771519E+02 0.13381754596E+02 0.12308152415E+02 0.11026109728E+02
 0.96341686923E+01 0.82209334089E+01 0.68645636934E+01 0.56278996671E+01 0.45526233490E+01
 0.36561684115E+01 0.29344142367E+01 0.23693197980E+01 0.19377089693E+01 0.16177077794E+01
 0.13917326062E+01 0.12470196062E+01 0.11752434488E+01 0.11721891465E+01 0.12376703373E+01
 0.13755393404E+01 0.15937525631E+01 0.19046505227E+01 0.23253676711E+01 0.28774782788E+01
 0.35842770194E+01 0.44645904168E+01 0.55240969617E+01 0.67475157657E+01 0.80954093115E+01
 0.95066950585E+01 0.10904262234E+02 0.12200089199E+02 0.13296602692E+02 0.14094350444E+02
 0.14521371478E+02 0.14540088902E+02 0.12503134495E+02 0.11640319133E+02 0.10543422568E+02
 0.93032769564E+01 0.80096551084E+01 0.67433029824E+01 0.55695684551E+01 0.45331676261E+01
 0.36558761839E+01 0.29389035348E+01 0.23693197980E+01 0.19277182096E+01 0.15942610429E+01
 0.13519372027E+01 0.11875625062E+01 0.10917301161E+01 0.10586583471E+01 0.10862571076E+01
 0.11762469300E+01 0.13341088081E+01 0.15689531952E+01 0.18935875078E+01 0.23246528744E+01
 0.28818574151E+01 0.35849183302E+01 0.44476221236E+01 0.54702247389E+01 0.66329592743E+01
 0.78932987589E+01 0.91877032199E+01 0.10436485234E+02 0.11550182389E+02 0.12437561734E+02
 0.13016684384E+02 0.13228832727E+02 0.13051316401E+02 0.10844654135E+02 0.99484788580E+01
 0.88823397897E+01 0.77317801357E+01 0.65769894849E+01 0.54846441186E+01 0.45022737892E+01
 0.36560489449E+01 0.29527074195E+01 0.23848899291E+01 0.19377089693E+01 0.15942610429E+01
 0.13389467153E+01 0.11588147926E+01 0.10438451222E+01 0.98702803897E+00 0.98461833005E+00
 0.10364383448E+01 0.11459210730E+01 0.13198246894E+01 0.15679070563E+01 0.19028237558E+01
 0.23399578499E+01 0.28962436293E+01 0.35869747989E+01 0.44203958237E+01 0.53912121277E+01
 0.64751686212E+01 0.76267550205E+01 0.87809099266E+01 0.98582928871E+01 0.10773317175E+02
 0.11444522030E+02 0.11806679441E+02 0.11822523382E+02 0.11490402713E+02 0.92711810055E+01
 0.83905018433E+01 0.73990001929E+01 0.63726161669E+01 0.53773061261E+01 0.44624942868E+01
 0.36583353812E+01 0.29769810561E+01 0.24168723706E+01 0.19681972014E+01 0.16177077794E+01
 0.13519372027E+01 0.11588147926E+01 0.10282675606E+01 0.95250927409E+00 0.92644866122E+00
 0.94819182769E+00 0.10193077934E+01 0.11446300762E+01 0.13317457931E+01 0.15905324185E+01
 0.19328665929E+01 0.23721216989E+01 0.29217019525E+01 0.35919468102E+01 0.43853720700E+01
 0.52912016573E+01 0.62809602160E+01 0.73069413028E+01 0.83045483217E+01 0.91984343027E+01
 0.99116788414E+01 0.10376839956E+02 0.10547070940E+02 0.10404686248E+02 0.99645567203E+01
 0.78566421876E+01 0.70302950071E+01 0.61420820704E+01 0.52546609423E+01 0.44178686247E+01
 0.36650737419E+01 0.30133874650E+01 0.24668196505E+01 0.20207218114E+01 0.16659307113E+01
 0.13917326062E+01 0.11875625062E+01 0.10438451222E+01 0.95250927409E+00 0.90754461051E+00
 0.90563802311E+00 0.94663947821E+00 0.10335881956E+01 0.11722830821E+01 0.13706444759E+01
 0.16381302903E+01 0.19852230599E+01 0.24226655568E+01 0.29598894779E+01 0.36021502853E+01
 0.43464020337E+01 0.51768032121E+01 0.60614444752E+01 0.69519044866E+01 0.77865225287E+01
 0.84972699836E+01 0.90192181783E+01 0.93008900699E+01 0.93132478038E+01 0.90550237693E+01
 0.85529146266E+01 0.66486716037E+01 0.59002547074E+01 0.51258914615E+01 0.43739093709E+01
 0.36795647303E+01 0.30641035854E+01 0.25366187058E+01 0.20973802270E+01 0.17413081775E+01
 0.14607114280E+01 0.12470196062E+01 0.10917301161E+01 0.98702803897E+00 0.92644866122E+00
 0.90563802311E+00 0.92298366336E+00 0.97985218182E+00 0.10803564298E+01 0.12307793767E+01
 0.14388595539E+01 0.17130939608E+01 0.20620638804E+01 0.24935438497E+01 0.30129358459E+01
 0.36206510447E+01 0.43085991101E+01 0.50567114713E+01 0.58309222025E+01 0.65839124073E+01
 0.72592401578E+01 0.77985194537E+01 0.81503677217E+01 0.82791602808E+01 0.81714644657E+01
 0.78385204778E+01 0.73141537245E+01 0.56627026045E+01 0.50007722179E+01 0.43364434000E+01
 0.37053536699E+01 0.31316262431E+01 0.26285053087E+01 0.22006194533E+01 0.18467466692E+01
 0.15622442064E+01 0.13407563448E+01 0.11752434488E+01 0.10586583471E+01 0.98461833005E+00
 0.94819182769E+00 0.94663947821E+00 0.97985218182E+00 0.10503472664E+01 0.11628600971E+01
 0.13236702831E+01 0.15398287473E+01 0.18184199988E+01 0.21658517797E+01 0.25869215147E+01
 0.30832630628E+01 0.36509717069E+01 0.42777451274E+01 0.49404649953E+01 0.56044131903E+01
 0.62250896944E+01 0.67529268955E+01 0.71402829406E+01 0.73492556434E+01 0.73584286083E+01
 0.71668390601E+01 0.67941631448E+01 0.62770771469E+01 0.48883076408E+01 0.43111751972E+01
 0.37458982825E+01 0.32182299283E+01 0.27445077475E+01 0.23328720722E+01 0.19853908287E+01
 0.17002290421E+01 0.14732940727E+01 0.12992521773E+01 0.11721891465E+01 0.10862571076E+01
 0.10364383448E+01 0.10193077934E+01 0.10335881956E+01 0.10803564298E+01 0.11628600971E+01
 0.12859906794E+01 0.14555483094E+01 0.16774848131E+01 0.19572344674E+01 0.22990325678E+01
 0.27049339440E+01 0.31732660238E+01 0.36965403499E+01 0.42592866530E+01 0.48366531087E+01
 0.53947180494E+01 0.58931451196E+01 0.62901271224E+01 0.65487556512E+01 0.66433639279E+01
 0.65642502044E+01 0.63195337816E+01 0.59336205775E+01 0.54426727221E+01 0.43022505263E+01
 0.38040848530E+01 0.33260384785E+01 0.28864406816E+01 0.24961585937E+01 0.21599834935E+01
 0.18784625971E+01 0.16495146719E+01 0.14695013901E+01 0.13338658741E+01 0.12376703373E+01
 0.11762469300E+01 0.11459210730E+01 0.11446300762E+01 0.11722830821E+01 0.12307793767E+01
 0.13236702831E+01 0.14555483094E+01 0.16313453080E+01 0.18557038412E+01 0.21324167319E+01
 0.24637401598E+01 0.28493441597E+01 0.32848181616E+01 0.37599307372E+01 0.42571544395E+01
 0.47511849026E+01 0.52101436678E+01 0.55987578365E+01 0.58831652125E+01 0.60363786061E+01
 0.60431045692E+01 0.59026513976E+01 0.56290861514E+01 0.52485510979E+01 0.47945066694E+01
 0.38807677744E+01 0.34558162208E+01 0.30553466139E+01 0.26920130890E+01 0.23727447587E+01
 0.21001364502E+01 0.18738729139E+01 0.16918062505E+01 0.15506616828E+01 0.14465610269E+01
 0.13755393404E+01 0.13341088081E+01 0.13198246894E+01 0.13317457931E+01 0.13706444759E+01
 0.14388595539E+01 0.15398287473E+01 0.16774848131E+01 0.18557038412E+01 0.20778413682E+01
 0.23462219396E+01 0.26613940496E+01 0.30210432690E+01 0.34186290024E+01 0.38420392513E+01
 0.42727766580E+01 0.46862642195E+01 0.50536780787E+01 0.53453028115E+01 0.55349060898E+01
 0.56042032572E+01 0.55462691377E+01 0.53668976173E+01 0.50834681709E+01 0.47216713414E+01
 0.43110839839E+01 0.36062623839E+01 0.32503207629E+01 0.29203138478E+01 0.26246501330E+01
 0.23675147718E+01 0.21500619461E+01 0.19714299149E+01 0.18294697879E+01 0.17212899130E+01
 0.16437218777E+01 0.15937525631E+01 0.15689531952E+01 0.15679070563E+01 0.15905324185E+01
 0.16381302903E+01 0.17130939608E+01 0.18184199988E+01 0.19572344674E+01 0.21324167319E+01
 0.23462219396E+01 0.25997407431E+01 0.28920960620E+01 0.32193885605E+01 0.35735500043E+01
 0.39414427925E+01 0.43046615018E+01 0.46404321163E+01 0.49237652788E+01 0.51306913514E+01
 0.52420455617E+01 0.52469334823E+01 0.51448689269E+01 0.49458662176E+01 0.46684606302E+01
 0.43363377212E+01 0.39745620017E+01 0.34683829728E+01 0.31788322124E+01 0.29145073410E+01
 0.26808370326E+01 0.24801363167E+01 0.23124942340E+01 0.21765758602E+01 0.20702616230E+01
 0.19911015935E+01 0.19366295061E+01 0.19046505227E+01 0.18935875078E+01 0.19028237558E+01
 0.19328665929E+01 0.19852230599E+01 0.20620638804E+01 0.21658517797E+01 0.22990325678E+01
 0.24637401598E+01 0.26613940496E+01 0.28920960620E+01 0.31538135031E+01 0.34414455943E+01
 0.37459982721E+01 0.40541809571E+01 0.43487253907E+01 0.46096200722E+01 0.48162916043E+01
 0.49505232062E+01 0.49995608417E+01 0.49585640446E+01 0.48315877947E+01 0.46307486406E+01
 0.43738904358E+01 0.40815186298E+01 0.37738235200E+01 0.34625097058E+01 0.32384899639E+01
 0.30377376980E+01 0.28635356092E+01 0.27167422509E+01 0.25965072163E+01 0.25010377348E+01
 0.24282081385E+01 0.23758943819E+01 0.23421415085E+01 0.23253676711E+01 0.23246528744E+01
 0.23399578499E+01 0.23721216989E+01 0.24226655568E+01 0.24935438497E+01 0.25869215147E+01
 0.27049339440E+01 0.28493441597E+01 0.30210432690E+01 0.32193885605E+01 0.34414455943E+01
 0.36813026737E+01 0.39296839161E+01 0.41740417042E+01 0.43992282148E+01 0.45888152560E+01
 0.47270769507E+01 0.48014178809E+01 0.48046730927E+01 0.47365329255E+01 0.46035867581E+01
 0.44180052279E+01 0.41953378435E+01 0.39520754012E+01 0.37035477111E+01 0.35884273992E+01
 0.34316888543E+01 0.32958772075E+01 0.31823734944E+01 0.30905640394E+01 0.30185850396E+01
 0.29640586705E+01 0.29245989887E+01 0.28980700111E+01 0.28827448612E+01 0.28774782788E+01
 0.28818574151E+01 0.28962436293E+01 0.29217019525E+01 0.29598894779E+01 0.30129358459E+01
 0.30832630628E+01 0.31732660238E+01 0.32848181616E+01 0.34186290024E+01 0.35735500043E+01
 0.37459982721E+01 0.39296839161E+01 0.41157376790E+01 0.42932172238E+01 0.44499524737E+01
 0.45737553275E+01 0.46539876077E+01 0.46832588391E+01 0.46587803398E+01 0.45828989211E+01
 0.44626268227E+01 0.43083645998E+01 0.41322409919E+01 0.39464988480E+01 0.37622119530E+01
 0.38502974823E+01 0.37665789332E+01 0.37015893770E+01 0.36545505110E+01 0.36229540942E+01
 0.36034472925E+01 0.35925744552E+01 0.35872517529E+01 0.35850437496E+01 0.35843168204E+01
 0.35842770194E+01 0.35849183302E+01 0.35869747989E+01 0.35919468102E+01 0.36021502853E+01
 0.36206510447E+01 0.36509717069E+01 0.36965403499E+01 0.37599307372E+01 0.38420392513E+01
 0.39414427925E+01 0.40541809571E+01 0.41740417042E+01 0.42932172238E+01 0.44031211656E+01
 0.44952474029E+01 0.45620505132E+01 0.45978137796E+01 0.45993846001E+01 0.45666156654E+01
 0.45023952689E+01 0.44122488746E+01 0.43036079781E+01 0.41849241366E+01 0.40647890077E+01
 0.39511076002E+01 0.42579142316E+01 0.42584760696E+01 0.42755996704E+01 0.43055174745E+01
 0.43428762460E+01 0.43819207021E+01 0.44174788096E+01 0.44455585574E+01 0.44635360090E+01
 0.44700214541E+01 0.44645904168E+01 0.44476221236E+01 0.44203958237E+01 0.43853720700E+01
 0.43464020337E+01 0.43085991101E+01 0.42777451274E+01 0.42592866530E+01 0.42571544395E+01
 0.42727766580E+01 0.43046615018E+01 0.43487253907E+01 0.43992282148E+01 0.44499524737E+01
 0.44952474029E+01 0.45306946543E+01 0.45533278488E+01 0.45615073786E+01 0.45546830568E+01
 0.45332894711E+01 0.44988672598E+01 0.44542899325E+01 0.44038675315E+01 0.43531404661E+01
 0.43082782375E+01 0.42751032225E+01 0.48282387285E+01 0.49304949628E+01 0.50458609691E+01
 0.51659792345E+01 0.52813257480E+01 0.53830092725E+01 0.54641443507E+01 0.55203736157E+01
 0.55495158108E+01 0.55507688602E+01 0.55240969617E+01 0.54702247389E+01 0.53912121277E+01
 0.52912016573E+01 0.51768032121E+01 0.50567114713E+01 0.49404649953E+01 0.48366531087E+01
 0.47511849026E+01 0.46862642195E+01 0.46404321163E+01 0.46096200722E+01 0.45888152560E+01
 0.45737553275E+01 0.45620505132E+01 0.45533278488E+01 0.45484327212E+01 0.45482242827E+01
 0.45527207778E+01 0.45611005507E+01 0.45725209767E+01 0.45872524944E+01 0.46074767440E+01
 0.46372612283E+01 0.46815782114E+01 0.47446521771E+01 0.55846513700E+01 0.58100660699E+01
 0.60408320829E+01 0.62620201958E+01 0.64591035144E+01 0.66205458860E+01 0.67391308045E+01
 0.68116212038E+01 0.68372062753E+01 0.68158362046E+01 0.67475157657E+01 0.66329592743E+01
 0.64751686212E+01 0.62809602160E+01 0.60614444752E+01 0.58309222025E+01 0.56044131903E+01
 0.53947180494E+01 0.52101436678E+01 0.50536780787E+01 0.49237652788E+01 0.48162916043E+01
 0.47270769507E+01 0.46539876077E+01 0.45978137796E+01 0.45615073786E+01 0.45482242827E+01
 0.45593435876E+01 0.45936513495E+01 0.46481262535E+01 0.47198047089E+01 0.48076541052E+01
 0.49134518745E+01 0.50411735912E+01 0.51950525153E+01 0.53770389979E+01 0.65508597000E+01
 0.69190066903E+01 0.72762553578E+01 0.76000935508E+01 0.78719397935E+01 0.80800203736E+01
 0.82195231165E+01 0.82902554937E+01 0.82933176803E+01 0.82287403595E+01 0.80954093115E+01
 0.78932987589E+01 0.76267550205E+01 0.73069413028E+01 0.69519044866E+01 0.65839124073E+01
 0.62250896944E+01 0.58931451196E+01 0.55987578365E+01 0.53453028115E+01 0.51306913514E+01
 0.49505232062E+01 0.48014178809E+01 0.46832588391E+01 0.45993846001E+01 0.45546830568E+01
 0.45527207778E+01 0.45936513495E+01 0.46741631178E+01 0.47894449065E+01 0.49359531888E+01
 0.51133821234E+01 0.53247470027E+01 0.55744429453E+01 0.58650060044E+01 0.61937926266E+01
 0.77390329064E+01 0.82593222658E+01 0.87406784545E+01 0.91545607721E+01 0.94818059074E+01
 0.97143622411E+01 0.98527643940E+01 0.99008759693E+01 0.98608036183E+01 0.97307125388E+01
 0.95066950585E+01 0.91877032199E+01 0.87809099266E+01 0.83045483217E+01 0.77865225287E+01
 0.72592401578E+01 0.67529268955E+01 0.62901271224E+01 0.58831652125E+01 0.55349060898E+01
 0.52420455617E+01 0.49995608417E+01 0.48046730927E+01 0.46587803398E+01 0.45666156654E+01
 0.45332894711E+01 0.45611005507E+01 0.46481262535E+01 0.47894449065E+01 0.49801817812E+01
 0.52184930108E+01 0.55066814201E+01 0.58496458998E+01 0.62511267038E+01 0.67091389851E+01
 0.72123570652E+01 0.91364980735E+01 0.98017138362E+01 0.10388513647E+02 0.10866979895E+02
 0.11222530871E+02 0.11454437257E+02 0.11569122472E+02 0.11573962355E+02 0.11469426553E+02
 0.11248461869E+02 0.10904262234E+02 0.10436485234E+02 0.98582928871E+01 0.91984343027E+01
 0.84972699836E+01 0.77985194537E+01 0.71402829406E+01 0.65487556512E+01 0.60363786061E+01
 0.56042032572E+01 0.52469334823E+01 0.49585640446E+01 0.47365329255E+01 0.45828989211E+01
 0.45023952689E+01 0.44988672598E+01 0.45725209767E+01 0.47198047089E+01 0.49359531888E+01
 0.52184930108E+01 0.55694206202E+01 0.59944759991E+01 0.64993380010E+01 0.70839516162E+01
 0.77371264044E+01 0.84337741050E+01 0.10698449555E+02 0.11484768752E+02 0.12147360698E+02
 0.12657781630E+02 0.12999738023E+02 0.13187753067E+02 0.13249255342E+02 0.13198010253E+02
 0.13022469429E+02 0.12695494209E+02 0.12200089199E+02 0.11550182389E+02 0.10773317175E+02
 0.99116788414E+01 0.90192181783E+01 0.81503677217E+01 0.73492556434E+01 0.66433639279E+01
 0.60431045692E+01 0.55462691377E+01 0.51448689269E+01 0.48315877947E+01 0.46035867581E+01
 0.44626268227E+01 0.44122488746E+01 0.44542899325E+01 0.45872524944E+01 0.48076541052E+01
 0.51133821234E+01 0.55066814201E+01 0.59944759991E+01 0.65850048279E+01 0.72814747928E+01
 0.80749370726E+01 0.89394005699E+01 0.98318819964E+01 0.12352678766E+02 0.13226477703E+02
 0.13906098098E+02 0.14358264387E+02 0.14610054764E+02 0.14716763246E+02 0.14720953916E+02
 0.14624672537E+02 0.14388217804E+02 0.13955936987E+02 0.13296602692E+02 0.12437561734E+02
 0.11444522030E+02 0.10376839956E+02 0.93008900699E+01 0.82791602808E+01 0.73584286083E+01
 0.65642502044E+01 0.59026513976E+01 0.53668976173E+01 0.49458662176E+01 0.46307486406E+01
 0.44180052279E+01 0.43083645998E+01 0.43036079781E+01 0.44038675315E+01 0.46074767440E+01
 0.49134518745E+01 0.53247470027E+01 0.58496458998E+01 0.64993380010E+01 0.72814747928E+01
 0.81916027049E+01 0.92059651635E+01 0.10279398807E+02 0.11350437538E+02 0.14005860596E+02
 0.14865916196E+02 0.15436507217E+02 0.15747922595E+02 0.15881213920E+02 0.15916283599E+02
 0.15887527327E+02 0.15765842307E+02 0.15473984332E+02 0.14929048929E+02 0.14094350444E+02
 0.13016684384E+02 0.11806679441E+02 0.10547070940E+02 0.93132478038E+01 0.81714644657E+01
 0.71668390601E+01 0.63195337816E+01 0.56290861514E+01 0.50834681709E+01 0.46684606302E+01
 0.43738904358E+01 0.41953378435E+01 0.41322409919E+01 0.41849241366E+01 0.43531404661E+01
 0.46372612283E+01 0.50411735912E+01 0.55744429453E+01 0.62511267038E+01 0.70839516162E+01
 0.80749370726E+01 0.92059651635E+01 0.10433955699E+02 0.11694154684E+02 0.12911565499E+02
 0.15468549743E+02 0.16179972473E+02 0.16566974601E+02 0.16724545983E+02 0.16766214482E+02
 0.16767496370E+02 0.16731801315E+02 0.16589029548E+02 0.16227105451E+02 0.15547042716E+02
 0.14521371478E+02 0.13228832727E+02 0.11822523382E+02 0.10404686248E+02 0.90550237693E+01
 0.78385204778E+01 0.67941631448E+01 0.59336205775E+01 0.52485510979E+01 0.47216713414E+01
 0.43363377212E+01 0.40815186298E+01 0.39520754012E+01 0.39464988480E+01 0.40647890077E+01
 0.43082782375E+01 0.46815782114E+01 0.51950525153E+01 0.58650060044E+01 0.67091389851E+01
 0.77371264044E+01 0.89394005699E+01 0.10279398807E+02 0.11694154684E+02 0.13104764618E+02
 0.14413918246E+02 0.16558901770E+02 0.17059485931E+02 0.17267450871E+02 0.17316473805E+02
 0.17318221053E+02 0.17317636312E+02 0.17276804052E+02 0.17088605305E+02 0.16619044310E+02
 0.15770032626E+02 0.14540088902E+02 0.13051316401E+02 0.11490402713E+02 0.99645567203E+01
 0.85529146266E+01 0.73141537245E+01 0.62770771469E+01 0.54426727221E+01 0.47945066694E+01
 0.43110839839E+01 0.39745620017E+01 0.37738235200E+01 0.37035477111E+01 0.37622119530E+01
 0.39511076002E+01 0.42751032225E+01 0.47446521771E+01 0.53770389979E+01 0.61937926266E+01
 0.72123570652E+01 0.84337741050E+01 0.98318819964E+01 0.11350437538E+02 0.12911565499E+02
 0.14413918246E+02 0.15673951038E+02 0.18715589065E+02 0.19543707365E+02 0.20039471442E+02
 0.20213014323E+02 0.20067996620E+02 0.19601581670E+02 0.18804049497E+02 0.17665027500E+02
 0.16196972356E+02 0.14470042631E+02 0.12631683034E+02 0.10833653125E+02 0.91540021756E+01
 0.76549526250E+01 0.63771227783E+01 0.53327135073E+01 0.45093140948E+01 0.38808571699E+01
 0.34193059891E+01 0.31021833394E+01 0.29148706290E+01 0.28496536639E+01 0.29040860149E+01
 0.30802106951E+01 0.33851586473E+01 0.38328308844E+01 0.44451000094E+01 0.52498217425E+01
 0.62736413783E+01 0.75305818208E+01 0.90109509208E+01 0.10676686903E+02 0.12467024918E+02
 0.14306637066E+02 0.16050626155E+02 0.17545811248E+02 0.19543707365E+02 0.20253566986E+02
 0.20617261262E+02 0.20632719072E+02 0.20300053114E+02 0.19621576768E+02 0.18596411687E+02
 0.17227128076E+02 0.15549102859E+02 0.13666553240E+02 0.11754402259E+02 0.99387699288E+01
 0.82871337300E+01 0.68521629854E+01 0.56601753087E+01 0.47086954430E+01 0.39746677426E+01
 0.34272614081E+01 0.30383762980E+01 0.27875521955E+01 0.26623382258E+01 0.26569630505E+01
 0.27712453085E+01 0.30104285059E+01 0.33861752268E+01 0.39181713618E+01 0.46340956004E+01
 0.55649548828E+01 0.67348816734E+01 0.81485482760E+01 0.97824714752E+01 0.11586129413E+02
 0.13493186676E+02 0.15386148746E+02 0.17087771072E+02 0.18486973351E+02 0.20039471442E+02
 0.20617261262E+02 0.20823350940E+02 0.20650997487E+02 0.20106204069E+02 0.19201056590E+02
 0.17945575456E+02 0.16360668712E+02 0.14513808291E+02 0.12548841462E+02 0.10640211039E+02
 0.88740735848E+01 0.73103404534E+01 0.59881773145E+01 0.49173381692E+01 0.40815258870E+01
 0.34501832801E+01 0.29911994849E+01 0.26787998951E+01 0.24957059090E+01 0.24322450318E+01
 0.24851777508E+01 0.26572297948E+01 0.29574219452E+01 0.34022613598E+01 0.40168223010E+01
 0.48329163057E+01 0.58816527597E+01 0.71810924303E+01 0.87242256339E+01 0.10474517435E+02
 0.12373270086E+02 0.14339454802E+02 0.16203844680E+02 0.17815823354E+02 0.19102194831E+02
 0.20213014323E+02 0.20632719072E+02 0.20650997487E+02 0.20266932662E+02 0.19497089171E+02
 0.18363302234E+02 0.16889468537E+02 0.15124239162E+02 0.13176497713E+02 0.11220954669E+02
 0.93822260282E+01 0.77249403249E+01 0.62981794184E+01 0.51239295659E+01 0.41952352913E+01
 0.34851788254E+01 0.29600534180E+01 0.25897710887E+01 0.23524536109E+01 0.22345508088E+01
 0.22295421785E+01 0.23371269005E+01 0.25632286136E+01 0.29207592808E+01 0.34308569928E+01
 0.41229417132E+01 0.50306559955E+01 0.61820436751E+01 0.75864415173E+01 0.92247138233E+01
 0.11049820090E+02 0.12998349947E+02 0.14954585555E+02 0.16741648974E+02 0.18244142844E+02
 0.19409528021E+02 0.20067996620E+02 0.20300053114E+02 0.20106204069E+02 0.19497089171E+02
 0.18499755907E+02 0.17147256853E+02 0.15486073388E+02 0.13604119769E+02 0.11653380609E+02
 0.97847856762E+01 0.80720845567E+01 0.65714428029E+01 0.53157393273E+01 0.43082580093E+01
 0.35281703355E+01 0.29428912229E+01 0.25198783005E+01 0.22333708803E+01 0.20660493075E+01
 0.20081651130E+01 0.20564430476E+01 0.22136326634E+01 0.24888432072E+01 0.28986398341E+01
 0.34680564408E+01 0.42292328744E+01 0.52151243718E+01 0.64481071255E+01 0.79275139177E+01
 0.96232145600E+01 0.11480649270E+02 0.13429001356E+02 0.15324385461E+02 0.17009725917E+02
 0.18392066910E+02 0.19422682164E+02 0.19601581670E+02 0.19621576768E+02 0.19201056590E+02
 0.18363302234E+02 0.17147256853E+02 0.15605230497E+02 0.13818514145E+02 0.11919341000E+02
 0.10062669103E+02 0.83330138128E+01 0.67916059382E+01 0.54802075472E+01 0.44121443311E+01
 0.35741494590E+01 0.29369374257E+01 0.24675233806E+01 0.21376215829E+01 0.19267789013E+01
 0.18222001150E+01 0.18177200716E+01 0.19131235220E+01 0.21140372922E+01 0.24325329695E+01
 0.28883056294E+01 0.35090784891E+01 0.43277212259E+01 0.53742225863E+01 0.66637011407E+01
 0.81855749853E+01 0.99006387426E+01 0.11748911963E+02 0.13650167536E+02 0.15453353250E+02
 0.17021203560E+02 0.18268814422E+02 0.19142279412E+02 0.18804049497E+02 0.18596411687E+02
 0.17945575456E+02 0.16889468537E+02 0.15486073388E+02 0.13818514145E+02 0.12009030011E+02
 0.10204262292E+02 0.84945593362E+01 0.69457374374E+01 0.56064195847E+01 0.44987647707E+01
 0.36176015853E+01 0.29386693647E+01 0.24304447872E+01 0.20635737518E+01 0.18154051754E+01
 0.16706711871E+01 0.16206459050E+01 0.16623636444E+01 0.17983204216E+01 0.20366786821E+01
 0.23920464542E+01 0.28864201842E+01 0.35487066922E+01 0.44105266929E+01 0.54971862095E+01
 0.68159855746E+01 0.83474684886E+01 0.10045267500E+02 0.11844680174E+02 0.13659659732E+02
 0.15345768028E+02 0.16776671575E+02 0.17866483406E+02 0.18555549794E+02 0.17665027500E+02
 0.17227128076E+02 0.16360668712E+02 0.15124239162E+02 0.13604119769E+02 0.11919341000E+02
 0.10204262292E+02 0.85492171747E+01 0.70250047181E+01 0.56857714029E+01 0.45610132331E+01
 0.36533040593E+01 0.29443826344E+01 0.24058609064E+01 0.20089162858E+01 0.17298050081E+01
 0.15514505001E+01 0.14630387284E+01 0.14592692204E+01 0.15399256558E+01 0.17098413391E+01
 0.19792872936E+01 0.23647427076E+01 0.28894009211E+01 0.35818010977E+01 0.44706694775E+01
 0.55755643390E+01 0.68961485027E+01 0.84055086334E+01 0.10051563018E+02 0.11764669908E+02
 0.13457485478E+02 0.14997851016E+02 0.16263617099E+02 0.17166000899E+02 0.17644134833E+02
 0.16196972356E+02 0.15549102859E+02 0.14513808291E+02 0.13176497713E+02 0.11653380609E+02
 0.10062669103E+02 0.84945593362E+01 0.70250047181E+01 0.57128401186E+01 0.45935508001E+01
 0.36767510679E+01 0.29505807097E+01 0.23909797017E+01 0.19710857556E+01 0.16673061672E+01
 0.14616288170E+01 0.13416949646E+01 0.13002594647E+01 0.13348150425E+01 0.14474677944E+01
 0.16450166956E+01 0.19393162030E+01 0.23478568949E+01 0.28938111478E+01 0.36039489822E+01
 0.45028824262E+01 0.56039107570E+01 0.68996434735E+01 0.83570465240E+01 0.99192708372E+01
 0.11511627230E+02 0.13045350179E+02 0.14404531938E+02 0.15470814834E+02 0.16156108117E+02
 0.16404915028E+02 0.14470042631E+02 0.13666553240E+02 0.12548841462E+02 0.11220954669E+02
 0.97847856762E+01 0.83330138128E+01 0.69457374374E+01 0.56857714029E+01 0.45935508001E+01
 0.36849217135E+01 0.29544519203E+01 0.23832487306E+01 0.19476036296E+01 0.16252079335E+01
 0.13980228157E+01 0.12528261847E+01 0.11809151666E+01 0.11778572901E+01 0.12434549239E+01
 0.13817606818E+01 0.16011003042E+01 0.19142689623E+01 0.23388566942E+01 0.28968759318E+01
 0.36121424781E+01 0.45042857221E+01 0.55802260000E+01 0.68262498384E+01 0.82042627161E+01
 0.96534088111E+01 0.11094858796E+02 0.12436661414E+02 0.13577595923E+02 0.14412906893E+02
 0.14861907713E+02 0.14881610480E+02 0.12631683034E+02 0.11754402259E+02 0.10640211039E+02
 0.93822260282E+01 0.80720845567E+01 0.67916059382E+01 0.56064195847E+01 0.45610132331E+01
 0.36767510679E+01 0.29544519203E+01 0.23808864458E+01 0.19364338236E+01 0.16010837606E+01
 0.13576388646E+01 0.11926926276E+01 0.10966170034E+01 0.10634752652E+01 0.10911266915E+01
 0.11813437278E+01 0.13397457148E+01 0.15756478596E+01 0.19020893392E+01 0.23359188682E+01
 0.28970130636E+01 0.36052720157E+01 0.44747636766E+01 0.55061531727E+01 0.66801156798E+01
 0.79543682798E+01 0.92651096922E+01 0.10531640071E+02 0.11662722156E+02 0.12564895509E+02
 0.13154072966E+02 0.13369995812E+02 0.13189374646E+02 0.10833653125E+02 0.99387699288E+01
 0.88740735848E+01 0.77249403249E+01 0.65714428029E+01 0.54802075472E+01 0.44987647707E+01
 0.36533040593E+01 0.29505807097E+01 0.23832487306E+01 0.19364338236E+01 0.15932468983E+01
 0.13381041166E+01 0.11580727579E+01 0.10431541184E+01 0.98635791797E+00 0.98394954906E+00
 0.10357507563E+01 0.11451847343E+01 0.13189930963E+01 0.15669124791E+01 0.19015768959E+01
 0.23383528472E+01 0.28941637896E+01 0.35842924390E+01 0.44169657396E+01 0.53868661371E+01
 0.64697210303E+01 0.76200260994E+01 0.87727693060E+01 0.98487156480E+01 0.10762433030E+02
 0.11432632891E+02 0.11794232549E+02 0.11810048548E+02 0.11478434065E+02 0.91540021756E+01
 0.82871337300E+01 0.73103404534E+01 0.62981794184E+01 0.53157393273E+01 0.44121443311E+01
 0.36176015853E+01 0.29443826344E+01 0.23909797017E+01 0.19476036296E+01 0.16010837606E+01
 0.13381041166E+01 0.11467923714E+01 0.10172989108E+01 0.94206171048E+00 0.91616288592E+00
 0.93777378476E+00 0.10084034249E+01 0.11327273234E+01 0.13181156949E+01 0.15742089154E+01
 0.19126758154E+01 0.23467554324E+01 0.28897852619E+01 0.35520450005E+01 0.43359490473E+01
 0.52306163099E+01 0.62075951968E+01 0.72195041540E+01 0.82025128790E+01 0.90825124491E+01
 0.97841386313E+01 0.10241482819E+02 0.10408806482E+02 0.10268829225E+02 0.98360644096E+01
 0.76549526250E+01 0.68521629854E+01 0.59881773145E+01 0.51239295659E+01 0.43082580093E+01
 0.35741494590E+01 0.29386693647E+01 0.24058609064E+01 0.19710857556E+01 0.16252079335E+01
 0.13576388646E+01 0.11580727579E+01 0.10172989108E+01 0.92764334121E+00 0.88343509932E+00
 0.88155989897E+00 0.92187618067E+00 0.10072400952E+01 0.11431212279E+01 0.13370430753E+01
 0.15980931522E+01 0.19364894588E+01 0.23628421750E+01 0.28865383991E+01 0.35128023414E+01
 0.42385495710E+01 0.50479964832E+01 0.59096102262E+01 0.67759100288E+01 0.75868644782E+01
 0.82766469139E+01 0.87827234502E+01 0.90556664305E+01 0.90676361120E+01 0.88174159911E+01
 0.83306051544E+01 0.63771227783E+01 0.56601753087E+01 0.49173381692E+01 0.41952352913E+01
 0.35281703355E+01 0.29369374257E+01 0.24304447872E+01 0.20089162858E+01 0.16673061672E+01
 0.13980228157E+01 0.11926926276E+01 0.10431541184E+01 0.94206171048E+00 0.88343509932E+00
 0.86327221788E+00 0.88008602029E+00 0.93512587167E+00 0.10321791382E+01 0.11770676898E+01
 0.13770483719E+01 0.16402403809E+01 0.19750151984E+01 0.23890756734E+01 0.28878132246E+01
 0.34716523923E+01 0.41326070922E+01 0.48509929599E+01 0.55936769799E+01 0.63150436192E+01
 0.69611213062E+01 0.74764294437E+01 0.78123450062E+01 0.79352419131E+01 0.78324717842E+01
 0.75146515998E+01 0.70136898700E+01 0.53327135073E+01 0.47086954430E+01 0.40815258870E+01
 0.34851788254E+01 0.29428912229E+01 0.24675233806E+01 0.20635737518E+01 0.17298050081E+01
 0.14616288170E+01 0.12528261847E+01 0.10966170034E+01 0.98635791797E+00 0.91616288592E+00
 0.88155989897E+00 0.88008602029E+00 0.91164009525E+00 0.97848449186E+00 0.10849160583E+01
 0.12367145324E+01 0.14404988883E+01 0.17030763912E+01 0.20307349888E+01 0.24282417909E+01
 0.28972294929E+01 0.34338609107E+01 0.40261499036E+01 0.46518215991E+01 0.52777885687E+01
 0.58620524627E+01 0.63582010913E+01 0.67218806883E+01 0.69179331497E+01 0.69265332808E+01
 0.67467970211E+01 0.63969426970E+01 0.59109720240E+01 0.45093140948E+01 0.39746677426E+01
 0.34501832801E+01 0.29600534180E+01 0.25198783005E+01 0.21376215829E+01 0.18154051754E+01
 0.15514505001E+01 0.13416949646E+01 0.11809151666E+01 0.10634752652E+01 0.98394954906E+00
 0.93777378476E+00 0.92187618067E+00 0.93512587167E+00 0.97848449186E+00 0.10548524808E+01
 0.11686623003E+01 0.13252955235E+01 0.15304230978E+01 0.17893376788E+01 0.21062105359E+01
 0.24830535599E+01 0.29181894263E+01 0.34043080250E+01 0.39265780541E+01 0.44615621837E+01
 0.49777015812E+01 0.54378489064E+01 0.58037750150E+01 0.60418978146E+01 0.61289476195E+01
 0.60561508649E+01 0.58308525224E+01 0.54751604265E+01 0.50219594167E+01 0.38808571699E+01
 0.34272614081E+01 0.29911994849E+01 0.25897710887E+01 0.22333708803E+01 0.19267789013E+01
 0.16706711871E+01 0.14630387284E+01 0.13002594647E+01 0.11778572901E+01 0.10911266915E+01
 0.10357507563E+01 0.10084034249E+01 0.10072400952E+01 0.10321791382E+01 0.10849160583E+01
 0.11686623003E+01 0.12876644320E+01 0.14466131810E+01 0.16500378701E+01 0.19016818714E+01
 0.22037385884E+01 0.25558011557E+01 0.29534955980E+01 0.33869951698E+01 0.38398621575E+01
 0.42888124358E+01 0.47049326231E+01 0.50565536761E+01 0.53134767174E+01 0.54517395786E+01
 0.54578036593E+01 0.53310633518E+01 0.50839677191E+01 0.47397044564E+01 0.43281009271E+01
 0.34193059891E+01 0.30383762980E+01 0.26787998951E+01 0.23524536109E+01 0.20660493075E+01
 0.18222001150E+01 0.16206459050E+01 0.14592692204E+01 0.13348150425E+01 0.12434549239E+01
 0.11813437278E+01 0.11451847343E+01 0.11327273234E+01 0.11431212279E+01 0.11770676898E+01
 0.12367145324E+01 0.13252955235E+01 0.14466131810E+01 0.16045010879E+01 0.18023104620E+01
 0.20423325841E+01 0.23250300934E+01 0.26480340547E+01 0.30050022101E+01 0.33845816292E+01
 0.37698628057E+01 0.41387805200E+01 0.44657910222E+01 0.47248105148E+01 0.48929681869E+01
 0.49543852692E+01 0.49030495618E+01 0.47439757500E+01 0.44922668323E+01 0.41703355147E+01
 0.38041183102E+01 0.31021833394E+01 0.27875521955E+01 0.24957059090E+01 0.22345508088E+01
 0.20081651130E+01 0.18177200716E+01 0.16623636444E+01 0.15399256558E+01 0.14474677944E+01
 0.13817606818E+01 0.13397457148E+01 0.13189930963E+01 0.13181156949E+01 0.13370430753E+01
 0.13770483719E+01 0.14404988883E+01 0.15304230978E+01 0.16500378701E+01 0.18023104620E+01
 0.19895136182E+01 0.22126741397E+01 0.24708463146E+01 0.27602296334E+01 0.30732680416E+01
 0.33979958450E+01 0.37179784256E+01 0.40131603659E+01 0.42617539421E+01 0.44430184780E+01
 0.45404635113E+01 0.45447433396E+01 0.44554332486E+01 0.42811189430E+01 0.40377602994E+01
 0.37458550043E+01 0.34272251454E+01 0.29148706290E+01 0.26623382258E+01 0.24322450318E+01
 0.22295421785E+01 0.20564430476E+01 0.19131235220E+01 0.17983204216E+01 0.17098413391E+01
 0.16450166956E+01 0.16011003042E+01 0.15756478596E+01 0.15669124791E+01 0.15742089154E+01
 0.15980931522E+01 0.16402403809E+01 0.17030763912E+01 0.17893376788E+01 0.19016818714E+01
 0.20423325841E+01 0.22126741397E+01 0.24127346479E+01 0.26405427715E+01 0.28914023367E+01
 0.31572352266E+01 0.34262584727E+01 0.36832824270E+01 0.39108095689E+01 0.40909393254E+01
 0.42078772241E+01 0.42505861962E+01 0.42148796950E+01 0.41042636664E+01 0.39292223440E+01
 0.37052211847E+01 0.34500917763E+01 0.31814849090E+01 0.28496536639E+01 0.26569630505E+01
 0.24851777508E+01 0.23371269005E+01 0.22136326634E+01 0.21140372922E+01 0.20366786821E+01
 0.19792872936E+01 0.19393162030E+01 0.19142689623E+01 0.19020893392E+01 0.19015768959E+01
 0.19126758154E+01 0.19364894588E+01 0.19750151984E+01 0.20307349888E+01 0.21062105359E+01
 0.22037385884E+01 0.23250300934E+01 0.24708463146E+01 0.26405427715E+01 0.28315223131E+01
 0.30386811758E+01 0.32540170108E+01 0.34666031490E+01 0.36631049148E+01 0.38289453889E+01
 0.39501064935E+01 0.40153281551E+01 0.40181875918E+01 0.39584006725E+01 0.38418749621E+01
 0.36795057306E+01 0.34851565160E+01 0.32734503867E+01 0.30578978280E+01 0.29040860149E+01
 0.27712453085E+01 0.26572297948E+01 0.25632286136E+01 0.24888432072E+01 0.24325329695E+01
 0.23920464542E+01 0.23647427076E+01 0.23478568949E+01 0.23388566942E+01 0.23359188682E+01
 0.23383528472E+01 0.23467554324E+01 0.23628421750E+01 0.23890756734E+01 0.24282417909E+01
 0.24830535599E+01 0.25558011557E+01 0.26480340547E+01 0.27602296334E+01 0.28914023367E+01
 0.30386811758E+01 0.31969758409E+01 0.33588690808E+01 0.35148295368E+01 0.36538292159E+01
 0.37644614057E+01 0.38365440107E+01 0.38629120695E+01 0.38408508385E+01 0.37726536065E+01
 0.36651209641E+01 0.35282145026E+01 0.33733140219E+01 0.32115578564E+01 0.30526239067E+01
 0.30802106951E+01 0.30104285059E+01 0.29574219452E+01 0.29207592808E+01 0.28986398341E+01
 0.28883056294E+01 0.28864201842E+01 0.28894009211E+01 0.28938111478E+01 0.28968759318E+01
 0.28970130636E+01 0.28941637896E+01 0.28897852619E+01 0.28865383991E+01 0.28878132246E+01
 0.28972294929E+01 0.29181894263E+01 0.29534955980E+01 0.30050022101E+01 0.30732680416E+01
 0.31572352266E+01 0.32540170108E+01 0.33588690808E+01 0.34653613732E+01 0.35657559804E+01
 0.36516542017E+01 0.37149843545E+01 0.37492534785E+01 0.37507564911E+01 0.37193321012E+01
 0.36583886620E+01 0.35742055703E+01 0.34747683686E+01 0.33685050540E+01 0.32632397069E+01
 0.31655104840E+01 0.33851586473E+01 0.33861752268E+01 0.34022613598E+01 0.34308569928E+01
 0.34680564408E+01 0.35090784891E+01 0.35487066922E+01 0.35818010977E+01 0.36039489822E+01
 0.36121424781E+01 0.36052720157E+01 0.35842924390E+01 0.35520450005E+01 0.35128023414E+01
 0.34716523923E+01 0.34338609107E+01 0.34043080250E+01 0.33869951698E+01 0.33845816292E+01
 0.33979958450E+01 0.34262584727E+01 0.34666031490E+01 0.35148295368E+01 0.35657559804E+01
 0.36137208930E+01 0.36531739947E+01 0.36793668330E+01 0.36890425184E+01 0.36809640284E+01
 0.36561415359E+01 0.36176791746E+01 0.35702567823E+01 0.35193966133E+01 0.34707447184E+01
 0.34295074696E+01 0.33999945369E+01 0.38328308844E+01 0.39181713618E+01 0.40168223010E+01
 0.41229417132E+01 0.42292328744E+01 0.43277212259E+01 0.44105266929E+01 0.44706694775E+01
 0.45028824262E+01 0.45042857221E+01 0.44747636766E+01 0.44169657396E+01 0.43359490473E+01
 0.42385495710E+01 0.41326070922E+01 0.40261499036E+01 0.39265780541E+01 0.38398621575E+01
 0.37698628057E+01 0.37179784256E+01 0.36832824270E+01 0.36631049148E+01 0.36538292159E+01
 0.36516542017E+01 0.36531739947E+01 0.36557242526E+01 0.36575111972E+01 0.36576095587E+01
 0.36559527759E+01 0.36533748230E+01 0.36516454408E+01 0.36534053864E+01 0.36619774645E+01
 0.36810659197E+01 0.37142915261E+01 0.37644855422E+01 0.44451000094E+01 0.46340956004E+01
 0.48329163057E+01 0.50306559955E+01 0.52151243718E+01 0.53742225863E+01 0.54971862095E+01
 0.55755643390E+01 0.56039107570E+01 0.55802260000E+01 0.55061531727E+01 0.53868661371E+01
 0.52306163099E+01 0.50479964832E+01 0.48509929599E+01 0.46518215991E+01 0.44615621837E+01
 0.42888124358E+01 0.41387805200E+01 0.40131603659E+01 0.39108095689E+01 0.38289453889E+01
 0.37644614057E+01 0.37149843545E+01 0.36793668330E+01 0.36575111972E+01 0.36497501566E+01
 0.36562497266E+01 0.36768169420E+01 0.37111650307E+01 0.37594215397E+01 0.38226116174E+01
 0.39028792519E+01 0.40032115050E+01 0.41265239576E+01 0.42742720923E+01 0.52498217425E+01
 0.55649548828E+01 0.58816527597E+01 0.61820436751E+01 0.64481071255E+01 0.66637011407E+01
 0.68159855746E+01 0.68961485027E+01 0.68996434735E+01 0.68262498384E+01 0.66801156798E+01
 0.64697210303E+01 0.62075951968E+01 0.59096102262E+01 0.55936769799E+01 0.52777885687E+01
 0.49777015812E+01 0.47049326231E+01 0.44657910222E+01 0.42617539421E+01 0.40909393254E+01
 0.39501064935E+01 0.38365440107E+01 0.37492534785E+01 0.36890425184E+01 0.36576095587E+01
 0.36562497266E+01 0.36849959800E+01 0.37426530506E+01 0.38276096407E+01 0.39389576120E+01
 0.40773786235E+01 0.42453074407E+01 0.44460370505E+01 0.46818380889E+01 0.49517276535E+01
 0.62736413783E+01 0.67348816734E+01 0.71810924303E+01 0.75864415173E+01 0.79275139177E+01
 0.81855749853E+01 0.83474684886E+01 0.84055086334E+01 0.83570465240E+01 0.82042627161E+01
 0.79543682798E+01 0.76200260994E+01 0.72195041540E+01 0.67759100288E+01 0.63150436192E+01
 0.58620524627E+01 0.54378489064E+01 0.50565536761E+01 0.47248105148E+01 0.44430184780E+01
 0.42078772241E+01 0.40153281551E+01 0.38629120695E+01 0.37507564911E+01 0.36809640284E+01
 0.36559527759E+01 0.36768169420E+01 0.37426530506E+01 0.38511633301E+01 0.40001605260E+01
 0.41891784463E+01 0.44202930729E+01 0.46974816635E+01 0.50244165898E+01 0.54013503360E+01
 0.58222913211E+01 0.75305818208E+01 0.81485482760E+01 0.87242256339E+01 0.92247138233E+01
 0.96232145600E+01 0.99006387426E+01 0.10045267500E+02 0.10051563018E+02 0.99192708372E+01
 0.96534088111E+01 0.92651096922E+01 0.87727693060E+01 0.82025128790E+01 0.75868644782E+01
 0.69611213062E+01 0.63582010913E+01 0.58037750150E+01 0.53134767174E+01 0.48929681869E+01
 0.45404635113E+01 0.42505861962E+01 0.40181875918E+01 0.38408508385E+01 0.37193321012E+01
 0.36561415359E+01 0.36533748230E+01 0.37111650307E+01 0.38276096407E+01 0.40001605260E+01
 0.42277128934E+01 0.45122057163E+01 0.48585754290E+01 0.52725154192E+01 0.57565464558E+01
 0.63058448852E+01 0.69055308685E+01 0.90109509208E+01 0.97824714752E+01 0.10474517435E+02
 0.11049820090E+02 0.11480649270E+02 0.11748911963E+02 0.11844680174E+02 0.11764669908E+02
 0.11511627230E+02 0.11094858796E+02 0.10531640071E+02 0.98487156480E+01 0.90825124491E+01
 0.82766469139E+01 0.74764294437E+01 0.67218806883E+01 0.60418978146E+01 0.54517395786E+01
 0.49543852692E+01 0.45447433396E+01 0.42148796950E+01 0.39584006725E+01 0.37726536065E+01
 0.36583886620E+01 0.36176791746E+01 0.36516454408E+01 0.37594215397E+01 0.39389576120E+01
 0.41891784463E+01 0.45122057163E+01 0.49140887541E+01 0.54029540493E+01 0.59846271287E+01
 0.66571215727E+01 0.74061858356E+01 0.82038721317E+01 0.10676686903E+02 0.11586129413E+02
 0.12373270086E+02 0.12998349947E+02 0.13429001356E+02 0.13650167536E+02 0.13659659732E+02
 0.13457485478E+02 0.13045350179E+02 0.12436661414E+02 0.11662722156E+02 0.10762433030E+02
 0.97841386313E+01 0.87827234502E+01 0.78123450062E+01 0.69179331497E+01 0.61289476195E+01
 0.54578036593E+01 0.49030495618E+01 0.44554332486E+01 0.41042636664E+01 0.38418749621E+01
 0.36651209641E+01 0.35742055703E+01 0.35702567823E+01 0.36534053864E+01 0.38226116174E+01
 0.40773786235E+01 0.44202930729E+01 0.48585754290E+01 0.54029540493E+01 0.60632998044E+01
 0.68421039872E+01 0.77282056559E+01 0.86934656757E+01 0.96941252287E+01 0.12467024918E+02
 0.13493186676E+02 0.14339454802E+02 0.14954585555E+02 0.15324385461E+02 0.15453353250E+02
 0.15345768028E+02 0.14997851016E+02 0.14404531938E+02 0.13577595923E+02 0.12564895509E+02
 0.11432632891E+02 0.10241482819E+02 0.90556664305E+01 0.79352419131E+01 0.69265332808E+01
 0.60561508649E+01 0.53310633518E+01 0.47439757500E+01 0.42811189430E+01 0.39292223440E+01
 0.36795057306E+01 0.35282145026E+01 0.34747683686E+01 0.35193966133E+01 0.36619774645E+01
 0.39028792519E+01 0.42453074407E+01 0.46974816635E+01 0.52725154192E+01 0.59846271287E+01
 0.68421039872E+01 0.78393612975E+01 0.89514216272E+01 0.10133564616E+02 0.11326803491E+02
 0.14306637066E+02 0.15386148746E+02 0.16203844680E+02 0.16741648974E+02 0.17009725917E+02
 0.17021203560E+02 0.16776671575E+02 0.16263617099E+02 0.15470814834E+02 0.14412906893E+02
 0.13154072966E+02 0.11794232549E+02 0.10408806482E+02 0.90676361120E+01 0.78324717842E+01
 0.67467970211E+01 0.58308525224E+01 0.50839677191E+01 0.44922668323E+01 0.40377602994E+01
 0.37052211847E+01 0.34851565160E+01 0.33733140219E+01 0.33685050540E+01 0.34707447184E+01
 0.36810659197E+01 0.40032115050E+01 0.44460370505E+01 0.50244165898E+01 0.57565464558E+01
 0.66571215727E+01 0.77282056559E+01 0.89514216272E+01 0.10285270905E+02 0.11669469222E+02
 0.13034587255E+02 0.16050626155E+02 0.17087771072E+02 0.17815823354E+02 0.18244142844E+02
 0.18392066910E+02 0.18268814422E+02 0.17866483406E+02 0.17166000899E+02 0.16156108117E+02
 0.14861907713E+02 0.13369995812E+02 0.11810048548E+02 0.10268829225E+02 0.88174159911E+01
 0.75146515998E+01 0.63969426970E+01 0.54751604265E+01 0.47397044564E+01 0.41703355147E+01
 0.37458550043E+01 0.34500917763E+01 0.32734503867E+01 0.32115578564E+01 0.32632397069E+01
 0.34295074696E+01 0.37142915261E+01 0.41265239576E+01 0.46818380889E+01 0.54013503360E+01
 0.63058448852E+01 0.74061858356E+01 0.86934656757E+01 0.10133564616E+02 0.11669469222E+02
 0.13230799790E+02 0.14734065714E+02 0.17545811248E+02 0.18486973351E+02 0.19102194831E+02
 0.19409528021E+02 0.19422682164E+02 0.19142279412E+02 0.18555549794E+02 0.17644134833E+02
 0.16404915028E+02 0.14881610480E+02 0.13189374646E+02 0.11478434065E+02 0.98360644096E+01
 0.83306051544E+01 0.70136898700E+01 0.59109720240E+01 0.50219594167E+01 0.43281009271E+01
 0.38041183102E+01 0.34272251454E+01 0.31814849090E+01 0.30578978280E+01 0.30526239067E+01
 0.31655104840E+01 0.33999945369E+01 0.37644855422E+01 0.42742720923E+01 0.49517276535E+01
 0.58222913211E+01 0.69055308685E+01 0.82038721317E+01 0.96941252287E+01 0.11326803491E+02
 0.13034587255E+02 0.14734065714E+02 0.16278386820E+02 0.20197502405E+02 0.21268178582E+02
 0.21838444487E+02 0.21863230152E+02 0.21340638952E+02 0.20312331873E+02 0.18853034723E+02
 0.17062200659E+02 0.15067252559E+02 0.13026619098E+02 0.11064067461E+02 0.92518730283E+01
 0.76462370725E+01 0.62815112341E+01 0.51656925030E+01 0.42835914112E+01 0.36063404234E+01
 0.31022150394E+01 0.27442886170E+01 0.25134714866E+01 0.23982529616E+01 0.23933125613E+01
 0.24984640402E+01 0.27185401676E+01 0.30643669322E+01 0.35543063114E+01 0.42147277426E+01
 0.50771834502E+01 0.61710951699E+01 0.75132644278E+01 0.90981711250E+01 0.10893909269E+02
 0.12845844407E+02 0.14883256777E+02 0.16889001707E+02 0.18703821318E+02 0.21268178582E+02
 0.22146346937E+02 0.22466110391E+02 0.22198573563E+02 0.21368171146E+02 0.20044267844E+02
 0.18324348744E+02 0.16327094056E+02 0.14199537769E+02 0.12105353550E+02 0.10142238491E+02
 0.83734696494E+01 0.68444634998E+01 0.55755164501E+01 0.45605052070E+01 0.37738020509E+01
 0.31815345543E+01 0.27516171867E+01 0.24592325226E+01 0.22879285268E+01 0.22285566944E+01
 0.22780732698E+01 0.24390376941E+01 0.27199850208E+01 0.31366293784E+01 0.37130635696E+01
 0.44808979580E+01 0.54741421793E+01 0.67195680397E+01 0.82254900938E+01 0.99742113854E+01
 0.11922355774E+02 0.14007813019E+02 0.16138701396E+02 0.18154129793E+02 0.19904233479E+02
 0.21838444487E+02 0.22466110391E+02 0.22493630381E+02 0.21918289014E+02 0.20793915734E+02
 0.19213641516E+02 0.17292755207E+02 0.15167609188E+02 0.13003034922E+02 0.10938485173E+02
 0.90474346520E+01 0.73843892847E+01 0.59815255551E+01 0.48437312107E+01 0.39519743375E+01
 0.32734398652E+01 0.27728833410E+01 0.24204961136E+01 0.21949138398E+01 0.20829118596E+01
 0.20781430164E+01 0.21803320086E+01 0.23952528628E+01 0.27354781652E+01 0.32216186544E+01
 0.38827747705E+01 0.47539132295E+01 0.58684692441E+01 0.72471971456E+01 0.88876862277E+01
 0.10760180091E+02 0.12811859751E+02 0.14971888979E+02 0.17107822367E+02 0.19053042173E+02
 0.20668883221E+02 0.21863230152E+02 0.22198573563E+02 0.21918289014E+02 0.21050042970E+02
 0.19672941391E+02 0.17897346002E+02 0.15853757847E+02 0.13696930866E+02 0.11589612873E+02
 0.96258727559E+01 0.78684187525E+01 0.63603486473E+01 0.51182785151E+01 0.41321532095E+01
 0.33732683872E+01 0.28058608208E+01 0.23967234599E+01 0.21201602586E+01 0.19589030565E+01
 0.19031703119E+01 0.19496536379E+01 0.21011207096E+01 0.23667313531E+01 0.27630192544E+01
 0.33149209021E+01 0.40551165779E+01 0.50194634930E+01 0.62377266458E+01 0.77220201094E+01
 0.94583044856E+01 0.11405768830E+02 0.13503248724E+02 0.15661906490E+02 0.17722544269E+02
 0.19527786777E+02 0.20945403024E+02 0.21340638952E+02 0.21368171146E+02 0.20793915734E+02
 0.19672941391E+02 0.18103016446E+02 0.16208449560E+02 0.14136134245E+02 0.12051456514E+02
 0.10070467630E+02 0.82648809833E+01 0.66877368480E+01 0.53671621798E+01 0.43035172201E+01
 0.34747304880E+01 0.28471394121E+01 0.23861852883E+01 0.20630891410E+01 0.18570931849E+01
 0.17551067617E+01 0.17507526509E+01 0.18437807607E+01 0.20400111530E+01 0.23518560802E+01
 0.27993250269E+01 0.34105513474E+01 0.42198235014E+01 0.52612436989E+01 0.65582940875E+01
 0.81129174494E+01 0.98996005683E+01 0.11867465936E+02 0.13946536832E+02 0.16027016903E+02
 0.17944026999E+02 0.19548440764E+02 0.20714149976E+02 0.20312331873E+02 0.20044267844E+02
 0.19213641516E+02 0.17897346002E+02 0.16208449560E+02 0.14286354852E+02 0.12291232649E+02
 0.10350540135E+02 0.85462804877E+01 0.69409187800E+01 0.55732034263E+01 0.44542002575E+01
 0.35702165070E+01 0.28921123344E+01 0.23861758221E+01 0.20220997480E+01 0.17765934444E+01
 0.16338025896E+01 0.15845377992E+01 0.16256287313E+01 0.17597194212E+01 0.19954412555E+01
 0.23480104922E+01 0.28400298191E+01 0.35012808510E+01 0.43654598264E+01 0.54625108878E+01
 0.68078497805E+01 0.83928174640E+01 0.10181200506E+02 0.12112649215E+02 0.14107243618E+02
 0.16042935117E+02 0.17758970425E+02 0.19113734728E+02 0.19991736187E+02 0.18853034723E+02
 0.18324348744E+02 0.17292755207E+02 0.15853757847E+02 0.14136134245E+02 0.12291232649E+02
 0.10446221836E+02 0.86923883007E+01 0.71011222871E+01 0.57207290484E+01 0.45724337777E+01
 0.36516220118E+01 0.29354430860E+01 0.23931540806E+01 0.19947269473E+01 0.17155580120E+01
 0.15377803240E+01 0.14498939607E+01 0.14461598427E+01 0.15263219557E+01 0.16956194627E+01
 0.19650338333E+01 0.23518294903E+01 0.28799999567E+01 0.35792417515E+01 0.44805806846E+01
 0.56079590260E+01 0.69678758042E+01 0.85415308385E+01 0.10283111695E+02 0.12123353991E+02
 0.13972911623E+02 0.15708614347E+02 0.17178429692E+02 0.18251058329E+02 0.18827759409E+02
 0.17062200659E+02 0.16327094056E+02 0.15167609188E+02 0.13696930866E+02 0.12051456514E+02
 0.10350540135E+02 0.86923883007E+01 0.71559846376E+01 0.57977694186E+01 0.46480275423E+01
 0.37111515153E+01 0.29716003619E+01 0.24032388733E+01 0.19780288866E+01 0.16714722343E+01
 0.14646866820E+01 0.13445091247E+01 0.13030830412E+01 0.13376394906E+01 0.14504805380E+01
 0.16490129652E+01 0.19459144113E+01 0.23595201044E+01 0.29138620562E+01 0.36368763496E+01
 0.45552216323E+01 0.56857140135E+01 0.70259397573E+01 0.85480301656E+01 0.10197955707E+02
 0.11898775060E+02 0.13553907964E+02 0.15046118837E+02 0.16238807894E+02 0.17015723888E+02
 0.17299759338E+02 0.15067252559E+02 0.14199537769E+02 0.13003034922E+02 0.11589612873E+02
 0.10070467630E+02 0.85462804877E+01 0.71011222871E+01 0.57977694186E+01 0.46740603963E+01
 0.37426419648E+01 0.29956108811E+01 0.24125901778E+01 0.19689603113E+01 0.16416387390E+01
 0.14117881869E+01 0.12653989276E+01 0.11930960794E+01 0.11900306462E+01 0.12559750828E+01
 0.13953643410E+01 0.16172012134E+01 0.19350721408E+01 0.23673415608E+01 0.29367757255E+01
 0.36681143486E+01 0.45824661752E+01 0.56891201304E+01 0.69774047566E+01 0.84118188287E+01
 0.99318845905E+01 0.11455404401E+02 0.12882942779E+02 0.14103755630E+02 0.15005374577E+02
 0.15493176001E+02 0.15514568053E+02 0.13026619098E+02 0.12105353550E+02 0.10938485173E+02
 0.96258727559E+01 0.82648809833E+01 0.69409187800E+01 0.57207290484E+01 0.46480275423E+01
 0.37426419648E+01 0.30040370686E+01 0.24181359701E+01 0.19647860898E+01 0.16234701002E+01
 0.13763906133E+01 0.12094918755E+01 0.11125429680E+01 0.10791582883E+01 0.11070139625E+01
 0.11980281898E+01 0.13582563759E+01 0.15976202725E+01 0.19298027773E+01 0.23722374068E+01
 0.29453121258E+01 0.36694894732E+01 0.45596913031E+01 0.56178674177E+01 0.68261337524E+01
 0.81430091541E+01 0.95038365996E+01 0.10824713653E+02 0.12008941779E+02 0.12956293359E+02
 0.13576138039E+02 0.13803493959E+02 0.13613309304E+02 0.11064067461E+02 0.10142238491E+02
 0.90474346520E+01 0.78684187525E+01 0.66877368480E+01 0.55732034263E+01 0.45724337777E+01
 0.37111515153E+01 0.29956108811E+01 0.24181359701E+01 0.19636286238E+01 0.16149514465E+01
 0.13561869886E+01 0.11739954828E+01 0.10579491107E+01 0.10006877585E+01 0.99825939963E+00
 0.10504796413E+01 0.11609716464E+01 0.13368294202E+01 0.15882191618E+01 0.19281945540E+01
 0.23724555735E+01 0.29381649086E+01 0.36408440782E+01 0.44890849037E+01 0.54780683593E+01
 0.65839302971E+01 0.77610608570E+01 0.89433821613E+01 0.10049410148E+02 0.10990477578E+02
 0.11681714730E+02 0.12054985774E+02 0.12071348514E+02 0.11729088728E+02 0.92518730283E+01
 0.83734696494E+01 0.73843892847E+01 0.63603486473E+01 0.53671621798E+01 0.44542002575E+01
 0.36516220118E+01 0.29716003619E+01 0.24125901778E+01 0.19647860898E+01 0.16149514465E+01
 0.13496417327E+01 0.11568187750E+01 0.10264471997E+01 0.95077702521E+00 0.92474391707E+00
 0.94646435035E+00 0.10174984352E+01 0.11426543302E+01 0.13294834673E+01 0.15878249265E+01
 0.19295224780E+01 0.23679278484E+01 0.29164332385E+01 0.35853671000E+01 0.43772280995E+01
 0.52812221160E+01 0.62688760508E+01 0.72925361813E+01 0.82877338131E+01 0.91793284393E+01
 0.98906565634E+01 0.10354527817E+02 0.10524278514E+02 0.10382292034E+02 0.99433805571E+01
 0.76462370725E+01 0.68444634998E+01 0.59815255551E+01 0.51182785151E+01 0.43035172201E+01
 0.35702165070E+01 0.29354430860E+01 0.24032388733E+01 0.19689603113E+01 0.16234701002E+01
 0.13561869886E+01 0.11568187750E+01 0.10161707051E+01 0.92658555811E+00 0.88240809377E+00
 0.88053412168E+00 0.92082244719E+00 0.10061201001E+01 0.11418816156E+01 0.13356129780E+01
 0.15963847188E+01 0.19344021601E+01 0.23602698366E+01 0.28833745341E+01 0.35089406913E+01
 0.42338830456E+01 0.50424215913E+01 0.59030413006E+01 0.67683021853E+01 0.75782408992E+01
 0.82671232014E+01 0.87725180354E+01 0.90450867473E+01 0.90570402289E+01 0.88071621307E+01
 0.83210049657E+01 0.62815112341E+01 0.55755164501E+01 0.48437312107E+01 0.41321532095E+01
 0.34747304880E+01 0.28921123344E+01 0.23931540806E+01 0.19780288866E+01 0.16416387390E+01
 0.13763906133E+01 0.11739954828E+01 0.10264471997E+01 0.92658555811E+00 0.86860892519E+00
 0.84865331565E+00 0.86529135586E+00 0.91972879559E+00 0.10156168159E+01 0.11585908983E+01
 0.13557205664E+01 0.16149766263E+01 0.19446476780E+01 0.23524238333E+01 0.28437291845E+01
 0.34190336281E+01 0.40704149666E+01 0.47783394153E+01 0.55100093497E+01 0.62203953294E+01
 0.68563529461E+01 0.73633738761E+01 0.76937791409E+01 0.78146418577E+01 0.77135815268E+01
 0.74009801436E+01 0.69080833632E+01 0.51656925030E+01 0.45605052070E+01 0.39519743375E+01
 0.33732683872E+01 0.28471394121E+01 0.23861758221E+01 0.19947269473E+01 0.16714722343E+01
 0.14117881869E+01 0.12094918755E+01 0.10579491107E+01 0.95077702521E+00 0.88240809377E+00
 0.84865331565E+00 0.84721539156E+00 0.87799962700E+00 0.94311554661E+00 0.10465868352E+01
 0.11938751340E+01 0.13913267719E+01 0.16455867169E+01 0.19629018283E+01 0.23480850248E+01
 0.28028601145E+01 0.33235195797E+01 0.38983024736E+01 0.45053746364E+01 0.51124384512E+01
 0.56786915023E+01 0.61592289344E+01 0.65112699013E+01 0.67009759211E+01 0.67092965683E+01
 0.65353918179E+01 0.61967676260E+01 0.57261195771E+01 0.42835914112E+01 0.37738020509E+01
 0.32734398652E+01 0.28058608208E+01 0.23861852883E+01 0.20220997480E+01 0.17155580120E+01
 0.14646866820E+01 0.12653989276E+01 0.11125429680E+01 0.10006877585E+01 0.92474391707E+00
 0.88053412168E+00 0.86529135586E+00 0.87799962700E+00 0.91951539203E+00 0.99245698150E+00
 0.11008849227E+01 0.12498261271E+01 0.14447114456E+01 0.16907524407E+01 0.19921688558E+01
 0.23510839216E+01 0.27659629734E+01 0.32297225041E+01 0.37279728787E+01 0.42380935736E+01
 0.47298298502E+01 0.51678013718E+01 0.55157918455E+01 0.57421023881E+01 0.58248093639E+01
 0.57556504299E+01 0.55415388512E+01 0.52033022036E+01 0.47719730316E+01 0.36063404234E+01
 0.31815345543E+01 0.27728833410E+01 0.23967234599E+01 0.20630891410E+01 0.17765934444E+01
 0.15377803240E+01 0.13445091247E+01 0.11930960794E+01 0.10791582883E+01 0.99825939963E+00
 0.94646435035E+00 0.92082244719E+00 0.91972879559E+00 0.94311554661E+00 0.99245698150E+00
 0.10705916903E+01 0.11813793789E+01 0.13292335715E+01 0.15185728990E+01 0.17531775376E+01
 0.20353608018E+01 0.23648629060E+01 0.27374969022E+01 0.31437808185E+01 0.35679755479E+01
 0.39880269021E+01 0.43768243681E+01 0.47049135144E+01 0.49443753200E+01 0.50731479639E+01
 0.50787956988E+01 0.49607582990E+01 0.47304638196E+01 0.44092599961E+01 0.40247261661E+01
 0.31022150394E+01 0.27516171867E+01 0.24204961136E+01 0.21201602586E+01 0.18570931849E+01
 0.16338025896E+01 0.14498939607E+01 0.13030830412E+01 0.11900306462E+01 0.11070139625E+01
 0.10504796413E+01 0.10174984352E+01 0.10061201001E+01 0.10156168159E+01 0.10465868352E+01
 0.11008849227E+01 0.11813793789E+01 0.12915832877E+01 0.14352115132E+01 0.16156611299E+01
 0.18353574067E+01 0.20949114254E+01 0.23921066844E+01 0.27208408754E+01 0.30702660006E+01
 0.34244600783E+01 0.37629689688E+01 0.40624268208E+01 0.42992051503E+01 0.44527207445E+01
 0.45087450552E+01 0.44619094494E+01 0.43167019991E+01 0.40866428155E+01 0.37918801336E+01
 0.34559039728E+01 0.27442886170E+01 0.24592325226E+01 0.21949138398E+01 0.19589030565E+01
 0.17551067617E+01 0.15845377992E+01 0.14461598427E+01 0.13376394906E+01 0.12559750828E+01
 0.11980281898E+01 0.11609716464E+01 0.11426543302E+01 0.11418816156E+01 0.11585908983E+01
 0.11938751340E+01 0.12498261271E+01 0.13292335715E+01 0.14352115132E+01 0.15707822037E+01
 0.17383773854E+01 0.19392014438E+01 0.21724551135E+01 0.24344972705E+01 0.27180958629E+01
 0.30119865198E+01 0.33009951979E+01 0.35669364854E+01 0.37903502680E+01 0.39529224315E+01
 0.40402023976E+01 0.40440334208E+01 0.39640440095E+01 0.38077279839E+01 0.35890703954E+01
 0.33261541842E+01 0.30384334973E+01 0.25134714866E+01 0.22879285268E+01 0.20829118596E+01
 0.19031703119E+01 0.17507526509E+01 0.16256287313E+01 0.15263219557E+01 0.14504805380E+01
 0.13953643410E+01 0.13582563759E+01 0.13368294202E+01 0.13294834673E+01 0.13356129780E+01
 0.13557205664E+01 0.13913267719E+01 0.14447114456E+01 0.15185728990E+01 0.16156611299E+01
 0.17383773854E+01 0.18883019536E+01 0.20656291945E+01 0.22685299333E+01 0.24925176373E+01
 0.27299650904E+01 0.29699712402E+01 0.31987683694E+01 0.34007792243E+01 0.35603057947E+01
 0.36636635570E+01 0.37013715342E+01 0.36698474783E+01 0.35720868326E+01 0.34170953076E+01
 0.32182684874E+01 0.29912219219E+01 0.27516282207E+01 0.23982529616E+01 0.22285566944E+01
 0.20781430164E+01 0.19496536379E+01 0.18437807607E+01 0.17597194212E+01 0.16956194627E+01
 0.16490129652E+01 0.16172012134E+01 0.15976202725E+01 0.15882191618E+01 0.15878249265E+01
 0.15963847188E+01 0.16149766263E+01 0.16455867169E+01 0.16907524407E+01 0.17531775376E+01
 0.18353574067E+01 0.19392014438E+01 0.20656291945E+01 0.22141254287E+01 0.23822624186E+01
 0.25652563966E+01 0.27556988115E+01 0.29436316902E+01 0.31170980077E+01 0.32632241396E+01
 0.33697903241E+01 0.34270793159E+01 0.34295859480E+01 0.33770709668E+01 0.32745981860E+01
 0.31315569995E+01 0.29600138308E+01 0.27728693218E+01 0.25822301400E+01 0.23933125613E+01
 0.22780732698E+01 0.21803320086E+01 0.21011207096E+01 0.20400111530E+01 0.19954412555E+01
 0.19650338333E+01 0.19459144113E+01 0.19350721408E+01 0.19298027773E+01 0.19281945540E+01
 0.19295224780E+01 0.19344021601E+01 0.19446476780E+01 0.19629018283E+01 0.19921688558E+01
 0.20353608018E+01 0.20949114254E+01 0.21724551135E+01 0.22685299333E+01 0.23822624186E+01
 0.25110382823E+01 0.26502321895E+01 0.27931133863E+01 0.29310465270E+01 0.30540880224E+01
 0.31520320348E+01 0.32158390878E+01 0.32391793483E+01 0.32196544436E+01 0.31592825676E+01
 0.30640780896E+01 0.29428888532E+01 0.28058788099E+01 0.26630718345E+01 0.25232490125E+01
 0.24984640402E+01 0.24390376941E+01 0.23952528628E+01 0.23667313531E+01 0.23518560802E+01
 0.23480104922E+01 0.23518294903E+01 0.23595201044E+01 0.23673415608E+01 0.23722374068E+01
 0.23724555735E+01 0.23679278484E+01 0.23602698366E+01 0.23524238333E+01 0.23480850248E+01
 0.23510839216E+01 0.23648629060E+01 0.23921066844E+01 0.24344972705E+01 0.24925176373E+01
 0.25652563966E+01 0.26502321895E+01 0.27432970922E+01 0.28386853290E+01 0.29292881790E+01
 0.30072549243E+01 0.30649676392E+01 0.30962714261E+01 0.30976464430E+01 0.30689375621E+01
 0.30133840590E+01 0.29369451100E+01 0.28471597154E+01 0.27519043709E+01 0.26583761454E+01
 0.25724624279E+01 0.27185401676E+01 0.27199850208E+01 0.27354781652E+01 0.27630192544E+01
 0.27993250269E+01 0.28400298191E+01 0.28799999567E+01 0.29138620562E+01 0.29367757255E+01
 0.29453121258E+01 0.29381649086E+01 0.29164332385E+01 0.28833745341E+01 0.28437291845E+01
 0.28028601145E+01 0.27659629734E+01 0.27374969022E+01 0.27208408754E+01 0.27180958629E+01
 0.27299650904E+01 0.27556988115E+01 0.27931133863E+01 0.28386853290E+01 0.28877346015E+01
 0.29347622951E+01 0.29740285699E+01 0.30003773378E+01 0.30101586713E+01 0.30019769398E+01
 0.29769986340E+01 0.29386994801E+01 0.28921432185E+01 0.28430528733E+01 0.27969656603E+01
 0.27586421212E+01 0.27317241719E+01 0.30643669322E+01 0.31366293784E+01 0.32216186544E+01
 0.33149209021E+01 0.34105513474E+01 0.35012808510E+01 0.35792417515E+01 0.36368763496E+01
 0.36681143486E+01 0.36694894732E+01 0.36408440782E+01 0.35853671000E+01 0.35089406913E+01
 0.34190336281E+01 0.33235195797E+01 0.32297225041E+01 0.31437808185E+01 0.30702660006E+01
 0.30119865198E+01 0.29699712402E+01 0.29436316902E+01 0.29310465270E+01 0.29292881790E+01
 0.29347622951E+01 0.29435936461E+01 0.29520974443E+01 0.29573212002E+01 0.29575675385E+01
 0.29527487350E+01 0.29444245656E+01 0.29354796944E+01 0.29295667706E+01 0.29305367268E+01
 0.29419970679E+01 0.29669652789E+01 0.30075102359E+01 0.35543063114E+01 0.37130635696E+01
 0.38827747705E+01 0.40551165779E+01 0.42198235014E+01 0.43654598264E+01 0.44805806846E+01
 0.45552216323E+01 0.45824661752E+01 0.45596913031E+01 0.44890849037E+01 0.43772280995E+01
 0.42338830456E+01 0.40704149666E+01 0.38983024736E+01 0.37279728787E+01 0.35679755479E+01
 0.34244600783E+01 0.33009951979E+01 0.31987683694E+01 0.31170980077E+01 0.30540880224E+01
 0.30072549243E+01 0.29740285699E+01 0.29520974443E+01 0.29396235848E+01 0.29353905688E+01
 0.29389329031E+01 0.29506207248E+01 0.29716280014E+01 0.30037728839E+01 0.30493125829E+01
 0.31107529427E+01 0.31905943484E+01 0.32908672936E+01 0.34124420873E+01 0.42147277426E+01
 0.44808979580E+01 0.47539132295E+01 0.50194634930E+01 0.52612436989E+01 0.54625108878E+01
 0.56079590260E+01 0.56857140135E+01 0.56891201304E+01 0.56178674177E+01 0.54780683593E+01
 0.52812221160E+01 0.50424215913E+01 0.47783394153E+01 0.45053746364E+01 0.42380935736E+01
 0.39880269021E+01 0.37629689688E+01 0.35669364854E+01 0.34007792243E+01 0.32632241396E+01
 0.31520320348E+01 0.30649676392E+01 0.30003773378E+01 0.29573212002E+01 0.29353905688E+01
 0.29344504249E+01 0.29544923200E+01 0.29956432001E+01 0.30582952734E+01 0.31433155750E+01
 0.32522423311E+01 0.33872551996E+01 0.35506812801E+01 0.37439984292E+01 0.39665993955E+01
 0.50771834502E+01 0.54741421793E+01 0.58684692441E+01 0.62377266458E+01 0.65582940875E+01
 0.68078497805E+01 0.69678758042E+01 0.70259397573E+01 0.69774047566E+01 0.68261337524E+01
 0.65839302971E+01 0.62688760508E+01 0.59030413006E+01 0.55100093497E+01 0.51124384512E+01
 0.47298298502E+01 0.43768243681E+01 0.40624268208E+01 0.37903502680E+01 0.35603057947E+01
 0.33697903241E+01 0.32158390878E+01 0.30962714261E+01 0.30101586713E+01 0.29575675385E+01
 0.29389329031E+01 0.29544923200E+01 0.30040595604E+01 0.30872070587E+01 0.32037842790E+01
 0.33545566645E+01 0.35415730236E+01 0.37678244257E+01 0.40360191576E+01 0.43467528349E+01
 0.46966679560E+01 0.61710951699E+01 0.67195680397E+01 0.72471971456E+01 0.77220201094E+01
 0.81129174494E+01 0.83928174640E+01 0.85415308385E+01 0.85480301656E+01 0.84118188287E+01
 0.81430091541E+01 0.77610608570E+01 0.72925361813E+01 0.67683021853E+01 0.62203953294E+01
 0.56786915023E+01 0.51678013718E+01 0.47049135144E+01 0.42992051503E+01 0.39529224315E+01
 0.36636635570E+01 0.34270793159E+01 0.32391793483E+01 0.30976464430E+01 0.30019769398E+01
 0.29527487350E+01 0.29506207248E+01 0.29956432001E+01 0.30872070587E+01 0.32246581686E+01
 0.34083045411E+01 0.36402600740E+01 0.39244549679E+01 0.42653968073E+01 0.46658304229E+01
 0.51239776827E+01 0.56312398231E+01 0.75132644278E+01 0.82254900938E+01 0.88876862277E+01
 0.94583044856E+01 0.98996005683E+01 0.10181200506E+02 0.10283111695E+02 0.10197955707E+02
 0.99318845905E+01 0.95038365996E+01 0.89433821613E+01 0.82877338131E+01 0.75782408992E+01
 0.68563529461E+01 0.61592289344E+01 0.55157918455E+01 0.49443753200E+01 0.44527207445E+01
 0.40402023976E+01 0.37013715342E+01 0.34295859480E+01 0.32196544436E+01 0.30689375621E+01
 0.29769986340E+01 0.29444245656E+01 0.29716280014E+01 0.30582952734E+01 0.32037842790E+01
 0.34083045411E+01 0.36742279864E+01 0.40066068752E+01 0.44121638833E+01 0.48966527151E+01
 0.54612222542E+01 0.60988824494E+01 0.67922293943E+01 0.90981711250E+01 0.99742113854E+01
 0.10760180091E+02 0.11405768830E+02 0.11867465936E+02 0.12112649215E+02 0.12123353991E+02
 0.11898775060E+02 0.11455404401E+02 0.10824713653E+02 0.10049410148E+02 0.91793284393E+01
 0.82671232014E+01 0.73633738761E+01 0.65112699013E+01 0.57421023881E+01 0.50731479639E+01
 0.45087450552E+01 0.40440334208E+01 0.36698474783E+01 0.33770709668E+01 0.31592825676E+01
 0.30133840590E+01 0.29386994801E+01 0.29354796944E+01 0.30037728839E+01 0.31433155750E+01
 0.33545566645E+01 0.36402600740E+01 0.40066068752E+01 0.44626932427E+01 0.50179148323E+01
 0.56776464403E+01 0.64384142911E+01 0.72841293738E+01 0.81847766299E+01 0.10893909269E+02
 0.11922355774E+02 0.12811859751E+02 0.13503248724E+02 0.13946536832E+02 0.14107243618E+02
 0.13972911623E+02 0.13553907964E+02 0.12882942779E+02 0.12008941779E+02 0.10990477578E+02
 0.98906565634E+01 0.87725180354E+01 0.76937791409E+01 0.67009759211E+01 0.58248093639E+01
 0.50787956988E+01 0.44619094494E+01 0.39640440095E+01 0.35720868326E+01 0.32745981860E+01
 0.30640780896E+01 0.29369451100E+01 0.28921432185E+01 0.29295667706E+01 0.30493125829E+01
 0.32522423311E+01 0.35415730236E+01 0.39244549679E+01 0.44121638833E+01 0.50179148323E+01
 0.57522629385E+01 0.66171481938E+01 0.76004480158E+01 0.86730738470E+01 0.97898669720E+01
 0.12845844407E+02 0.14007813019E+02 0.14971888979E+02 0.15661906490E+02 0.16027016903E+02
 0.16042935117E+02 0.15708614347E+02 0.15046118837E+02 0.14103755630E+02 0.12956293359E+02
 0.11681714730E+02 0.10354527817E+02 0.90450867473E+01 0.78146418577E+01 0.67092965683E+01
 0.57556504299E+01 0.49607582990E+01 0.43167019991E+01 0.38077279839E+01 0.34170953076E+01
 0.31315569995E+01 0.29428888532E+01 0.28471597154E+01 0.28430528733E+01 0.29305367268E+01
 0.31107529427E+01 0.33872551996E+01 0.37678244257E+01 0.42653968073E+01 0.48966527151E+01
 0.56776464403E+01 0.66171481938E+01 0.77096099025E+01 0.89303434217E+01 0.10234997289E+02
 0.11563451285E+02 0.14883256777E+02 0.16138701396E+02 0.17107822367E+02 0.17722544269E+02
 0.17944026999E+02 0.17758970425E+02 0.17178429692E+02 0.16238807894E+02 0.15005374577E+02
 0.13576138039E+02 0.12054985774E+02 0.10524278514E+02 0.90570402289E+01 0.77135815268E+01
 0.65353918179E+01 0.55415388512E+01 0.47304638196E+01 0.40866428155E+01 0.35890703954E+01
 0.32182684874E+01 0.29600138308E+01 0.28058788099E+01 0.27519043709E+01 0.27969656603E+01
 0.29419970679E+01 0.31905943484E+01 0.35506812801E+01 0.40360191576E+01 0.46658304229E+01
 0.54612222542E+01 0.64384142911E+01 0.76004480158E+01 0.89303434217E+01 0.10388685089E+02
 0.11916623745E+02 0.13441932857E+02 0.16889001707E+02 0.18154129793E+02 0.19053042173E+02
 0.19527786777E+02 0.19548440764E+02 0.19113734728E+02 0.18251058329E+02 0.17015723888E+02
 0.15493176001E+02 0.13803493959E+02 0.12071348514E+02 0.10382292034E+02 0.88071621307E+01
 0.74009801436E+01 0.61967676260E+01 0.52033022036E+01 0.44092599961E+01 0.37918801336E+01
 0.33261541842E+01 0.29912219219E+01 0.27728693218E+01 0.26630718345E+01 0.26583761454E+01
 0.27586421212E+01 0.29669652789E+01 0.32908672936E+01 0.37439984292E+01 0.43467528349E+01
 0.51239776827E+01 0.60988824494E+01 0.72841293738E+01 0.86730738470E+01 0.10234997289E+02
 0.11916623745E+02 0.13648156057E+02 0.15346075296E+02 0.18703821318E+02 0.19904233479E+02
 0.20668883221E+02 0.20945403024E+02 0.20714149976E+02 0.19991736187E+02 0.18827759409E+02
 0.17299759338E+02 0.15514568053E+02 0.13613309304E+02 0.11729088728E+02 0.99433805571E+01
 0.83210049657E+01 0.69080833632E+01 0.57261195771E+01 0.47719730316E+01 0.40247261661E+01
 0.34559039728E+01 0.30384334973E+01 0.27516282207E+01 0.25822301400E+01 0.25232490125E+01
 0.25724624279E+01 0.27317241719E+01 0.30075102359E+01 0.34124420873E+01 0.39665993955E+01
 0.46966679560E+01 0.56312398231E+01 0.67922293943E+01 0.81847766299E+01 0.97898669720E+01
 0.11563451285E+02 0.13441932857E+02 0.15346075296E+02 0.17147846432E+02 0.21375387690E+02
 0.22410868667E+02 0.22790920855E+02 0.22472975753E+02 0.21492855388E+02 0.19955881253E+02
 0.18015506988E+02 0.15852785052E+02 0.13646297444E+02 0.11519838170E+02 0.95610857585E+01
 0.78306064458E+01 0.63613173866E+01 0.51585122814E+01 0.42045966185E+01 0.34683074528E+01
 0.29148639326E+01 0.25134656835E+01 0.22407617999E+01 0.20811791829E+01 0.20259200641E+01
 0.20720082292E+01 0.22219241147E+01 0.24839173697E+01 0.28729265564E+01 0.34115969659E+01
 0.41301003142E+01 0.50630234847E+01 0.62423189303E+01 0.76873337248E+01 0.93952336402E+01
 0.11335620736E+02 0.13450212587E+02 0.15653759651E+02 0.17827034969E+02 0.19795154820E+02
 0.22410868667E+02 0.23160021237E+02 0.23192992779E+02 0.22505940304E+02 0.21176837726E+02
 0.19346296291E+02 0.17191847856E+02 0.14907635658E+02 0.12656892914E+02 0.10544942655E+02
 0.86462020597E+01 0.70073108234E+01 0.56461853649E+01 0.45541302910E+01 0.37034131215E+01
 0.30578536215E+01 0.25822194243E+01 0.22477816723E+01 0.20340031506E+01 0.19279945970E+01
 0.19234800568E+01 0.20201857198E+01 0.22238320230E+01 0.25467011117E+01 0.30086192055E+01
 0.36375726360E+01 0.44683188187E+01 0.55372666492E+01 0.68733826907E+01 0.84875131883E+01
 0.10364336403E+02 0.12459759237E+02 0.14701829687E+02 0.16988653661E+02 0.19162833066E+02
 0.21030158585E+02 0.22790920855E+02 0.23192992779E+02 0.22856844538E+02 0.21821874443E+02
 0.20203609061E+02 0.18168004845E+02 0.15906861875E+02 0.13609979105E+02 0.11408279117E+02
 0.93909171881E+01 0.76183850936E+01 0.61222294585E+01 0.49051763912E+01 0.39464008072E+01
 0.32114919640E+01 0.26630437292E+01 0.22681467813E+01 0.20016822055E+01 0.18466026608E+01
 0.17930722872E+01 0.18377166307E+01 0.19833553872E+01 0.22392213154E+01 0.26216709361E+01
 0.31550774093E+01 0.38717296540E+01 0.48088654238E+01 0.60015355670E+01 0.74721960945E+01
 0.92205652804E+01 0.11217855344E+02 0.13406220715E+02 0.15699145187E+02 0.17970837410E+02
 0.20034765712E+02 0.21697788471E+02 0.22472975753E+02 0.22505940304E+02 0.21821874443E+02
 0.20499741547E+02 0.18682491595E+02 0.16550851770E+02 0.14299629378E+02 0.12084549990E+02
 0.10010808800E+02 0.81530711276E+01 0.65568463246E+01 0.52378014634E+01 0.41848135808E+01
 0.33684549292E+01 0.27518733064E+01 0.22998183876E+01 0.19836063341E+01 0.17824714606E+01
 0.16830938985E+01 0.16788631752E+01 0.17695016208E+01 0.19610451526E+01 0.22661762156E+01
 0.27049480288E+01 0.33053598489E+01 0.41022473728E+01 0.51326286320E+01 0.64269485422E+01
 0.79982937200E+01 0.98336791767E+01 0.11890490511E+02 0.14096798354E+02 0.16350335271E+02
 0.18500751383E+02 0.20353893301E+02 0.21727020571E+02 0.21492855388E+02 0.21176837726E+02
 0.20203609061E+02 0.18682491595E+02 0.16773296095E+02 0.14662301406E+02 0.12516568083E+02
 0.10456464370E+02 0.85707537989E+01 0.69187701130E+01 0.55296430438E+01 0.44037362191E+01
 0.35193428957E+01 0.28430226902E+01 0.23394754263E+01 0.19779584010E+01 0.17348613779E+01
 0.15938549084E+01 0.15452917496E+01 0.15857989682E+01 0.17181832270E+01 0.19515248093E+01
 0.23015313345E+01 0.27911335544E+01 0.34505083383E+01 0.43147953170E+01 0.54179455869E+01
 0.67830210823E+01 0.84118840200E+01 0.10278250236E+02 0.12325756613E+02 0.14468397395E+02
 0.16588797091E+02 0.18523990807E+02 0.20086949357E+02 0.21114816071E+02 0.19955881253E+02
 0.19346296291E+02 0.18168004845E+02 0.16550851770E+02 0.14662301406E+02 0.12665222229E+02
 0.10689736880E+02 0.88369704316E+01 0.71791000867E+01 0.57582946262E+01 0.45870861401E+01
 0.36533488341E+01 0.29295323502E+01 0.23826823571E+01 0.19818702198E+01 0.17019000448E+01
 0.15242159454E+01 0.14366136037E+01 0.14328953016E+01 0.15127848344E+01 0.16819459728E+01
 0.19520482809E+01 0.23410509731E+01 0.28735504928E+01 0.35801052970E+01 0.44937949785E+01
 0.56429798154E+01 0.70414030498E+01 0.86789529011E+01 0.10516391470E+02 0.12484478491E+02
 0.14484708715E+02 0.16389401724E+02 0.18038207339E+02 0.19261945877E+02 0.19926597304E+02
 0.18015506988E+02 0.17191847856E+02 0.15906861875E+02 0.14299629378E+02 0.12516568083E+02
 0.10689736880E+02 0.89284516520E+01 0.73154149233E+01 0.59043831738E+01 0.47196093258E+01
 0.37593550578E+01 0.30037409513E+01 0.24242796013E+01 0.19917777503E+01 0.16809408558E+01
 0.14720476865E+01 0.13510679797E+01 0.13094599332E+01 0.13441712210E+01 0.14577311352E+01
 0.16582110008E+01 0.19591593364E+01 0.23797502920E+01 0.29448026486E+01 0.36833731712E+01
 0.46243552159E+01 0.57886821290E+01 0.71798831904E+01 0.87762147313E+01 0.10526828727E+02
 0.12351804061E+02 0.14144095046E+02 0.15773195997E+02 0.17093326982E+02 0.17963183787E+02
 0.18283106376E+02 0.15852785052E+02 0.14907635658E+02 0.13609979105E+02 0.12084549990E+02
 0.10456464370E+02 0.88369704316E+01 0.73154149233E+01 0.59546508968E+01 0.47892254493E+01
 0.38275416118E+01 0.30582623418E+01 0.24589301942E+01 0.20038021535E+01 0.16689823633E+01
 0.14347536090E+01 0.12861539640E+01 0.12129788559E+01 0.12098831691E+01 0.12766115696E+01
 0.14180557702E+01 0.16440351041E+01 0.19690837174E+01 0.24124442938E+01 0.29977043688E+01
 0.37507149684E+01 0.46945707389E+01 0.58418250159E+01 0.71859535715E+01 0.86949110416E+01
 0.10308604618E+02 0.11940139707E+02 0.13479953156E+02 0.14803519768E+02 0.15785164456E+02
 0.16319002711E+02 0.16342479770E+02 0.13646297444E+02 0.12656892914E+02 0.11408279117E+02
 0.10010808800E+02 0.85707537989E+01 0.71791000867E+01 0.59043831738E+01 0.47892254493E+01
 0.38510839176E+01 0.30871764854E+01 0.24819205351E+01 0.20142777286E+01 0.16630497427E+01
 0.14096676316E+01 0.12391806346E+01 0.11404912407E+01 0.11065784603E+01 0.11348724394E+01
 0.12274974874E+01 0.13911149519E+01 0.16364982640E+01 0.19782249341E+01 0.24345132676E+01
 0.30264494221E+01 0.37753746304E+01 0.46976556522E+01 0.57973931550E+01 0.70590395688E+01
 0.84423574139E+01 0.98812613338E+01 0.11286714973E+02 0.12553409272E+02 0.13570627337E+02
 0.14237769531E+02 0.14482738664E+02 0.14277804575E+02 0.11519838170E+02 0.10544942655E+02
 0.93909171881E+01 0.81530711276E+01 0.69187701130E+01 0.57582946262E+01 0.47196093258E+01
 0.38275416118E+01 0.30871764854E+01 0.24899730291E+01 0.20203138854E+01 0.16606292181E+01
 0.13944322774E+01 0.12076512530E+01 0.10890879722E+01 0.10307373206E+01 0.10282677688E+01
 0.10814726143E+01 0.11943243035E+01 0.13745542823E+01 0.16330951707E+01 0.19837248553E+01
 0.24427216894E+01 0.30277152347E+01 0.37547667946E+01 0.46332941105E+01 0.56595746037E+01
 0.68106377012E+01 0.80406770822E+01 0.92814263658E+01 0.10446847380E+02 0.11441844674E+02
 0.12174524467E+02 0.12570768821E+02 0.12588151981E+02 0.12224817159E+02 0.95610857585E+01
 0.86462020597E+01 0.76183850936E+01 0.65568463246E+01 0.55296430438E+01 0.45870861401E+01
 0.37593550578E+01 0.30582623418E+01 0.24819205351E+01 0.20203138854E+01 0.16600204660E+01
 0.13872860698E+01 0.11895883998E+01 0.10563073507E+01 0.97914178570E+00 0.95263427042E+00
 0.97474942335E+00 0.10471717386E+01 0.11750879251E+01 0.13665954488E+01 0.16321133491E+01
 0.19839702862E+01 0.24358468451E+01 0.30013517274E+01 0.36910378802E+01 0.45077264109E+01
 0.54409571189E+01 0.64622585860E+01 0.75231365794E+01 0.85570284733E+01 0.94854276268E+01
 0.10227531605E+02 0.10712123999E+02 0.10889592623E+02 0.10741177049E+02 0.10282632594E+02
 0.78306064458E+01 0.70073108234E+01 0.61222294585E+01 0.52378014634E+01 0.44037362191E+01
 0.36533488341E+01 0.30037409513E+01 0.24589301942E+01 0.20142777286E+01 0.16606292181E+01
 0.13872860698E+01 0.11837131233E+01 0.10403801230E+01 0.94926627373E+00 0.90440311470E+00
 0.90250092655E+00 0.94341049266E+00 0.10301492858E+01 0.11684758948E+01 0.13662612438E+01
 0.16329176202E+01 0.19788954571E+01 0.24149202178E+01 0.29504147528E+01 0.35906264356E+01
 0.43325011155E+01 0.51602021721E+01 0.60418669555E+01 0.69291961929E+01 0.77607436873E+01
 0.84687701435E+01 0.89886584993E+01 0.92691967009E+01 0.92815032637E+01 0.90243199363E+01
 0.85242007999E+01 0.63613173866E+01 0.56461853649E+01 0.49051763912E+01 0.41848135808E+01
 0.35193428957E+01 0.29295323502E+01 0.24242796013E+01 0.20038021535E+01 0.16630497427E+01
 0.13944322774E+01 0.11895883998E+01 0.10403801230E+01 0.93949223410E+00 0.88097444216E+00
 0.86084689092E+00 0.87763126807E+00 0.93256978333E+00 0.10294284879E+01 0.11739993749E+01
 0.13735086562E+01 0.16360515464E+01 0.19699864983E+01 0.23830138334E+01 0.28805286489E+01
 0.34629613694E+01 0.41223358333E+01 0.48389920716E+01 0.55798516247E+01 0.62993959157E+01
 0.69437923240E+01 0.74577238637E+01 0.77927246499E+01 0.79152836292E+01 0.78127969251E+01
 0.74958440765E+01 0.69962237982E+01 0.51585122814E+01 0.45541302910E+01 0.39464008072E+01
 0.33684549292E+01 0.28430226902E+01 0.23826823571E+01 0.19917777503E+01 0.16689823633E+01
 0.14096676316E+01 0.12076512530E+01 0.10563073507E+01 0.94926627373E+00 0.88097444216E+00
 0.84725481166E+00 0.84581794218E+00 0.87657025484E+00 0.94161421987E+00 0.10449603498E+01
 0.11920555849E+01 0.13892341015E+01 0.16431333940E+01 0.19599982992E+01 0.23446447143E+01
 0.27988024278E+01 0.33187711155E+01 0.38928000651E+01 0.44990744402E+01 0.51053310790E+01
 0.56708182623E+01 0.61506932750E+01 0.65022400874E+01 0.66916761825E+01 0.66999850884E+01
 0.65263284237E+01 0.61881804483E+01 0.57181815137E+01 0.42045966185E+01 0.37034131215E+01
 0.32114919640E+01 0.27518733064E+01 0.23394754263E+01 0.19818702198E+01 0.16809408558E+01
 0.14347536090E+01 0.12391806346E+01 0.10890879722E+01 0.97914178570E+00 0.90440311470E+00
 0.86084689092E+00 0.84581794218E+00 0.85834664798E+00 0.89925551228E+00 0.97105093910E+00
 0.10776365357E+01 0.12238912547E+01 0.14151505916E+01 0.16565968416E+01 0.19524767492E+01
 0.23049790116E+01 0.27126569547E+01 0.31685372845E+01 0.36583961019E+01 0.41598957223E+01
 0.46432279606E+01 0.50736075378E+01 0.54154800998E+01 0.56377614730E+01 0.57189797843E+01
 0.56510592342E+01 0.54407726653E+01 0.51085026925E+01 0.46846505740E+01 0.34683074528E+01
 0.30578536215E+01 0.26630437292E+01 0.22998183876E+01 0.19779584010E+01 0.17019000448E+01
 0.14720476865E+01 0.12861539640E+01 0.11404912407E+01 0.10307373206E+01 0.95263427042E+00
 0.90250092655E+00 0.87763126807E+00 0.87657025484E+00 0.89925551228E+00 0.94702285534E+00
 0.10224750950E+01 0.11292167911E+01 0.12714688386E+01 0.14535714583E+01 0.16793420076E+01
 0.19512081198E+01 0.22690577906E+01 0.26288728003E+01 0.30213988733E+01 0.34312646081E+01
 0.38370095190E+01 0.42123758308E+01 0.45289553736E+01 0.47599054882E+01 0.48840591006E+01
 0.48895010951E+01 0.47756987434E+01 0.45536022065E+01 0.42436820082E+01 0.38724411375E+01
 0.29148639326E+01 0.25822194243E+01 0.22681467813E+01 0.19836063341E+01 0.17348613779E+01
 0.15242159454E+01 0.13510679797E+01 0.12129788559E+01 0.11065784603E+01 0.10282677688E+01
 0.97474942335E+00 0.94341049266E+00 0.93256978333E+00 0.94161421987E+00 0.97105093910E+00
 0.10224750950E+01 0.10984325718E+01 0.12021681178E+01 0.13372614344E+01 0.15071293835E+01
 0.17143394700E+01 0.19597030072E+01 0.22412110615E+01 0.25529900849E+01 0.28845336409E+01
 0.32204981879E+01 0.35413266038E+01 0.38248506189E+01 0.40488033692E+01 0.41938904406E+01
 0.42468196793E+01 0.42025781899E+01 0.40653438815E+01 0.38477493756E+01 0.35686925850E+01
 0.32503074326E+01 0.25134656835E+01 0.22477816723E+01 0.20016822055E+01 0.17824714606E+01
 0.15938549084E+01 0.14366136037E+01 0.13094599332E+01 0.12098831691E+01 0.11348724394E+01
 0.10814726143E+01 0.10471717386E+01 0.10301492858E+01 0.10294284879E+01 0.10449603498E+01
 0.10776365357E+01 0.11292167911E+01 0.12021681178E+01 0.12994149203E+01 0.14239743114E+01
 0.15784294263E+01 0.17642176536E+01 0.19807807246E+01 0.22247031151E+01 0.24890227846E+01
 0.27629226672E+01 0.30319942875E+01 0.32791960180E+01 0.34865091810E+01 0.36371383787E+01
 0.37179234461E+01 0.37214679144E+01 0.36474347592E+01 0.35026161158E+01 0.32997428339E+01
 0.30553926803E+01 0.27875675948E+01 0.22407617999E+01 0.20340031506E+01 0.18466026608E+01
 0.16830938985E+01 0.15452917496E+01 0.14328953016E+01 0.13441712210E+01 0.12766115696E+01
 0.12274974874E+01 0.11943243035E+01 0.11750879251E+01 0.11684758948E+01 0.11739993749E+01
 0.11920555849E+01 0.12238912547E+01 0.12714688386E+01 0.13372614344E+01 0.14239743114E+01
 0.15341499259E+01 0.16696241621E+01 0.18308625453E+01 0.20162634500E+01 0.22215487030E+01
 0.24393879340E+01 0.26594161788E+01 0.28687672761E+01 0.30531530794E+01 0.31984123607E+01
 0.32923531587E+01 0.33265917665E+01 0.32979693925E+01 0.32091250477E+01 0.30680230697E+01
 0.28865916540E+01 0.26788926363E+01 0.24592670925E+01 0.20811791829E+01 0.19279945970E+01
 0.17930722872E+01 0.16788631752E+01 0.15857989682E+01 0.15127848344E+01 0.14577311352E+01
 0.14180557702E+01 0.13911149519E+01 0.13745542823E+01 0.13665954488E+01 0.13662612438E+01
 0.13735086562E+01 0.13892341015E+01 0.14151505916E+01 0.14535714583E+01 0.15071293835E+01
 0.15784294263E+01 0.16696241621E+01 0.17819187998E+01 0.19150421182E+01 0.20667450594E+01
 0.22324209693E+01 0.24049695786E+01 0.25750189138E+01 0.27315665621E+01 0.28630317131E+01
 0.29586363730E+01 0.30099340692E+01 0.30121785630E+01 0.29651605771E+01 0.28732437642E+01
 0.27445904046E+01 0.25898292222E+01 0.24205297639E+01 0.22477964851E+01 0.20259200641E+01
 0.19234800568E+01 0.18377166307E+01 0.17695016208E+01 0.17181832270E+01 0.16819459728E+01
 0.16582110008E+01 0.16440351041E+01 0.16364982640E+01 0.16330951707E+01 0.16321133491E+01
 0.16329176202E+01 0.16360515464E+01 0.16431333940E+01 0.16565968416E+01 0.16793420076E+01
 0.17143394700E+01 0.17642176536E+01 0.18308625453E+01 0.19150421182E+01 0.20160514989E+01
 0.21313994978E+01 0.22566127452E+01 0.23852601181E+01 0.25092723929E+01 0.26195889609E+01
 0.27071275707E+01 0.27640008156E+01 0.27847672251E+01 0.27673878023E+01 0.27135894183E+01
 0.26285320227E+01 0.25199090259E+01 0.23967442055E+01 0.22681626128E+01 0.21423612871E+01
 0.20720082292E+01 0.20201857198E+01 0.19833553872E+01 0.19610451526E+01 0.19515248093E+01
 0.19520482809E+01 0.19591593364E+01 0.19690837174E+01 0.19782249341E+01 0.19837248553E+01
 0.19839702862E+01 0.19788954571E+01 0.19699864983E+01 0.19599982992E+01 0.19524767492E+01
 0.19512081198E+01 0.19597030072E+01 0.19807807246E+01 0.20162634500E+01 0.20667450594E+01
 0.21313994978E+01 0.22078353408E+01 0.22920469595E+01 0.23785291375E+01 0.24606191848E+01
 0.25311164599E+01 0.25831761725E+01 0.26113593546E+01 0.26125918762E+01 0.25867444693E+01
 0.25366484259E+01 0.24675543705E+01 0.23862133565E+01 0.22998372437E+01 0.22151746266E+01
 0.21378510245E+01 0.22219241147E+01 0.22238320230E+01 0.22392213154E+01 0.22661762156E+01
 0.23015313345E+01 0.23410509731E+01 0.23797502920E+01 0.24124442938E+01 0.24345132676E+01
 0.24427216894E+01 0.24358468451E+01 0.24149202178E+01 0.23830138334E+01 0.23446447143E+01
 0.23049790116E+01 0.22690577906E+01 0.22412110615E+01 0.22247031151E+01 0.22215487030E+01
 0.22324209693E+01 0.22566127452E+01 0.22920469595E+01 0.23353463077E+01 0.23820016435E+01
 0.24267187248E+01 0.24640103526E+01 0.24889998915E+01 0.24982697376E+01 0.24905193109E+01
 0.24668314761E+01 0.24304587258E+01 0.23861893627E+01 0.23394920570E+01 0.22956951464E+01
 0.22593853574E+01 0.22340562187E+01 0.24839173697E+01 0.25467011117E+01 0.26216709361E+01
 0.27049480288E+01 0.27911335544E+01 0.28735504928E+01 0.29448026486E+01 0.29977043688E+01
 0.30264494221E+01 0.30277152347E+01 0.30013517274E+01 0.29504147528E+01 0.28805286489E+01
 0.27988024278E+01 0.27126569547E+01 0.26288728003E+01 0.25529900849E+01 0.24890227846E+01
 0.24393879340E+01 0.24049695786E+01 0.23852601181E+01 0.23785291375E+01 0.23820016435E+01
 0.23920900927E+01 0.24047596024E+01 0.24160643820E+01 0.24227977467E+01 0.24231095640E+01
 0.24169071138E+01 0.24058896836E+01 0.23931836623E+01 0.23827066371E+01 0.23784922156E+01
 0.23841628754E+01 0.24025848768E+01 0.24356223069E+01 0.28729265564E+01 0.30086192055E+01
 0.31550774093E+01 0.33053598489E+01 0.34505083383E+01 0.35801052970E+01 0.36833731712E+01
 0.37507149684E+01 0.37753746304E+01 0.37547667946E+01 0.36910378802E+01 0.35906264356E+01
 0.34629613694E+01 0.33187711155E+01 0.31685372845E+01 0.30213988733E+01 0.28845336409E+01
 0.27629226672E+01 0.26594161788E+01 0.25750189138E+01 0.25092723929E+01 0.24606191848E+01
 0.24267187248E+01 0.24047596024E+01 0.23918159469E+01 0.23852601856E+01 0.23832091274E+01
 0.23849223978E+01 0.23910020465E+01 0.24032631290E+01 0.24243117393E+01 0.24570409781E+01
 0.25042385247E+01 0.25683058673E+01 0.26509519310E+01 0.27527914281E+01 0.34115969659E+01
 0.36375726360E+01 0.38717296540E+01 0.41022473728E+01 0.43147953170E+01 0.44937949785E+01
 0.46243552159E+01 0.46945707389E+01 0.46976556522E+01 0.46332941105E+01 0.45077264109E+01
 0.43325011155E+01 0.41223358333E+01 0.38928000651E+01 0.36583961019E+01 0.34312646081E+01
 0.32204981879E+01 0.30319942875E+01 0.28687672761E+01 0.27315665621E+01 0.26195889609E+01
 0.25311164599E+01 0.24640103526E+01 0.24160643820E+01 0.23852601856E+01 0.23699982817E+01
 0.23693504706E+01 0.23832700072E+01 0.24126193004E+01 0.24589660134E+01 0.25242814842E+01
 0.26107118006E+01 0.27204076579E+01 0.28552212284E+01 0.30161410948E+01 0.32025614737E+01
 0.41301003142E+01 0.44683188187E+01 0.48088654238E+01 0.51326286320E+01 0.54179455869E+01
 0.56429798154E+01 0.57886821290E+01 0.58418250159E+01 0.57973931550E+01 0.56595746037E+01
 0.54409571189E+01 0.51602021721E+01 0.48389920716E+01 0.44990744402E+01 0.41598957223E+01
 0.38370095190E+01 0.35413266038E+01 0.32791960180E+01 0.30531530794E+01 0.28630317131E+01
 0.27071275707E+01 0.25831761725E+01 0.24889998915E+01 0.24227977467E+01 0.23832091274E+01
 0.23693504706E+01 0.23809032628E+01 0.24181616983E+01 0.24819606772E+01 0.25735730910E+01
 0.26947068936E+01 0.28475239952E+01 0.30343973252E+01 0.32572090020E+01 0.35162889108E+01
 0.38092719397E+01 0.50630234847E+01 0.55372666492E+01 0.60015355670E+01 0.64269485422E+01
 0.67830210823E+01 0.70414030498E+01 0.71798831904E+01 0.71859535715E+01 0.70590395688E+01
 0.68106377012E+01 0.64622585860E+01 0.60418669555E+01 0.55798516247E+01 0.51053310790E+01
 0.46432279606E+01 0.42123758308E+01 0.38248506189E+01 0.34865091810E+01 0.31984123607E+01
 0.29586363730E+01 0.27640008156E+01 0.26113593546E+01 0.24982697376E+01 0.24231095640E+01
 0.23849223978E+01 0.23832700072E+01 0.24181616983E+01 0.24900114502E+01 0.25996646464E+01
 0.27485969187E+01 0.29391821022E+01 0.31746429506E+01 0.34583280572E+01 0.37923283559E+01
 0.41757710938E+01 0.46031570588E+01 0.62423189303E+01 0.68733826907E+01 0.74721960945E+01
 0.79982937200E+01 0.84118840200E+01 0.86789529011E+01 0.87762147313E+01 0.86949110416E+01
 0.84423574139E+01 0.80406770822E+01 0.75231365794E+01 0.69291961929E+01 0.62993959157E+01
 0.56708182623E+01 0.50736075378E+01 0.45289553736E+01 0.40488033692E+01 0.36371383787E+01
 0.32923531587E+01 0.30099340692E+01 0.27847672251E+01 0.26125918762E+01 0.24905193109E+01
 0.24169071138E+01 0.23910020465E+01 0.24126193004E+01 0.24819606772E+01 0.25996646464E+01
 0.27671691860E+01 0.29872349428E+01 0.32641586795E+01 0.36031796659E+01 0.40089340716E+01
 0.44832167438E+01 0.50224854089E+01 0.56155903548E+01 0.76873337248E+01 0.84875131883E+01
 0.92205652804E+01 0.98336791767E+01 0.10278250236E+02 0.10516391470E+02 0.10526828727E+02
 0.10308604618E+02 0.98812613338E+01 0.92814263658E+01 0.85570284733E+01 0.77607436873E+01
 0.69437923240E+01 0.61506932750E+01 0.54154800998E+01 0.47599054882E+01 0.41938904406E+01
 0.37179234461E+01 0.33265917665E+01 0.30121785630E+01 0.27673878023E+01 0.25867444693E+01
 0.24668314761E+01 0.24058896836E+01 0.24032631290E+01 0.24589660134E+01 0.25735730910E+01
 0.27485969187E+01 0.29872349428E+01 0.32949333629E+01 0.36790725120E+01 0.41474232105E+01
 0.47055150990E+01 0.53533374413E+01 0.60819576066E+01 0.68709076865E+01 0.93952336402E+01
 0.10364336403E+02 0.11217855344E+02 0.11890490511E+02 0.12325756613E+02 0.12484478491E+02
 0.12351804061E+02 0.11940139707E+02 0.11286714973E+02 0.10446847380E+02 0.94854276268E+01
 0.84687701435E+01 0.74577238637E+01 0.65022400874E+01 0.56377614730E+01 0.48840591006E+01
 0.42468196793E+01 0.37214679144E+01 0.32979693925E+01 0.29651605771E+01 0.27135894183E+01
 0.25366484259E+01 0.24304587258E+01 0.23931836623E+01 0.24243117393E+01 0.25242814842E+01
 0.26947068936E+01 0.29391821022E+01 0.32641586795E+01 0.36790725120E+01 0.41950784739E+01
 0.48222583989E+01 0.55656193678E+01 0.64205552763E+01 0.73688659839E+01 0.83766837729E+01
 0.11335620736E+02 0.12459759237E+02 0.13406220715E+02 0.14096798354E+02 0.14468397395E+02
 0.14484708715E+02 0.14144095046E+02 0.13479953156E+02 0.12553409272E+02 0.11441844674E+02
 0.10227531605E+02 0.89886584993E+01 0.77927246499E+01 0.66916761825E+01 0.57189797843E+01
 0.48895010951E+01 0.42025781899E+01 0.36474347592E+01 0.32091250477E+01 0.28732437642E+01
 0.26285320227E+01 0.24675543705E+01 0.23861893627E+01 0.23827066371E+01 0.24570409781E+01
 0.26107118006E+01 0.28475239952E+01 0.31746429506E+01 0.36031796659E+01 0.41474232105E+01
 0.48222583989E+01 0.56387969489E+01 0.65987971470E+01 0.76891671066E+01 0.88783560996E+01
 0.10115978650E+02 0.13450212587E+02 0.14701829687E+02 0.15699145187E+02 0.16350335271E+02
 0.16588797091E+02 0.16389401724E+02 0.15773195997E+02 0.14803519768E+02 0.13570627337E+02
 0.12174524467E+02 0.10712123999E+02 0.92691967009E+01 0.79152836292E+01 0.66999850884E+01
 0.56510592342E+01 0.47756987434E+01 0.40653438815E+01 0.35026161158E+01 0.30680230697E+01
 0.27445904046E+01 0.25199090259E+01 0.23862133565E+01 0.23394920570E+01 0.23784922156E+01
 0.25042385247E+01 0.27204076579E+01 0.30343973252E+01 0.34583280572E+01 0.40089340716E+01
 0.47055150990E+01 0.55656193678E+01 0.65987971470E+01 0.77997171673E+01 0.91428137302E+01
 0.10580391811E+02 0.12044379143E+02 0.15653759651E+02 0.16988653661E+02 0.17970837410E+02
 0.18500751383E+02 0.18523990807E+02 0.18038207339E+02 0.17093326982E+02 0.15785164456E+02
 0.14237769531E+02 0.12570768821E+02 0.10889592623E+02 0.92815032637E+01 0.78127969251E+01
 0.65263284237E+01 0.54407726653E+01 0.45536022065E+01 0.38477493756E+01 0.32997428339E+01
 0.28865916540E+01 0.25898292222E+01 0.23967442055E+01 0.22998372437E+01 0.22956951464E+01
 0.23841628754E+01 0.25683058673E+01 0.28552212284E+01 0.32572090020E+01 0.37923283559E+01
 0.44832167438E+01 0.53533374413E+01 0.64205552763E+01 0.76891671066E+01 0.91428137302E+01
 0.10740839261E+02 0.12418769466E+02 0.14091014314E+02 0.17827034969E+02 0.19162833066E+02
 0.20034765712E+02 0.20353893301E+02 0.20086949357E+02 0.19261945877E+02 0.17963183787E+02
 0.16319002711E+02 0.14482738664E+02 0.12588151981E+02 0.10741177049E+02 0.90243199363E+01
 0.74958440765E+01 0.61881804483E+01 0.51085026925E+01 0.42436820082E+01 0.35686925850E+01
 0.30553926803E+01 0.26788926363E+01 0.24205297639E+01 0.22681626128E+01 0.22151746266E+01
 0.22593853574E+01 0.24025848768E+01 0.26509519310E+01 0.30161410948E+01 0.35162889108E+01
 0.41757710938E+01 0.50224854089E+01 0.60819576066E+01 0.73688659839E+01 0.88783560996E+01
 0.10580391811E+02 0.12418769466E+02 0.14312946916E+02 0.16159223046E+02 0.19795154820E+02
 0.21030158585E+02 0.21697788471E+02 0.21727020571E+02 0.21114816071E+02 0.19926597304E+02
 0.18283106376E+02 0.16342479770E+02 0.14277804575E+02 0.12224817159E+02 0.10282632594E+02
 0.85242007999E+01 0.69962237982E+01 0.57181815137E+01 0.46846505740E+01 0.38724411375E+01
 0.32503074326E+01 0.27875675948E+01 0.24592670925E+01 0.22477964851E+01 0.21423612871E+01
 0.21378510245E+01 0.22340562187E+01 0.24356223069E+01 0.27527914281E+01 0.32025614737E+01
 0.38092719397E+01 0.46031570588E+01 0.56155903548E+01 0.68709076865E+01 0.83766837729E+01
 0.10115978650E+02 0.12044379143E+02 0.14091014314E+02 0.16159223046E+02 0.18117874327E+02
 0.22151145648E+02 0.22942869206E+02 0.22977837155E+02 0.22251547520E+02 0.20854886743E+02
 0.18954262943E+02 0.16753675649E+02 0.14442919536E+02 0.12177487867E+02 0.10073192896E+02
 0.82065315280E+01 0.66169430728E+01 0.53110681928E+01 0.42705175660E+01 0.34623888767E+01
 0.28495878177E+01 0.23982158475E+01 0.20811741815E+01 0.18788961428E+01 0.17787777997E+01
 0.17745208098E+01 0.18658426765E+01 0.20584964973E+01 0.23645323981E+01 0.28028614064E+01
 0.33998541021E+01 0.41888670287E+01 0.52069970407E+01 0.64879561855E+01 0.80518490024E+01
 0.98945988397E+01 0.11979968502E+02 0.14235004275E+02 0.16547517823E+02 0.18765390258E+02
 0.20701448243E+02 0.22942869206E+02 0.23374775243E+02 0.23013645961E+02 0.21905605659E+02
 0.20187435803E+02 0.18057193531E+02 0.15724535613E+02 0.13368129852E+02 0.11126698032E+02
 0.90976146033E+01 0.73388580143E+01 0.58722329435E+01 0.46895051964E+01 0.37621561643E+01
 0.30525496096E+01 0.25232147375E+01 0.21423460105E+01 0.18857476997E+01 0.17367112072E+01
 0.16853492386E+01 0.17281941470E+01 0.18681247254E+01 0.21144619549E+01 0.24832935837E+01
 0.29980885310E+01 0.36899759253E+01 0.45961244407E+01 0.57545389765E+01 0.71949583229E+01
 0.89277707673E+01 0.10934183216E+02 0.13159784730E+02 0.15510946730E+02 0.17852595520E+02
 0.20009292282E+02 0.21773165942E+02 0.22977837155E+02 0.23013645961E+02 0.22271135038E+02
 0.20844402404E+02 0.18905255754E+02 0.16663659708E+02 0.14314416716E+02 0.12016501127E+02
 0.98877835158E+01 0.80054539810E+01 0.64083566504E+01 0.51015719193E+01 0.40647562193E+01
 0.32631906002E+01 0.26583363764E+01 0.22151614327E+01 0.19055717205E+01 0.17090471070E+01
 0.16121422395E+01 0.16080317358E+01 0.16964062631E+01 0.18835030639E+01 0.21821895404E+01
 0.26123194759E+01 0.32012654852E+01 0.39835403725E+01 0.49976839275E+01 0.62791588517E+01
 0.78499406076E+01 0.97075340241E+01 0.11816470611E+02 0.14103316964E+02 0.16453940791E+02
 0.18712776749E+02 0.20687742213E+02 0.22168437984E+02 0.22251547520E+02 0.21905605659E+02
 0.20844402404E+02 0.19199913019E+02 0.17161358016E+02 0.14925101302E+02 0.12663327806E+02
 0.10511606576E+02 0.85656141850E+01 0.68818478666E+01 0.54806908784E+01 0.43530839697E+01
 0.34706928963E+01 0.27969268042E+01 0.22956702826E+01 0.19362350997E+01 0.16950252497E+01
 0.15554413513E+01 0.15074538667E+01 0.15474896535E+01 0.16785053855E+01 0.19099754554E+01
 0.22579223436E+01 0.27452623958E+01 0.34020463349E+01 0.42641124980E+01 0.53683976347E+01
 0.67443534469E+01 0.84030510717E+01 0.10327037120E+02 0.12463397386E+02 0.14720207269E+02
 0.16965389147E+02 0.19029531133E+02 0.20717617857E+02 0.21837827962E+02 0.20854886743E+02
 0.20187435803E+02 0.18905255754E+02 0.17161358016E+02 0.15136332768E+02 0.13004240833E+02
 0.10912114318E+02 0.89711827320E+01 0.72545970797E+01 0.57986038327E+01 0.46074029503E+01
 0.36619145754E+01 0.29304918905E+01 0.23784532284E+01 0.19743196275E+01 0.16925892397E+01
 0.15142519200E+01 0.14265366031E+01 0.14228234539E+01 0.15028053685E+01 0.16725383180E+01
 0.19442801595E+01 0.23364648195E+01 0.28739577956E+01 0.35877782184E+01 0.45126249464E+01
 0.56808248004E+01 0.71129123741E+01 0.88070141006E+01 0.10730019803E+02 0.12812366541E+02
 0.14946345379E+02 0.16987867847E+02 0.18764561656E+02 0.20095253560E+02 0.20822765018E+02
 0.18954262943E+02 0.18057193531E+02 0.16663659708E+02 0.14925101302E+02 0.13004240833E+02
 0.11050252257E+02 0.91843778942E+01 0.74934699817E+01 0.60285340331E+01 0.48075509993E+01
 0.38225275556E+01 0.30492610944E+01 0.24569788228E+01 0.20154367713E+01 0.16987134252E+01
 0.14864422180E+01 0.13638584106E+01 0.13217821661E+01 0.13568857862E+01 0.14719230156E+01
 0.16755858228E+01 0.19821726301E+01 0.24115075432E+01 0.29889846301E+01 0.37446124709E+01
 0.47094768346E+01 0.59087696184E+01 0.73522202149E+01 0.90243622287E+01 0.10877341103E+02
 0.12827691820E+02 0.14757227455E+02 0.16518836864E+02 0.17950066136E+02 0.18897139078E+02
 0.19246642517E+02 0.16753675649E+02 0.15724535613E+02 0.14314416716E+02 0.12663327806E+02
 0.10912114318E+02 0.91843778942E+01 0.75757817127E+01 0.61493435419E+01 0.49358362424E+01
 0.39388673015E+01 0.31432620248E+01 0.25242000392E+01 0.20546337015E+01 0.17098189948E+01
 0.14692502343E+01 0.13171123227E+01 0.12423939292E+01 0.12392356961E+01 0.13073602476E+01
 0.14521337009E+01 0.16841643447E+01 0.20188519527E+01 0.24762293252E+01 0.30806711030E+01
 0.38592341949E+01 0.48373251213E+01 0.60313542137E+01 0.74396213870E+01 0.90339048335E+01
 0.10754183083E+02 0.12507782618E+02 0.14173428928E+02 0.15611202501E+02 0.16679964058E+02
 0.17261722622E+02 0.17287320886E+02 0.14442919536E+02 0.13368129852E+02 0.12016501127E+02
 0.10511606576E+02 0.89711827320E+01 0.74934699817E+01 0.61493435419E+01 0.49800479341E+01
 0.40000565005E+01 0.32037314307E+01 0.25734793613E+01 0.20870016374E+01 0.17222123383E+01
 0.14597181825E+01 0.12836765283E+01 0.11820924885E+01 0.11472511513E+01 0.11763122532E+01
 0.12716363281E+01 0.14405378645E+01 0.16946722568E+01 0.20495307681E+01 0.25241570305E+01
 0.31404566495E+01 0.39209523008E+01 0.48840291189E+01 0.60367265212E+01 0.73665456326E+01
 0.88346869483E+01 0.10372939784E+02 0.11885454077E+02 0.13255917986E+02 0.14360557174E+02
 0.15086629566E+02 0.15353516423E+02 0.15130284170E+02 0.12177487867E+02 0.11126698032E+02
 0.98877835158E+01 0.85656141850E+01 0.72545970797E+01 0.60285340331E+01 0.49358362424E+01
 0.40000565005E+01 0.32246054438E+01 0.25995649861E+01 0.21083369973E+01 0.17325956360E+01
 0.14551269926E+01 0.12610432332E+01 0.11382609544E+01 0.10779899101E+01 0.10754359673E+01
 0.11303831395E+01 0.12472294086E+01 0.14344463760E+01 0.17038550106E+01 0.20700907303E+01
 0.25501517308E+01 0.31623440029E+01 0.39236627497E+01 0.48449751984E+01 0.59243549298E+01
 0.71401623851E+01 0.84461800937E+01 0.97707989673E+01 0.11021285389E+02 0.12093280486E+02
 0.12884936375E+02 0.13313799259E+02 0.13332648411E+02 0.12939398098E+02 0.10073192896E+02
 0.90976146033E+01 0.80054539810E+01 0.68818478666E+01 0.57986038327E+01 0.48075509993E+01
 0.39388673015E+01 0.32037314307E+01 0.25995649861E+01 0.21157804066E+01 0.17384562578E+01
 0.14533073165E+01 0.12471653451E+01 0.11086457388E+01 0.10286842108E+01 0.10012598657E+01
 0.10241305277E+01 0.10991685521E+01 0.12320811060E+01 0.14317013984E+01 0.17092407820E+01
 0.20777115905E+01 0.25512999849E+01 0.31440498304E+01 0.38670875083E+01 0.47240251221E+01
 0.57051424301E+01 0.67820067325E+01 0.79046386653E+01 0.90028642449E+01 0.99924714913E+01
 0.10785720054E+02 0.11304708014E+02 0.11494971299E+02 0.11335875793E+02 0.10844708062E+02
 0.82065315280E+01 0.73388580143E+01 0.64083566504E+01 0.54806908784E+01 0.46074029503E+01
 0.38225275556E+01 0.31432620248E+01 0.25734793613E+01 0.21083369973E+01 0.17384562578E+01
 0.14528558571E+01 0.12405906997E+01 0.10915638851E+01 0.99710878882E+00 0.95069815751E+00
 0.94872627944E+00 0.99103949933E+00 0.10809479802E+01 0.12247336563E+01 0.14309061197E+01
 0.17094776098E+01 0.20713350881E+01 0.25274650210E+01 0.30874772755E+01 0.37568405559E+01
 0.45327305867E+01 0.53993050340E+01 0.63240240962E+01 0.72567769540E+01 0.81329541554E+01
 0.88805682134E+01 0.94304354987E+01 0.97274721303E+01 0.97405236830E+01 0.94681974954E+01
 0.89391119010E+01 0.66169430728E+01 0.58722329435E+01 0.51015719193E+01 0.43530839697E+01
 0.36619145754E+01 0.30492610944E+01 0.25242000392E+01 0.20870016374E+01 0.17325956360E+01
 0.14533073165E+01 0.12405906997E+01 0.10859799807E+01 0.98170947444E+00 0.92136607642E+00
 0.90063414917E+00 0.91791502071E+00 0.97456235617E+00 0.10746537625E+01 0.12244229990E+01
 0.14315572930E+01 0.17045127259E+01 0.20518462930E+01 0.24813210549E+01 0.29983315933E+01
 0.36032827282E+01 0.42880893320E+01 0.50327245303E+01 0.58032329315E+01 0.65524996061E+01
 0.72243776332E+01 0.77608269563E+01 0.81107931231E+01 0.82388888744E+01 0.81317745980E+01
 0.78006167015E+01 0.72790135002E+01 0.53110681928E+01 0.46895051964E+01 0.40647562193E+01
 0.34706928963E+01 0.29304918905E+01 0.24569788228E+01 0.20546337015E+01 0.17222123383E+01
 0.14551269926E+01 0.12471653451E+01 0.10915638851E+01 0.98170947444E+00 0.91175537095E+00
 0.87726535168E+00 0.87579672513E+00 0.90724824218E+00 0.97386340250E+00 0.10799062952E+01
 0.12311180806E+01 0.14340841255E+01 0.16955916366E+01 0.20219230465E+01 0.24178489975E+01
 0.28850096943E+01 0.34195806712E+01 0.40096026937E+01 0.46328572590E+01 0.52563596816E+01
 0.58382690780E+01 0.63323736455E+01 0.66945288758E+01 0.68897504925E+01 0.68983138879E+01
 0.67193407264E+01 0.63709573792E+01 0.58869941781E+01 0.42705175660E+01 0.37621561643E+01
 0.32631906002E+01 0.27969268042E+01 0.23784532284E+01 0.20154367713E+01 0.17098189948E+01
 0.14597181825E+01 0.12610432332E+01 0.11086457388E+01 0.99710878882E+00 0.92136607642E+00
 0.87726535168E+00 0.86205855020E+00 0.87473697810E+00 0.91615088419E+00 0.98890056802E+00
 0.10970219191E+01 0.12455182637E+01 0.14398048298E+01 0.16850883886E+01 0.19855930599E+01
 0.23434519019E+01 0.27571430442E+01 0.32196000042E+01 0.37164605060E+01 0.42251510022E+01
 0.47154905009E+01 0.51521977508E+01 0.54991682851E+01 0.57248075293E+01 0.58072672912E+01
 0.57383150181E+01 0.55248401146E+01 0.51875970502E+01 0.47575134957E+01 0.34623888767E+01
 0.30525496096E+01 0.26583363764E+01 0.22956702826E+01 0.19743196275E+01 0.16987134252E+01
 0.14692502343E+01 0.12836765283E+01 0.11382609544E+01 0.10286842108E+01 0.95069815751E+00
 0.90063414917E+00 0.87579672513E+00 0.87473697810E+00 0.89739311343E+00 0.94509521454E+00
 0.10204350657E+01 0.11270048048E+01 0.12690162265E+01 0.14508061293E+01 0.16761936058E+01
 0.19476116544E+01 0.22649559462E+01 0.26242172527E+01 0.30161519837E+01 0.34254043376E+01
 0.38305390270E+01 0.42053348179E+01 0.45214274977E+01 0.47520182429E+01 0.48759762365E+01
 0.48814086399E+01 0.47677852624E+01 0.45460363358E+01 0.42365942812E+01 0.38659165846E+01
 0.28495878177E+01 0.25232147375E+01 0.22151614327E+01 0.19362350997E+01 0.16925892397E+01
 0.14864422180E+01 0.13171123227E+01 0.11820924885E+01 0.10779899101E+01 0.10012598657E+01
 0.94872627944E+00 0.91791502071E+00 0.90724824218E+00 0.91615088419E+00 0.94509521454E+00
 0.99557746539E+00 0.10700101497E+01 0.11715183201E+01 0.13036188732E+01 0.14697358522E+01
 0.16724970981E+01 0.19128018376E+01 0.21887395471E+01 0.24945431892E+01 0.28198388226E+01
 0.31494805442E+01 0.34642129208E+01 0.37422741126E+01 0.39618534616E+01 0.41040753445E+01
 0.41559473826E+01 0.41125788789E+01 0.39780595286E+01 0.37647305183E+01 0.34910602971E+01
 0.31787221629E+01 0.23982158475E+01 0.21423460105E+01 0.19055717205E+01 0.16950252497E+01
 0.15142519200E+01 0.13638584106E+01 0.12423939292E+01 0.11472511513E+01 0.10754359673E+01
 0.10241305277E+01 0.99103949933E+00 0.97456235617E+00 0.97386340250E+00 0.98890056802E+00
 0.10204350657E+01 0.10700101497E+01 0.11398730371E+01 0.12328027527E+01 0.13517878044E+01
 0.14994953220E+01 0.16775184473E+01 0.18854750498E+01 0.21201168212E+01 0.23746559052E+01
 0.26385149025E+01 0.28976599675E+01 0.31355946767E+01 0.33349848572E+01 0.34797567625E+01
 0.35573626847E+01 0.35607659118E+01 0.34896460299E+01 0.33504646946E+01 0.31553590098E+01
 0.29201895526E+01 0.26622639602E+01 0.20811741815E+01 0.18857476997E+01 0.17090471070E+01
 0.15554413513E+01 0.14265366031E+01 0.13217821661E+01 0.12392356961E+01 0.11763122532E+01
 0.11303831395E+01 0.10991685521E+01 0.10809479802E+01 0.10746537625E+01 0.10799062952E+01
 0.10970219191E+01 0.11270048048E+01 0.11715183201E+01 0.12328027527E+01 0.13134750343E+01
 0.14161459661E+01 0.15428366299E+01 0.16942468981E+01 0.18689943762E+01 0.20629855256E+01
 0.22690913497E+01 0.24772642651E+01 0.26751552642E+01 0.28492052777E+01 0.29861175924E+01
 0.30745488948E+01 0.31067549018E+01 0.30798311055E+01 0.29962057286E+01 0.28632303342E+01
 0.26919934508E+01 0.24956899015E+01 0.22879163766E+01 0.18788961428E+01 0.17367112072E+01
 0.16121422395E+01 0.15074538667E+01 0.14228234539E+01 0.13568857862E+01 0.13073602476E+01
 0.12716363281E+01 0.12472294086E+01 0.12320811060E+01 0.12247336563E+01 0.12244229990E+01
 0.12311180806E+01 0.12455182637E+01 0.12690162265E+01 0.13036188732E+01 0.13517878044E+01
 0.14161459661E+01 0.14990263298E+01 0.16018956567E+01 0.17247348897E+01 0.18654859980E+01
 0.20196912834E+01 0.21804458651E+01 0.23387368958E+01 0.24841664923E+01 0.26059922981E+01
 0.26943824042E+01 0.27417311183E+01 0.27438005470E+01 0.27004062060E+01 0.26154440074E+01
 0.24962545590E+01 0.23525169865E+01 0.21949438655E+01 0.20340123526E+01 0.17787777997E+01
 0.16853492386E+01 0.16080317358E+01 0.15474896535E+01 0.15028053685E+01 0.14719230156E+01
 0.14521337009E+01 0.14405378645E+01 0.14344463760E+01 0.14317013984E+01 0.14309061197E+01
 0.14315572930E+01 0.14340841255E+01 0.14398048298E+01 0.14508061293E+01 0.14697358522E+01
 0.14994953220E+01 0.15428366299E+01 0.16018956567E+01 0.16777077672E+01 0.17697632141E+01
 0.18756752561E+01 0.19910470344E+01 0.21096093437E+01 0.22236567470E+01 0.23247593734E+01
 0.24046901263E+01 0.24564663597E+01 0.24753444724E+01 0.24595549046E+01 0.24105855521E+01
 0.23329361199E+01 0.22334189408E+01 0.21201877195E+01 0.20016963108E+01 0.18857521123E+01
 0.17745208098E+01 0.17281941470E+01 0.16964062631E+01 0.16785053855E+01 0.16725383180E+01
 0.16755858228E+01 0.16841643447E+01 0.16946722568E+01 0.17038550106E+01 0.17092407820E+01
 0.17094776098E+01 0.17045127259E+01 0.16955916366E+01 0.16850883886E+01 0.16761936058E+01
 0.16724970981E+01 0.16775184473E+01 0.16942468981E+01 0.17247348897E+01 0.17697632141E+01
 0.18285911162E+01 0.18988243050E+01 0.19764482777E+01 0.20560637869E+01 0.21313370979E+01
 0.21956529884E+01 0.22429211560E+01 0.22684248022E+01 0.22695410062E+01 0.22461584063E+01
 0.22006886974E+01 0.21376783009E+01 0.20631208891E+01 0.19836225935E+01 0.19055794874E+01
 0.18344967614E+01 0.18658426765E+01 0.18681247254E+01 0.18835030639E+01 0.19099754554E+01
 0.19442801595E+01 0.19821726301E+01 0.20188519527E+01 0.20495307681E+01 0.20700907303E+01
 0.20777115905E+01 0.20713350881E+01 0.20518462930E+01 0.20219230465E+01 0.19855930599E+01
 0.19476116544E+01 0.19128018376E+01 0.18854750498E+01 0.18689943762E+01 0.18654859980E+01
 0.18756752561E+01 0.18988243050E+01 0.19327650597E+01 0.19740398461E+01 0.20181754913E+01
 0.20601163152E+01 0.20948149225E+01 0.21179233917E+01 0.21264630735E+01 0.21193183096E+01
 0.20974259600E+01 0.20636119776E+01 0.20221224465E+01 0.19779693848E+01 0.19362376530E+01
 0.19014770046E+01 0.18772493557E+01 0.20584964973E+01 0.21144619549E+01 0.21821895404E+01
 0.22579223436E+01 0.23364648195E+01 0.24115075432E+01 0.24762293252E+01 0.25241570305E+01
 0.25501517308E+01 0.25512999849E+01 0.25274650210E+01 0.24813210549E+01 0.24178489975E+01
 0.23434519019E+01 0.22649559462E+01 0.21887395471E+01 0.21201168212E+01 0.20629855256E+01
 0.20196912834E+01 0.19910470344E+01 0.19764482777E+01 0.19740398461E+01 0.19809283250E+01
 0.19934753798E+01 0.20077117475E+01 0.20198680182E+01 0.20269550001E+01 0.20272782257E+01
 0.20207564462E+01 0.20089445841E+01 0.19947432176E+01 0.19818819432E+01 0.19743296334E+01
 0.19757656123E+01 0.19891673122E+01 0.20165024119E+01 0.23645323981E+01 0.24832935837E+01
 0.26123194759E+01 0.27452623958E+01 0.28739577956E+01 0.29889846301E+01 0.30806711030E+01
 0.31404566495E+01 0.31623440029E+01 0.31440498304E+01 0.30874772755E+01 0.29983315933E+01
 0.28850096943E+01 0.27571430442E+01 0.26242172527E+01 0.24945431892E+01 0.23746559052E+01
 0.22690913497E+01 0.21804458651E+01 0.21096093437E+01 0.20560637869E+01 0.20181754913E+01
 0.19934753798E+01 0.19789719040E+01 0.19715401504E+01 0.19683881762E+01 0.19675431345E+01
 0.19682457340E+01 0.19711220339E+01 0.19780545159E+01 0.19917931750E+01 0.20154518793E+01
 0.20520394479E+01 0.21040845938E+01 0.21733225539E+01 0.22603925265E+01 0.28028614064E+01
 0.29980885310E+01 0.32012654852E+01 0.34020463349E+01 0.35877782184E+01 0.37446124709E+01
 0.38592341949E+01 0.39209523008E+01 0.39236627497E+01 0.38670875083E+01 0.37568405559E+01
 0.36032827282E+01 0.34195806712E+01 0.32196000042E+01 0.30161519837E+01 0.28198388226E+01
 0.26385149025E+01 0.24772642651E+01 0.23387368958E+01 0.22236567470E+01 0.21313370979E+01
 0.20601163152E+01 0.20077117475E+01 0.19715401504E+01 0.19490654427E+01 0.19382052160E+01
 0.19377469444E+01 0.19476351125E+01 0.19689882412E+01 0.20038296326E+01 0.20546665052E+01
 0.21240831144E+01 0.22144070689E+01 0.23273918553E+01 0.24638414862E+01 0.26231604880E+01
 0.33998541021E+01 0.36899759253E+01 0.39835403725E+01 0.42641124980E+01 0.45126249464E+01
 0.47094768346E+01 0.48373251213E+01 0.48840291189E+01 0.48449751984E+01 0.47240251221E+01
 0.45327305867E+01 0.42880893320E+01 0.40096026937E+01 0.37164605060E+01 0.34254043376E+01
 0.31494805442E+01 0.28976599675E+01 0.26751552642E+01 0.24841664923E+01 0.23247593734E+01
 0.21956529884E+01 0.20948149225E+01 0.20198680182E+01 0.19683881762E+01 0.19382052160E+01
 0.19277639209E+01 0.19364659796E+01 0.19648208541E+01 0.20143092185E+01 0.20870480120E+01
 0.21854388951E+01 0.23118841753E+01 0.24684935305E+01 0.26566573538E+01 0.28764380580E+01
 0.31258137892E+01 0.41888670287E+01 0.45961244407E+01 0.49976839275E+01 0.53683976347E+01
 0.56808248004E+01 0.59087696184E+01 0.60313542137E+01 0.60367265212E+01 0.59243549298E+01
 0.57051424301E+01 0.53993050340E+01 0.50327245303E+01 0.46328572590E+01 0.42251510022E+01
 0.38305390270E+01 0.34642129208E+01 0.31355946767E+01 0.28492052777E+01 0.26059922981E+01
 0.24046901263E+01 0.22429211560E+01 0.21179233917E+01 0.20269550001E+01 0.19675431345E+01
 0.19377469444E+01 0.19364659796E+01 0.19636618096E+01 0.20203509780E+01 0.21083870917E+01
 0.22301855076E+01 0.23884919602E+01 0.25861280088E+01 0.28255543475E+01 0.31081405863E+01
 0.34331249640E+01 0.37963343797E+01 0.52069970407E+01 0.57545389765E+01 0.62791588517E+01
 0.67443534469E+01 0.71129123741E+01 0.73522202149E+01 0.74396213870E+01 0.73665456326E+01
 0.71401623851E+01 0.67820067325E+01 0.63240240962E+01 0.58032329315E+01 0.52563596816E+01
 0.47154905009E+01 0.42053348179E+01 0.37422741126E+01 0.33349848572E+01 0.29861175924E+01
 0.26943824042E+01 0.24564663597E+01 0.22684248022E+01 0.21264630735E+01 0.20272782257E+01
 0.19682457340E+01 0.19476351125E+01 0.19648208541E+01 0.20203509780E+01 0.21158396788E+01
 0.22537964823E+01 0.24374847401E+01 0.26707398113E+01 0.29575620092E+01 0.33013166543E+01
 0.37034467049E+01 0.41616988179E+01 0.46680694846E+01 0.64879561855E+01 0.71949583229E+01
 0.78499406076E+01 0.84030510717E+01 0.88070141006E+01 0.90243622287E+01 0.90339048335E+01
 0.88346869483E+01 0.84461800937E+01 0.79046386653E+01 0.72567769540E+01 0.65524996061E+01
 0.58382690780E+01 0.51521977508E+01 0.45214274977E+01 0.39618534616E+01 0.34797567625E+01
 0.30745488948E+01 0.27417311183E+01 0.24753444724E+01 0.22695410062E+01 0.21193183096E+01
 0.20207564462E+01 0.19711220339E+01 0.19689882412E+01 0.20143092185E+01 0.21083870917E+01
 0.22537964823E+01 0.24543494120E+01 0.27150341757E+01 0.30417132486E+01 0.34403405389E+01
 0.39155045086E+01 0.44681918219E+01 0.50929215905E+01 0.57748647730E+01 0.80518490024E+01
 0.89277707673E+01 0.97075340241E+01 0.10327037120E+02 0.10730019803E+02 0.10877341103E+02
 0.10754183083E+02 0.10372939784E+02 0.97707989673E+01 0.90028642449E+01 0.81329541554E+01
 0.72243776332E+01 0.63323736455E+01 0.54991682851E+01 0.47520182429E+01 0.41040753445E+01
 0.35573626847E+01 0.31067549018E+01 0.27438005470E+01 0.24595549046E+01 0.22461584063E+01
 0.20974259600E+01 0.20089445841E+01 0.19780545159E+01 0.20038296326E+01 0.20870480120E+01
 0.22301855076E+01 0.24374847401E+01 0.27150341757E+01 0.30706348262E+01 0.35131534853E+01
 0.40510451765E+01 0.46897797937E+01 0.54281980105E+01 0.62544324823E+01 0.71426368926E+01
 0.98945988397E+01 0.10934183216E+02 0.11816470611E+02 0.12463397386E+02 0.12812366541E+02
 0.12827691820E+02 0.12507782618E+02 0.11885454077E+02 0.11021285389E+02 0.99924714913E+01
 0.88805682134E+01 0.77608269563E+01 0.66945288758E+01 0.57248075293E+01 0.48759762365E+01
 0.41559473826E+01 0.35607659118E+01 0.30798311055E+01 0.27004062060E+01 0.24105855521E+01
 0.22006886974E+01 0.20636119776E+01 0.19947432176E+01 0.19917931750E+01 0.20546665052E+01
 0.21854388951E+01 0.23884919602E+01 0.26707398113E+01 0.30417132486E+01 0.35131534853E+01
 0.40976902504E+01 0.48061547338E+01 0.56433414619E+01 0.66027659500E+01 0.76618261582E+01
 0.87790563963E+01 0.11979968502E+02 0.13159784730E+02 0.14103316964E+02 0.14720207269E+02
 0.14946345379E+02 0.14757227455E+02 0.14173428928E+02 0.13255917986E+02 0.12093280486E+02
 0.10785720054E+02 0.94304354987E+01 0.81107931231E+01 0.68897504925E+01 0.58072672912E+01
 0.48814086399E+01 0.41125788789E+01 0.34896460299E+01 0.29962057286E+01 0.26154440074E+01
 0.23329361199E+01 0.21376783009E+01 0.20221224465E+01 0.19818819432E+01 0.20154518793E+01
 0.21240831144E+01 0.23118841753E+01 0.25861280088E+01 0.29575620092E+01 0.34403405389E+01
 0.40510451765E+01 0.48061547338E+01 0.57175224094E+01 0.67861972904E+01 0.79960330754E+01
 0.93090914099E+01 0.10664320459E+02 0.14235004275E+02 0.15510946730E+02 0.16453940791E+02
 0.16965389147E+02 0.16987867847E+02 0.16518836864E+02 0.15611202501E+02 0.14360557174E+02
 0.12884936375E+02 0.11304708014E+02 0.97274721303E+01 0.82388888744E+01 0.68983138879E+01
 0.57383150181E+01 0.47677852624E+01 0.39780595286E+01 0.33504646946E+01 0.28632303342E+01
 0.24962545590E+01 0.22334189408E+01 0.20631208891E+01 0.19779693848E+01 0.19743296334E+01
 0.20520394479E+01 0.22144070689E+01 0.24684935305E+01 0.28255543475E+01 0.33013166543E+01
 0.39155045086E+01 0.46897797937E+01 0.56433414619E+01 0.67861972904E+01 0.81114408897E+01
 0.95887807655E+01 0.11161179749E+02 0.12745193378E+02 0.16547517823E+02 0.17852595520E+02
 0.18712776749E+02 0.19029531133E+02 0.18764561656E+02 0.17950066136E+02 0.16679964058E+02
 0.15086629566E+02 0.13313799259E+02 0.11494971299E+02 0.97405236830E+01 0.81317745980E+01
 0.67193407264E+01 0.55248401146E+01 0.45460363358E+01 0.37647305183E+01 0.31553590098E+01
 0.26919934508E+01 0.23525169865E+01 0.21201877195E+01 0.19836225935E+01 0.19362376530E+01
 0.19757656123E+01 0.21040845938E+01 0.23273918553E+01 0.26566573538E+01 0.31081405863E+01
 0.37034467049E+01 0.44681918219E+01 0.54281980105E+01 0.66027659500E+01 0.79960330754E+01
 0.95887807655E+01 0.11333005973E+02 0.13150075549E+02 0.14932147602E+02 0.18765390258E+02
 0.20009292282E+02 0.20687742213E+02 0.20717617857E+02 0.20095253560E+02 0.18897139078E+02
 0.17261722622E+02 0.15353516423E+02 0.13332648411E+02 0.11335875793E+02 0.94681974954E+01
 0.78006167015E+01 0.63709573792E+01 0.51875970502E+01 0.42365942812E+01 0.34910602971E+01
 0.29201895526E+01 0.24956899015E+01 0.21949438655E+01 0.20016963108E+01 0.19055794874E+01
 0.19014770046E+01 0.19891673122E+01 0.21733225539E+01 0.24638414862E+01 0.28764380580E+01
 0.34331249640E+01 0.41616988179E+01 0.50929215905E+01 0.62544324823E+01 0.76618261582E+01
 0.93090914099E+01 0.11161179749E+02 0.13150075549E+02 0.15173845415E+02 0.17098480611E+02
 0.20701448243E+02 0.21773165942E+02 0.22168437984E+02 0.21837827962E+02 0.20822765018E+02
 0.19246642517E+02 0.17287320886E+02 0.15130284170E+02 0.12939398098E+02 0.10844708062E+02
 0.89391119010E+01 0.72790135002E+01 0.58869941781E+01 0.47575134957E+01 0.38659165846E+01
 0.31787221629E+01 0.26622639602E+01 0.22879163766E+01 0.20340123526E+01 0.18857521123E+01
 0.18344967614E+01 0.18772493557E+01 0.20165024119E+01 0.22603925265E+01 0.26231604880E+01
 0.31258137892E+01 0.37963343797E+01 0.46680694846E+01 0.57748647730E+01 0.71426368926E+01
 0.87790563963E+01 0.10664320459E+02 0.12745193378E+02 0.14932147602E+02 0.17098480611E+02
 0.19083031294E+02 0.22604036261E+02 0.23036257548E+02 0.22674788660E+02 0.21566764798E+02
 0.19850014694E+02 0.17717807306E+02 0.15377163876E+02 0.13015399885E+02 0.10780661954E+02
 0.87743493378E+01 0.70513819928E+01 0.56261270487E+01 0.44828441557E+01 0.35884197540E+01
 0.29040516224E+01 0.23932886476E+01 0.20258997780E+01 0.17787719679E+01 0.16355518101E+01
 0.15862761041E+01 0.16273820234E+01 0.17618302668E+01 0.19990366089E+01 0.23547777288E+01
 0.28514835576E+01 0.35187286802E+01 0.43926046083E+01 0.55120666777E+01 0.69110957545E+01
 0.86073328587E+01 0.10589583153E+02 0.12807116354E+02 0.15162976289E+02 0.17512896748E+02
 0.19672232136E+02 0.21434577222E+02 0.23036257548E+02 0.23072727573E+02 0.22316304293E+02
 0.20864517384E+02 0.18891026884E+02 0.16604043613E+02 0.14206751934E+02 0.11870504117E+02
 0.97217819788E+01 0.78389269437E+01 0.62554198455E+01 0.49684400252E+01 0.39511347354E+01
 0.31654824141E+01 0.25724454103E+01 0.21378420153E+01 0.18344872678E+01 0.16422549889E+01
 0.15476377536E+01 0.15436307092E+01 0.16299109689E+01 0.18128889301E+01 0.21055220493E+01
 0.25273072467E+01 0.31047285852E+01 0.38714244551E+01 0.48663008369E+01 0.61278387049E+01
 0.76842106108E+01 0.95407826120E+01 0.11667896134E+02 0.13991731469E+02 0.16390128836E+02
 0.18695135885E+02 0.20705389158E+02 0.22211855743E+02 0.22674788660E+02 0.22316304293E+02
 0.21217494374E+02 0.19515043413E+02 0.17400638527E+02 0.15079819445E+02 0.12738930671E+02
 0.10525631101E+02 0.85409222532E+01 0.68390847768E+01 0.54336642313E+01 0.43082564524E+01
 0.34294859830E+01 0.27586245084E+01 0.22593665055E+01 0.19014719206E+01 0.16615987747E+01
 0.15230256015E+01 0.14754447204E+01 0.15151394634E+01 0.16451897176E+01 0.18753465780E+01
 0.22217717179E+01 0.27071481648E+01 0.33610766129E+01 0.42195111890E+01 0.53213286734E+01
 0.67007419295E+01 0.83760001826E+01 0.10336679660E+02 0.12532685810E+02 0.14867507741E+02
 0.17197414363E+02 0.19338719022E+02 0.21086428370E+02 0.22246174888E+02 0.21566764798E+02
 0.20864517384E+02 0.19515043413E+02 0.17677018612E+02 0.15542240989E+02 0.13299970972E+02
 0.11111643212E+02 0.90973383386E+01 0.73314960172E+01 0.58457024968E+01 0.46372148676E+01
 0.36810183217E+01 0.29419902711E+01 0.23841343133E+01 0.19757521964E+01 0.16913010250E+01
 0.15115173705E+01 0.14232230602E+01 0.14194873851E+01 0.14999893297E+01 0.16710770094E+01
 0.19454148021E+01 0.23416994862E+01 0.28848373978E+01 0.36060270673E+01 0.45411668180E+01
 0.57258631650E+01 0.71863933848E+01 0.89278180967E+01 0.10922021480E+02 0.13098794818E+02
 0.15342248094E+02 0.17494228015E+02 0.19367008309E+02 0.20767661092E+02 0.21533015132E+02
 0.19850014694E+02 0.18891026884E+02 0.17400638527E+02 0.15542240989E+02 0.13494099092E+02
 0.11420971083E+02 0.94554813426E+01 0.76890549500E+01 0.61708553173E+01 0.49133916114E+01
 0.39028228641E+01 0.31107490992E+01 0.25041957691E+01 0.20520169046E+01 0.17278489619E+01
 0.15108667512E+01 0.13857578617E+01 0.13428638074E+01 0.13786500936E+01 0.14960395164E+01
 0.17041947981E+01 0.20179696807E+01 0.24576350217E+01 0.30489866997E+01 0.38228751348E+01
 0.48124935763E+01 0.60470911851E+01 0.75421351022E+01 0.92877239541E+01 0.11238266313E+02
 0.13306378589E+02 0.15363075857E+02 0.17245883071E+02 0.18776599832E+02 0.19789053107E+02
 0.20162450727E+02 0.17717807306E+02 0.16604043613E+02 0.15079819445E+02 0.13299970972E+02
 0.11420971083E+02 0.95791705697E+01 0.78773577208E+01 0.63795734293E+01 0.51133016312E+01
 0.40773170365E+01 0.32522663388E+01 0.26106607606E+01 0.21240419458E+01 0.17668644413E+01
 0.15179461085E+01 0.13607688420E+01 0.12836812938E+01 0.12804246134E+01 0.13507010731E+01
 0.15002496211E+01 0.17403135777E+01 0.20869885842E+01 0.25609529668E+01 0.31873343475E+01
 0.39945474273E+01 0.50106019557E+01 0.62560094783E+01 0.77338836470E+01 0.94194652260E+01
 0.11252151556E+02 0.13132741282E+02 0.14927687911E+02 0.16481560910E+02 0.17638128031E+02
 0.18267895988E+02 0.18295560871E+02 0.15377163876E+02 0.14206751934E+02 0.12738930671E+02
 0.11111643212E+02 0.94554813426E+01 0.78773577208E+01 0.64515669491E+01 0.52184026050E+01
 0.41891121744E+01 0.33545956027E+01 0.26946604360E+01 0.21853820951E+01 0.18036385022E+01
 0.15292041360E+01 0.13454279148E+01 0.12395497197E+01 0.12032740628E+01 0.12335282510E+01
 0.13328679002E+01 0.15091685511E+01 0.17748462715E+01 0.21461877322E+01 0.26430295668E+01
 0.32882607757E+01 0.41059927467E+01 0.51171957783E+01 0.63323716823E+01 0.77422960330E+01
 0.93093166389E+01 0.10962210989E+02 0.12596967754E+02 0.14084775707E+02 0.15287488036E+02
 0.16079281506E+02 0.16370490776E+02 0.16126834952E+02 0.13015399885E+02 0.11870504117E+02
 0.10525631101E+02 0.90973383386E+01 0.76890549500E+01 0.63795734293E+01 0.52184026050E+01
 0.42276422603E+01 0.34083602895E+01 0.27485478202E+01 0.22301190699E+01 0.18336996498E+01
 0.15411998823E+01 0.13368838139E+01 0.12078455906E+01 0.11445968446E+01 0.11419198846E+01
 0.11995746670E+01 0.13223507458E+01 0.15194145311E+01 0.18034110872E+01 0.21897985658E+01
 0.26964007521E+01 0.33425361913E+01 0.41466945655E+01 0.51218676806E+01 0.62685096244E+01
 0.75665124341E+01 0.89687656772E+01 0.10399022797E+02 0.11755905507E+02 0.12923566563E+02
 0.13788116690E+02 0.14257150021E+02 0.14277757915E+02 0.13847616098E+02 0.10780661954E+02
 0.97217819788E+01 0.85409222532E+01 0.73314960172E+01 0.61708553173E+01 0.51133016312E+01
 0.41891121744E+01 0.34083602895E+01 0.27671314808E+01 0.22537255600E+01 0.18533566044E+01
 0.15509810668E+01 0.13326622926E+01 0.11862161795E+01 0.11018267231E+01 0.10729160184E+01
 0.10970236422E+01 0.11762049287E+01 0.13167001408E+01 0.15280900647E+01 0.18223897002E+01
 0.22133634447E+01 0.27159137122E+01 0.33449225572E+01 0.41126606219E+01 0.50241508036E+01
 0.60708514366E+01 0.72243128523E+01 0.84322460420E+01 0.96191971179E+01 0.10692934354E+02
 0.11556226551E+02 0.12122180308E+02 0.12329869715E+02 0.12156193960E+02 0.11620505942E+02
 0.87743493378E+01 0.78389269437E+01 0.68390847768E+01 0.58457024968E+01 0.49133916114E+01
 0.40773170365E+01 0.33545956027E+01 0.27485478202E+01 0.22537255600E+01 0.18601945091E+01
 0.15564276027E+01 0.13308875437E+01 0.11728110986E+01 0.10728257601E+01 0.10237808310E+01
 0.10216963640E+01 0.10664061466E+01 0.11615645859E+01 0.13140530239E+01 0.15330937703E+01
 0.18293875391E+01 0.22144005580E+01 0.26996143627E+01 0.32951778192E+01 0.40072345683E+01
 0.48336203487E+01 0.57586415750E+01 0.67486740213E+01 0.77506517345E+01 0.86949457701E+01
 0.95029772845E+01 0.10098562311E+02 0.10420722462E+02 0.10434884546E+02 0.10139504999E+02
 0.95663379118E+01 0.70513819928E+01 0.62554198455E+01 0.54336642313E+01 0.46372148676E+01
 0.39028228641E+01 0.32522663388E+01 0.26946604360E+01 0.22301190699E+01 0.18533566044E+01
 0.15564276027E+01 0.13304255236E+01 0.11664082713E+01 0.10560330053E+01 0.99229624232E+00
 0.97042855741E+00 0.98865399688E+00 0.10484780261E+01 0.11544062898E+01 0.13132560864E+01
 0.15333128010E+01 0.18235267111E+01 0.21927958879E+01 0.26491187476E+01 0.31981151526E+01
 0.38404207002E+01 0.45680000215E+01 0.53602991767E+01 0.61817967444E+01 0.69824787275E+01
 0.77020568531E+01 0.82776709241E+01 0.86536949765E+01 0.87914308563E+01 0.86762604062E+01
 0.83204058048E+01 0.77606136077E+01 0.56261270487E+01 0.49684400252E+01 0.43082564524E+01
 0.36810183217E+01 0.31107490992E+01 0.26106607606E+01 0.21853820951E+01 0.18336996498E+01
 0.15509810668E+01 0.13308875437E+01 0.11664082713E+01 0.10505368864E+01 0.97693771207E+00
 0.94072231555E+00 0.93917850146E+00 0.97219897970E+00 0.10422762120E+01 0.11541022803E+01
 0.13139085880E+01 0.15287048809E+01 0.18055473179E+01 0.21508267999E+01 0.25693294154E+01
 0.30626788526E+01 0.36269678364E+01 0.42499220459E+01 0.49085159638E+01 0.55682182638E+01
 0.61848152573E+01 0.67090972927E+01 0.70937940266E+01 0.73013142931E+01 0.73104229048E+01
 0.71201653912E+01 0.67500511412E+01 0.62364543271E+01 0.44828441557E+01 0.39511347354E+01
 0.34294859830E+01 0.29419902711E+01 0.25041957691E+01 0.21240419458E+01 0.18036385022E+01
 0.15411998823E+01 0.13326622926E+01 0.11728110986E+01 0.10560330053E+01 0.97693771207E+00
 0.93100116048E+00 0.91518359912E+00 0.92836676024E+00 0.97150132636E+00 0.10474575112E+01
 0.11606283072E+01 0.13163583926E+01 0.15202938322E+01 0.17777177906E+01 0.20928038303E+01
 0.24675712847E+01 0.29003530776E+01 0.33838597673E+01 0.39033084549E+01 0.44353582736E+01
 0.49486077325E+01 0.54061228605E+01 0.57699167135E+01 0.60066335908E+01 0.60931660009E+01
 0.60208021219E+01 0.57968347447E+01 0.54432176370E+01 0.49926135944E+01 0.35884197540E+01
 0.31654824141E+01 0.27586245084E+01 0.23841343133E+01 0.20520169046E+01 0.17668644413E+01
 0.15292041360E+01 0.13368838139E+01 0.11862161795E+01 0.10728257601E+01 0.99229624232E+00
 0.94072231555E+00 0.91518359912E+00 0.91409433209E+00 0.93738713898E+00 0.98651871156E+00
 0.10642990022E+01 0.11745575191E+01 0.13216849588E+01 0.15100904071E+01 0.17435582659E+01
 0.20244149436E+01 0.23524167466E+01 0.27233950149E+01 0.31278949679E+01 0.35502249261E+01
 0.39684086906E+01 0.43554479151E+01 0.46820266989E+01 0.49203700082E+01 0.50485360628E+01
 0.50541577743E+01 0.49366769611E+01 0.47074579886E+01 0.43877338487E+01 0.40049420674E+01
 0.29040516224E+01 0.25724454103E+01 0.22593665055E+01 0.19757521964E+01 0.17278489619E+01
 0.15179461085E+01 0.13454279148E+01 0.12078455906E+01 0.11018267231E+01 0.10237808310E+01
 0.97042855741E+00 0.93917850146E+00 0.92836676024E+00 0.93738713898E+00 0.96674090607E+00
 0.10180067216E+01 0.10937092100E+01 0.11970745715E+01 0.13316726801E+01 0.15009213637E+01
 0.17073977792E+01 0.19519273601E+01 0.22325164186E+01 0.25433077253E+01 0.28738163026E+01
 0.32087318651E+01 0.35285477124E+01 0.38111628259E+01 0.40343864136E+01 0.41789952456E+01
 0.42317485778E+01 0.41876536044E+01 0.40508720126E+01 0.38339872545E+01 0.35558265129E+01
 0.32384472563E+01 0.23932886476E+01 0.21378420153E+01 0.19014719206E+01 0.16913010250E+01
 0.15108667512E+01 0.13607688420E+01 0.12395497197E+01 0.11445968446E+01 0.10729160184E+01
 0.10216963640E+01 0.98865399688E+00 0.97219897970E+00 0.97150132636E+00 0.98651871156E+00
 0.10180067216E+01 0.10674990544E+01 0.11372323739E+01 0.12299782290E+01 0.13487235266E+01
 0.14961393582E+01 0.16738259976E+01 0.18814094802E+01 0.21156497855E+01 0.23697676286E+01
 0.26331960577E+01 0.28919166938E+01 0.31294561713E+01 0.33285097476E+01 0.34730339766E+01
 0.35505057026E+01 0.35539024080E+01 0.34829050614E+01 0.33439628069E+01 0.31491879177E+01
 0.29144097061E+01 0.26569062566E+01 0.20258997780E+01 0.18344872678E+01 0.16615987747E+01
 0.15115173705E+01 0.13857578617E+01 0.12836812938E+01 0.12032740628E+01 0.11419198846E+01
 0.10970236422E+01 0.10664061466E+01 0.10484780261E+01 0.10422762120E+01 0.10474575112E+01
 0.10642990022E+01 0.10937092100E+01 0.11372323739E+01 0.11970059341E+01 0.12755969396E+01
 0.13756349781E+01 0.14992138920E+01 0.16471282695E+01 0.18180868131E+01 0.20080772851E+01
 0.22100544568E+01 0.24140830987E+01 0.26079863899E+01 0.27784526824E+01 0.29124841694E+01
 0.29990253814E+01 0.30305377495E+01 0.30041935949E+01 0.29223559838E+01 0.27921834072E+01
 0.26244832813E+01 0.24321462698E+01 0.22285105408E+01 0.17787719679E+01 0.16422549889E+01
 0.15230256015E+01 0.14232230602E+01 0.13428638074E+01 0.12804246134E+01 0.12335282510E+01
 0.11995746670E+01 0.11762049287E+01 0.11615645859E+01 0.11544062898E+01 0.11541022803E+01
 0.11606283072E+01 0.11745575191E+01 0.11970745715E+01 0.12299782290E+01 0.12755969396E+01
 0.13365345026E+01 0.14152117234E+01 0.15132469615E+01 0.16307809930E+01 0.17658852098E+01
 0.19142012350E+01 0.20689348295E+01 0.22212559433E+01 0.23610663161E+01 0.24780372617E+01
 0.25628030316E+01 0.26081713634E+01 0.26101534760E+01 0.25685764982E+01 0.24871069401E+01
 0.23726825366E+01 0.22345155752E+01 0.20828953550E+01 0.19279867878E+01 0.16355518101E+01
 0.15476377536E+01 0.14754447204E+01 0.14194873851E+01 0.13786500936E+01 0.13507010731E+01
 0.13328679002E+01 0.13223507458E+01 0.13167001408E+01 0.13140530239E+01 0.13132560864E+01
 0.13139085880E+01 0.13163583926E+01 0.13216849588E+01 0.13316726801E+01 0.13487235266E+01
 0.13756349781E+01 0.14152117234E+01 0.14697505679E+01 0.15404807720E+01 0.16270524870E+01
 0.17271748649E+01 0.18365092253E+01 0.19488840657E+01 0.20568183639E+01 0.21522743832E+01
 0.22275472305E+01 0.22761987876E+01 0.22939105486E+01 0.22790897048E+01 0.22330875061E+01
 0.21599910145E+01 0.20660571146E+01 0.19589064437E+01 0.18465980125E+01 0.17367090440E+01
 0.15862761041E+01 0.15436307092E+01 0.15151394634E+01 0.14999893297E+01 0.14960395164E+01
 0.15002496211E+01 0.15091685511E+01 0.15194145311E+01 0.15280900647E+01 0.15330937703E+01
 0.15333128010E+01 0.15287048809E+01 0.15202938322E+01 0.15100904071E+01 0.15009213637E+01
 0.14961393582E+01 0.14992138920E+01 0.15132469615E+01 0.15404807720E+01 0.15818638427E+01
 0.16367376140E+01 0.17027057738E+01 0.17757342825E+01 0.18504903153E+01 0.19208824473E+01
 0.19807366445E+01 0.20245294591E+01 0.20480831484E+01 0.20491119509E+01 0.20275213940E+01
 0.19854122120E+01 0.19268003450E+01 0.18571046313E+01 0.17824747713E+01 0.17090511480E+01
 0.16422643015E+01 0.16273820234E+01 0.16299109689E+01 0.16451897176E+01 0.16710770094E+01
 0.17041947981E+01 0.17403135777E+01 0.17748462715E+01 0.18034110872E+01 0.18223897002E+01
 0.18293875391E+01 0.18235267111E+01 0.18055473179E+01 0.17777177906E+01 0.17435582659E+01
 0.17073977792E+01 0.16738259976E+01 0.16471282695E+01 0.16307809930E+01 0.16270524870E+01
 0.16367376140E+01 0.16590526118E+01 0.16917057864E+01 0.17311369400E+01 0.17729036090E+01
 0.18121877096E+01 0.18443794470E+01 0.18656614594E+01 0.18734972962E+01 0.18669500455E+01
 0.18467986298E+01 0.18154443947E+01 0.17766107110E+01 0.17348643441E+01 0.16950320850E+01
 0.16616115322E+01 0.16382566506E+01 0.17618302668E+01 0.18128889301E+01 0.18753465780E+01
 0.19454148021E+01 0.20179696807E+01 0.20869885842E+01 0.21461877322E+01 0.21897985658E+01
 0.22133634447E+01 0.22144005580E+01 0.21927958879E+01 0.21508267999E+01 0.20928038303E+01
 0.20244149436E+01 0.19519273601E+01 0.18814094802E+01 0.18180868131E+01 0.17658852098E+01
 0.17271748649E+01 0.17027057738E+01 0.16917057864E+01 0.16921019317E+01 0.17008357374E+01
 0.17142607834E+01 0.17286076934E+01 0.17404743026E+01 0.17472749206E+01 0.17475848480E+01
 0.17413350524E+01 0.17298282909E+01 0.17155651956E+01 0.17019010416E+01 0.16925927891E+01
 0.16913126059E+01 0.17011870802E+01 0.17243932621E+01 0.19990366089E+01 0.21055220493E+01
 0.22217717179E+01 0.23416994862E+01 0.24576350217E+01 0.25609529668E+01 0.26430295668E+01
 0.26964007521E+01 0.27159137122E+01 0.26996143627E+01 0.26491187476E+01 0.25693294154E+01
 0.24675712847E+01 0.23524167466E+01 0.22325164186E+01 0.21156497855E+01 0.20080772851E+01
 0.19142012350E+01 0.18365092253E+01 0.17757342825E+01 0.17311369400E+01 0.17008357374E+01
 0.16821666625E+01 0.16720784253E+01 0.16675527160E+01 0.16660165532E+01 0.16657101438E+01
 0.16659652798E+01 0.16673291198E+01 0.16714793968E+01 0.16809454093E+01 0.16987210858E+01
 0.17278585553E+01 0.17710721957E+01 0.18303433519E+01 0.19065327310E+01 0.23547777288E+01
 0.25273072467E+01 0.27071481648E+01 0.28848373978E+01 0.30489866997E+01 0.31873343475E+01
 0.32882607757E+01 0.33425361913E+01 0.33449225572E+01 0.32951778192E+01 0.31981151526E+01
 0.30626788526E+01 0.29003530776E+01 0.27233950149E+01 0.25433077253E+01 0.23697676286E+01
 0.22100544568E+01 0.20689348295E+01 0.19488840657E+01 0.18504903153E+01 0.17729036090E+01
 0.17142607834E+01 0.16720784253E+01 0.16436293717E+01 0.16263212875E+01 0.16180855702E+01
 0.16177407055E+01 0.16252323943E+01 0.16416478950E+01 0.16689924132E+01 0.17098253891E+01
 0.17668737591E+01 0.18426636575E+01 0.19391429444E+01 0.20572705651E+01 0.21965850584E+01
 0.28514835576E+01 0.31047285852E+01 0.33610766129E+01 0.36060270673E+01 0.38228751348E+01
 0.39945474273E+01 0.41059927467E+01 0.41466945655E+01 0.41126606219E+01 0.40072345683E+01
 0.38404207002E+01 0.36269678364E+01 0.33838597673E+01 0.31278949679E+01 0.28738163026E+01
 0.26331960577E+01 0.24140830987E+01 0.22212559433E+01 0.20568183639E+01 0.19208824473E+01
 0.18121877096E+01 0.17286076934E+01 0.16675527160E+01 0.16263212875E+01 0.16024797887E+01
 0.15942943718E+01 0.16011078816E+01 0.16234880844E+01 0.16630757256E+01 0.17222336776E+01
 0.18036532414E+01 0.19099799542E+01 0.20434257017E+01 0.22053338709E+01 0.23956925406E+01
 0.26125738055E+01 0.35187286802E+01 0.38714244551E+01 0.42195111890E+01 0.45411668180E+01
 0.48124935763E+01 0.50106019557E+01 0.51171957783E+01 0.51218676806E+01 0.50241508036E+01
 0.48336203487E+01 0.45680000215E+01 0.42499220459E+01 0.39033084549E+01 0.35502249261E+01
 0.32087318651E+01 0.28919166938E+01 0.26079863899E+01 0.23610663161E+01 0.21522743832E+01
 0.19807366445E+01 0.18443794470E+01 0.17404743026E+01 0.16660165532E+01 0.16180855702E+01
 0.15942943718E+01 0.15932713198E+01 0.16149715043E+01 0.16606617388E+01 0.17326202762E+01
 0.18337207748E+01 0.19670172710E+01 0.21353311646E+01 0.23408013273E+01 0.25843589282E+01
 0.28650447617E+01 0.31790749707E+01 0.43926046083E+01 0.48663008369E+01 0.53213286734E+01
 0.57258631650E+01 0.60470911851E+01 0.62560094783E+01 0.63323716823E+01 0.62685096244E+01
 0.60708514366E+01 0.57586415750E+01 0.53602991767E+01 0.49085159638E+01 0.44353582736E+01
 0.39684086906E+01 0.35285477124E+01 0.31294561713E+01 0.27784526824E+01 0.24780372617E+01
 0.22275472305E+01 0.20245294591E+01 0.18656614594E+01 0.17472749206E+01 0.16657101438E+01
 0.16177407055E+01 0.16011078816E+01 0.16149715043E+01 0.16600598829E+01 0.17384884443E+01
 0.18533807530E+01 0.20084187693E+01 0.22073691561E+01 0.24535996737E+01 0.27495519356E+01
 0.30959971791E+01 0.34908265575E+01 0.39273570087E+01 0.55120666777E+01 0.61278387049E+01
 0.67007419295E+01 0.71863933848E+01 0.75421351022E+01 0.77338836470E+01 0.77422960330E+01
 0.75665124341E+01 0.72243128523E+01 0.67486740213E+01 0.61817967444E+01 0.55682182638E+01
 0.49486077325E+01 0.43554479151E+01 0.38111628259E+01 0.33285097476E+01 0.29124841694E+01
 0.25628030316E+01 0.22761987876E+01 0.20480831484E+01 0.18734972962E+01 0.17475848480E+01
 0.16659652798E+01 0.16252323943E+01 0.16234880844E+01 0.16606617388E+01 0.17384884443E+01
 0.18602198686E+01 0.20301939058E+01 0.22533345269E+01 0.25346320332E+01 0.28786057197E+01
 0.32885425345E+01 0.37650999212E+01 0.43040462773E+01 0.48935533937E+01 0.69110957545E+01
 0.76842106108E+01 0.83760001826E+01 0.89278180967E+01 0.92877239541E+01 0.94194652260E+01
 0.93093166389E+01 0.89687656772E+01 0.84322460420E+01 0.77506517345E+01 0.69824787275E+01
 0.61848152573E+01 0.54061228605E+01 0.46820266989E+01 0.40343864136E+01 0.34730339766E+01
 0.29990253814E+01 0.26081713634E+01 0.22939105486E+01 0.20491119509E+01 0.18669500455E+01
 0.17413350524E+01 0.16673291198E+01 0.16416478950E+01 0.16630757256E+01 0.17326202762E+01
 0.18533807530E+01 0.20301939058E+01 0.22691401648E+01 0.25770180151E+01 0.29608377476E+01
 0.34271006346E+01 0.39802992650E+01 0.46201802162E+01 0.53380390618E+01 0.61131917992E+01
 0.86073328587E+01 0.95407826120E+01 0.10336679660E+02 0.10922021480E+02 0.11238266313E+02
 0.11252151556E+02 0.10962210989E+02 0.10399022797E+02 0.96191971179E+01 0.86949457701E+01
 0.77020568531E+01 0.67090972927E+01 0.57699167135E+01 0.49203700082E+01 0.41789952456E+01
 0.35505057026E+01 0.30305377495E+01 0.26101534760E+01 0.22790897048E+01 0.20275213940E+01
 0.18467986298E+01 0.17298282909E+01 0.16714793968E+01 0.16689924132E+01 0.17222336776E+01
 0.18337207748E+01 0.20084187693E+01 0.22533345269E+01 0.25770180151E+01 0.29890976152E+01
 0.34996704082E+01 0.41178651330E+01 0.48488189819E+01 0.56890699529E+01 0.66215190293E+01
 0.76117593174E+01 0.10589583153E+02 0.11667896134E+02 0.12532685810E+02 0.13098794818E+02
 0.13306378589E+02 0.13132741282E+02 0.12596967754E+02 0.11755905507E+02 0.10692934354E+02
 0.95029772845E+01 0.82776709241E+01 0.70937940266E+01 0.60066335908E+01 0.50485360628E+01
 0.42317485778E+01 0.35539024080E+01 0.30041935949E+01 0.25685764982E+01 0.22330875061E+01
 0.19854122120E+01 0.18154443947E+01 0.17155651956E+01 0.16809454093E+01 0.17098253891E+01
 0.18036532414E+01 0.19670172710E+01 0.22073691561E+01 0.25346320332E+01 0.29608377476E+01
 0.34996704082E+01 0.41652169306E+01 0.49689323936E+01 0.59144426677E+01 0.69911211969E+01
 0.81684092652E+01 0.93929025462E+01 0.12807116354E+02 0.13991731469E+02 0.14867507741E+02
 0.15342248094E+02 0.15363075857E+02 0.14927687911E+02 0.14084775707E+02 0.12923566563E+02
 0.11556226551E+02 0.10098562311E+02 0.86536949765E+01 0.73013142931E+01 0.60931660009E+01
 0.50541577743E+01 0.41876536044E+01 0.34829050614E+01 0.29223559838E+01 0.24871069401E+01
 0.21599910145E+01 0.19268003450E+01 0.17766107110E+01 0.17019010416E+01 0.16987210858E+01
 0.17668737591E+01 0.19099799542E+01 0.21353311646E+01 0.24535996737E+01 0.28786057197E+01
 0.34271006346E+01 0.41178651330E+01 0.49689323936E+01 0.59921802492E+01 0.71858876747E+01
 0.85271759772E+01 0.99666435259E+01 0.11427025637E+02 0.15162976289E+02 0.16390128836E+02
 0.17197414363E+02 0.17494228015E+02 0.17245883071E+02 0.16481560910E+02 0.15287488036E+02
 0.13788116690E+02 0.12122180308E+02 0.10420722462E+02 0.87914308563E+01 0.73104229048E+01
 0.60208021219E+01 0.49366769611E+01 0.40508720126E+01 0.33439628069E+01 0.27921834072E+01
 0.23726825366E+01 0.20660571146E+01 0.18571046313E+01 0.17348643441E+01 0.16925927891E+01
 0.17278585553E+01 0.18426636575E+01 0.20434257017E+01 0.23408013273E+01 0.27495519356E+01
 0.32885425345E+01 0.39802992650E+01 0.48488189819E+01 0.59144426677E+01 0.71858876747E+01
 0.86511526952E+01 0.10269782399E+02 0.11968651663E+02 0.13642838288E+02 0.17512896748E+02
 0.18695135885E+02 0.19338719022E+02 0.19367008309E+02 0.18776599832E+02 0.17638128031E+02
 0.16079281506E+02 0.14257150021E+02 0.12329869715E+02 0.10434884546E+02 0.86762604062E+01
 0.71201653912E+01 0.57968347447E+01 0.47074579886E+01 0.38339872545E+01 0.31491879177E+01
 0.26244832813E+01 0.22345155752E+01 0.19589064437E+01 0.17824747713E+01 0.16950320850E+01
 0.16913126059E+01 0.17710721957E+01 0.19391429444E+01 0.22053338709E+01 0.25843589282E+01
 0.30959971791E+01 0.37650999212E+01 0.46201802162E+01 0.56890699529E+01 0.69911211969E+01
 0.85271759772E+01 0.10269782399E+02 0.12156149379E+02 0.14085667688E+02 0.15923607640E+02
 0.19672232136E+02 0.20705389158E+02 0.21086428370E+02 0.20767661092E+02 0.19789053107E+02
 0.18267895988E+02 0.16370490776E+02 0.14277757915E+02 0.12156193960E+02 0.10139504999E+02
 0.83204058048E+01 0.67500511412E+01 0.54432176370E+01 0.43877338487E+01 0.35558265129E+01
 0.29144097061E+01 0.24321462698E+01 0.20828953550E+01 0.18465980125E+01 0.17090511480E+01
 0.16616115322E+01 0.17011870802E+01 0.18303433519E+01 0.20572705651E+01 0.23956925406E+01
 0.28650447617E+01 0.34908265575E+01 0.43040462773E+01 0.53380390618E+01 0.66215190293E+01
 0.81684092652E+01 0.99666435259E+01 0.11968651663E+02 0.14085667688E+02 0.16187509257E+02
 0.18109946537E+02 0.21434577222E+02 0.22211855743E+02 0.22246174888E+02 0.21533015132E+02
 0.20162450727E+02 0.18295560871E+02 0.16126834952E+02 0.13847616098E+02 0.11620505942E+02
 0.95663379118E+01 0.77606136077E+01 0.62364543271E+01 0.49926135944E+01 0.40049420674E+01
 0.32384472563E+01 0.26569062566E+01 0.22285105408E+01 0.19279867878E+01 0.17367090440E+01
 0.16422643015E+01 0.16382566506E+01 0.17243932621E+01 0.19065327310E+01 0.21965850584E+01
 0.26125738055E+01 0.31790749707E+01 0.39273570087E+01 0.48935533937E+01 0.61131917992E+01
 0.76117593174E+01 0.93929025462E+01 0.11427025637E+02 0.13642838288E+02 0.15923607640E+02
 0.18109946537E+02 0.20012098366E+02 0.22852649758E+02 0.22888828283E+02 0.22135719498E+02
 0.20687177296E+02 0.18712655558E+02 0.16419746029E+02 0.14015756967E+02 0.11678212504E+02
 0.95376881547E+01 0.76722344555E+01 0.61114398257E+01 0.48476033324E+01 0.38503216198E+01
 0.30801882610E+01 0.24984724078E+01 0.20720074226E+01 0.17745075022E+01 0.15862576672E+01
 0.14937422971E+01 0.14898269986E+01 0.15741825364E+01 0.17533421612E+01 0.20402925701E+01
 0.24541777845E+01 0.30206266105E+01 0.37722123507E+01 0.47473861127E+01 0.59858577814E+01
 0.75192688441E+01 0.93578740518E+01 0.11476023654E+02 0.13800457399E+02 0.16205269708E+02
 0.18516487032E+02 0.20528336959E+02 0.22031849773E+02 0.22888828283E+02 0.22525047956E+02
 0.21408747827E+02 0.19675505173E+02 0.17518611343E+02 0.15149650446E+02 0.12763806365E+02
 0.10516409626E+02 0.85116794403E+01 0.68022034929E+01 0.53970101300E+01 0.42750672155E+01
 0.33999443094E+01 0.27317010860E+01 0.22340592366E+01 0.18772433968E+01 0.16382369250E+01
 0.15003175796E+01 0.14530002926E+01 0.14924692738E+01 0.16218959249E+01 0.18512029170E+01
 0.21965774139E+01 0.26804246005E+01 0.33318666638E+01 0.41866957448E+01 0.52848194576E+01
 0.66634154649E+01 0.83454041452E+01 0.10325008478E+02 0.12554046316E+02 0.14933138371E+02
 0.17311237890E+02 0.19495877225E+02 0.21275637885E+02 0.22454031803E+02 0.22135719498E+02
 0.21408747827E+02 0.20010013093E+02 0.18102253133E+02 0.15885360359E+02 0.13559680587E+02
 0.11297335509E+02 0.92251017653E+01 0.74186605716E+01 0.59065975855E+01 0.46814945093E+01
 0.37141877427E+01 0.29669307218E+01 0.24025736641E+01 0.19891626940E+01 0.17011708829E+01
 0.15192398256E+01 0.14299495748E+01 0.14261670631E+01 0.15075709259E+01 0.16806990717E+01
 0.19584472098E+01 0.23596356723E+01 0.29091793618E+01 0.36384471292E+01 0.45842915829E+01
 0.57847845709E+01 0.72703732487E+01 0.90509674387E+01 0.11101685392E+02 0.13351373317E+02
 0.15677824731E+02 0.17912501006E+02 0.19856552198E+02 0.21308559194E+02 0.22100863830E+02
 0.20687177296E+02 0.19675505173E+02 0.18102253133E+02 0.16140462787E+02 0.13981182249E+02
 0.11802174586E+02 0.97457792202E+01 0.79077629647E+01 0.63365931882E+01 0.50411002851E+01
 0.40030724168E+01 0.31905430470E+01 0.25682926734E+01 0.21040750531E+01 0.17710679937E+01
 0.15481465936E+01 0.14196484167E+01 0.13755963897E+01 0.14123343594E+01 0.15329091248E+01
 0.17467693018E+01 0.20691046807E+01 0.25205265054E+01 0.31272844279E+01 0.39211657878E+01
 0.49373721717E+01 0.62086384410E+01 0.77549730405E+01 0.95704471816E+01 0.11610453410E+02
 0.13783578147E+02 0.15951482081E+02 0.17938923269E+02 0.19554817614E+02 0.20622949147E+02
 0.21016635297E+02 0.18712655558E+02 0.17518611343E+02 0.15885360359E+02 0.13981182249E+02
 0.11976890789E+02 0.10020781274E+02 0.82227912434E+01 0.66488958086E+01 0.53246636885E+01
 0.42451549785E+01 0.33872096990E+01 0.27203900672E+01 0.22143893725E+01 0.18426682070E+01
 0.15834625109E+01 0.14197622439E+01 0.13394720272E+01 0.13360686193E+01 0.14092609150E+01
 0.15650326829E+01 0.18150251350E+01 0.21758322257E+01 0.26687579992E+01 0.33198639050E+01
 0.41591938342E+01 0.52175024597E+01 0.65191434338E+01 0.80712300673E+01 0.98512756310E+01
 0.11797059642E+02 0.13802539994E+02 0.15722523440E+02 0.17387375762E+02 0.18627263049E+02
 0.19302415643E+02 0.19332061333E+02 0.16419746029E+02 0.15149650446E+02 0.13559680587E+02
 0.11802174586E+02 0.10020781274E+02 0.83316220675E+01 0.68133846544E+01 0.55065937676E+01
 0.44201274828E+01 0.35415428738E+01 0.28475262340E+01 0.23118580637E+01 0.19099937209E+01
 0.16208437062E+01 0.14271055268E+01 0.13154515731E+01 0.12771816643E+01 0.13090848247E+01
 0.14138551476E+01 0.15997297514E+01 0.18796570147E+01 0.22706046802E+01 0.27932979160E+01
 0.34719398270E+01 0.43327149463E+01 0.53995832534E+01 0.66865207894E+01 0.81870241430E+01
 0.98636032712E+01 0.11640966503E+02 0.13406151574E+02 0.15017476719E+02 0.16322431319E+02
 0.17182338367E+02 0.17498714292E+02 0.17233988290E+02 0.14015756967E+02 0.12763806365E+02
 0.11297335509E+02 0.97457792202E+01 0.82227912434E+01 0.68133846544E+01 0.55693284443E+01
 0.45120286498E+01 0.36402346320E+01 0.29391914594E+01 0.23884615852E+01 0.19670357753E+01
 0.16557784917E+01 0.14381875104E+01 0.13006887043E+01 0.12332598381E+01 0.12303963728E+01
 0.12918615046E+01 0.14227086396E+01 0.16325854806E+01 0.19347948032E+01 0.23456073734E+01
 0.28838923764E+01 0.35704659641E+01 0.44259765875E+01 0.54661154661E+01 0.66938665220E+01
 0.80901968154E+01 0.96061119457E+01 0.11159420507E+02 0.12638699976E+02 0.13915313734E+02
 0.14862285875E+02 0.15376552078E+02 0.15399145161E+02 0.14927461441E+02 0.11678212504E+02
 0.10516409626E+02 0.92251017653E+01 0.79077629647E+01 0.66488958086E+01 0.55065937676E+01
 0.45120286498E+01 0.36742127818E+01 0.29872587653E+01 0.24374521509E+01 0.20084406400E+01
 0.16841091340E+01 0.14497256945E+01 0.12923985132E+01 0.12016898455E+01 0.11705977326E+01
 0.11965158769E+01 0.12816368215E+01 0.14325880681E+01 0.16595359940E+01 0.19752148235E+01
 0.23942230643E+01 0.29325131199E+01 0.36064087371E+01 0.44300589608E+01 0.54104765260E+01
 0.65404238800E+01 0.77909297559E+01 0.91062449713E+01 0.10403962640E+02 0.11581872785E+02
 0.12531314118E+02 0.13154770260E+02 0.13383744556E+02 0.13192238911E+02 0.12602026447E+02
 0.95376881547E+01 0.85116794403E+01 0.74186605716E+01 0.63365931882E+01 0.53246636885E+01
 0.44201274828E+01 0.36402346320E+01 0.29872587653E+01 0.24543183265E+01 0.20302203692E+01
 0.17025257154E+01 0.14589968746E+01 0.12882065020E+01 0.11801326285E+01 0.11271005717E+01
 0.11248428743E+01 0.11731864582E+01 0.12760527761E+01 0.14408175116E+01 0.16773337800E+01
 0.19969817988E+01 0.24119600655E+01 0.29346476669E+01 0.35763573441E+01 0.43445697759E+01
 0.52382177494E+01 0.62417301809E+01 0.73197362444E+01 0.84148458836E+01 0.94504403662E+01
 0.10339083760E+02 0.10995431033E+02 0.11350906010E+02 0.11366535720E+02 0.11040565989E+02
 0.10408816494E+02 0.76722344555E+01 0.68022034929E+01 0.59065975855E+01 0.50411002851E+01
 0.42451549785E+01 0.35415428738E+01 0.29391914594E+01 0.24374521509E+01 0.20302203692E+01
 0.17089133818E+01 0.14641201563E+01 0.12863771375E+01 0.11667529227E+01 0.10976792053E+01
 0.10739815257E+01 0.10937311202E+01 0.11585638399E+01 0.12733712140E+01 0.14455192617E+01
 0.16838776861E+01 0.19979394207E+01 0.23971366794E+01 0.28900914751E+01 0.34831693769E+01
 0.41777165172E+01 0.49659700583E+01 0.58266069388E+01 0.67216721913E+01 0.75967197232E+01
 0.83852771634E+01 0.90174473032E+01 0.94310444480E+01 0.95826622990E+01 0.94558704571E+01
 0.90644088202E+01 0.84495401300E+01 0.61114398257E+01 0.53970101300E+01 0.46814945093E+01
 0.40030724168E+01 0.33872096990E+01 0.28475262340E+01 0.23884615852E+01 0.20084406400E+01
 0.17025257154E+01 0.14641201563E+01 0.12858855666E+01 0.11603601364E+01 0.10806857789E+01
 0.10415116794E+01 0.10398453507E+01 0.10755616556E+01 0.11514115669E+01 0.12725478609E+01
 0.14457238391E+01 0.16784032320E+01 0.19779871971E+01 0.23511534071E+01 0.28029887173E+01
 0.33354295870E+01 0.39447371308E+01 0.46183198194E+01 0.53318951295E+01 0.60483649585E+01
 0.67195939178E+01 0.72915067190E+01 0.77118264831E+01 0.79387974432E+01 0.79487628612E+01
 0.77406576864E+01 0.73362325119E+01 0.67759236231E+01 0.48476033324E+01 0.42750672155E+01
 0.37141877427E+01 0.31905430470E+01 0.27203900672E+01 0.23118580637E+01 0.19670357753E+01
 0.16841091340E+01 0.14589968746E+01 0.12863771375E+01 0.11603601364E+01 0.10751352606E+01
 0.10257246640E+01 0.10087337341E+01 0.10228975800E+01 0.10692831782E+01 0.11511082499E+01
 0.12732245288E+01 0.14413958128E+01 0.16615486542E+01 0.19391009412E+01 0.22782731274E+01
 0.26811029364E+01 0.31459048543E+01 0.36652015421E+01 0.42235896735E+01 0.47963735082E+01
 0.53498932194E+01 0.58441644050E+01 0.62377726456E+01 0.64941730183E+01 0.65879600321E+01
 0.65095331085E+01 0.62669270590E+01 0.58842966749E+01 0.53974458051E+01 0.38503216198E+01
 0.33999443094E+01 0.29669307218E+01 0.25682926734E+01 0.22143893725E+01 0.19099937209E+01
 0.16557784917E+01 0.14497256945E+01 0.12882065020E+01 0.11667529227E+01 0.10806857789E+01
 0.10257246640E+01 0.99857796114E+00 0.99742282798E+00 0.10221793302E+01 0.10745227167E+01
 0.11576291063E+01 0.12757085565E+01 0.14334267045E+01 0.16353031857E+01 0.18850828555E+01
 0.21849652522E+01 0.25345511003E+01 0.29294795874E+01 0.33599571682E+01 0.38096224171E+01
 0.42553314295E+01 0.46683785955E+01 0.50173489656E+01 0.52723030533E+01 0.54094943129E+01
 0.54155104701E+01 0.52897525249E+01 0.50445530156E+01 0.47028882060E+01 0.42943284885E+01
 0.30801882610E+01 0.27317010860E+01 0.24025736641E+01 0.21040750531E+01 0.18426682070E+01
 0.16208437062E+01 0.14381875104E+01 0.12923985132E+01 0.11801326285E+01 0.10976792053E+01
 0.10415116794E+01 0.10087337341E+01 0.99742282798E+00 0.10068629843E+01 0.10376431132E+01
 0.10915909211E+01 0.11715410644E+01 0.12809792632E+01 0.14236075901E+01 0.16028260795E+01
 0.18210742065E+01 0.20789818621E+01 0.23743518271E+01 0.27011045333E+01 0.30484296209E+01
 0.34004728376E+01 0.37368878543E+01 0.40344539028E+01 0.42697071602E+01 0.44222195513E+01
 0.44778750790E+01 0.44313482168E+01 0.42870900370E+01 0.40585135176E+01 0.37656156958E+01
 0.34317230595E+01 0.24984724078E+01 0.22340592366E+01 0.19891626940E+01 0.17710679937E+01
 0.15834625109E+01 0.14271055268E+01 0.13006887043E+01 0.12016898455E+01 0.11271005717E+01
 0.10739815257E+01 0.10398453507E+01 0.10228975800E+01 0.10221793302E+01 0.10376431132E+01
 0.10701644157E+01 0.11214762744E+01 0.11940196011E+01 0.12907023887E+01 0.14145391087E+01
 0.15681232985E+01 0.17529111961E+01 0.19683654713E+01 0.22110898860E+01 0.24741429251E+01
 0.27467380403E+01 0.30145162449E+01 0.32605078366E+01 0.34667840283E+01 0.36166448910E+01
 0.36970124963E+01 0.37005389901E+01 0.36268888790E+01 0.34828090647E+01 0.32809516101E+01
 0.30378006276E+01 0.27712667891E+01 0.20720074226E+01 0.18772433968E+01 0.17011708829E+01
 0.15481465936E+01 0.14197622439E+01 0.13154515731E+01 0.12332598381E+01 0.11705977326E+01
 0.11248428743E+01 0.10937311202E+01 0.10755616556E+01 0.10692831782E+01 0.10745227167E+01
 0.10915909211E+01 0.11214762744E+01 0.11658226096E+01 0.12268540971E+01 0.13071803990E+01
 0.14094155791E+01 0.15355922854E+01 0.16864256861E+01 0.18605481284E+01 0.20538787822E+01
 0.22593017352E+01 0.24667880480E+01 0.26640179236E+01 0.28374735140E+01 0.29739072113E+01
 0.30620235363E+01 0.30941135783E+01 0.30672866172E+01 0.29839594135E+01 0.28514499081E+01
 0.26807994926E+01 0.24851533895E+01 0.22780657738E+01 0.17745075022E+01 0.16382369250E+01
 0.15192398256E+01 0.14196484167E+01 0.13394720272E+01 0.12771816643E+01 0.12303963728E+01
 0.11965158769E+01 0.11731864582E+01 0.11585638399E+01 0.11514115669E+01 0.11511082499E+01
 0.11576291063E+01 0.11715410644E+01 0.11940196011E+01 0.12268540971E+01 0.12723662570E+01
 0.13331582279E+01 0.14116546283E+01 0.15094808324E+01 0.16267848215E+01 0.17616439001E+01
 0.19097046678E+01 0.20641782324E+01 0.22162422271E+01 0.23558107388E+01 0.24725729231E+01
 0.25571835591E+01 0.26024678955E+01 0.26044466660E+01 0.25629468553E+01 0.24816260674E+01
 0.23674061405E+01 0.22294794089E+01 0.20781159945E+01 0.19234671033E+01 0.15862576672E+01
 0.15003175796E+01 0.14299495748E+01 0.13755963897E+01 0.13360686193E+01 0.13090848247E+01
 0.12918615046E+01 0.12816368215E+01 0.12760527761E+01 0.12733712140E+01 0.12725478609E+01
 0.12732245288E+01 0.12757085565E+01 0.12809792632E+01 0.12907023887E+01 0.13071803990E+01
 0.13331582279E+01 0.13714482400E+01 0.14244049625E+01 0.14933338906E+01 0.15779481361E+01
 0.16759961521E+01 0.17831677752E+01 0.18933329096E+01 0.19990894955E+01 0.20925343675E+01
 0.21661489107E+01 0.22136938980E+01 0.22310003967E+01 0.22165273417E+01 0.21715710724E+01
 0.21000815762E+01 0.20081331109E+01 0.19031580034E+01 0.17930629364E+01 0.16853365726E+01
 0.14937422971E+01 0.14530002926E+01 0.14261670631E+01 0.14123343594E+01 0.14092609150E+01
 0.14138551476E+01 0.14227086396E+01 0.14325880681E+01 0.14408175116E+01 0.14455192617E+01
 0.14457238391E+01 0.14413958128E+01 0.14334267045E+01 0.14236075901E+01 0.14145391087E+01
 0.14094155791E+01 0.14116546283E+01 0.14244049625E+01 0.14500089869E+01 0.14895116859E+01
 0.15423074608E+01 0.16060070999E+01 0.16765736845E+01 0.17487175522E+01 0.18164838607E+01
 0.18739395415E+01 0.19158666436E+01 0.19383754652E+01 0.19393586503E+01 0.19187292581E+01
 0.18784226008E+01 0.18221733717E+01 0.17550930743E+01 0.16830819486E+01 0.16121345364E+01
 0.15476332082E+01 0.14898269986E+01 0.14924692738E+01 0.15075709259E+01 0.15329091248E+01
 0.15650326829E+01 0.15997297514E+01 0.16325854806E+01 0.16595359940E+01 0.16773337800E+01
 0.16838776861E+01 0.16784032320E+01 0.16615486542E+01 0.16353031857E+01 0.16028260795E+01
 0.15681232985E+01 0.15355922854E+01 0.15094808324E+01 0.14933338906E+01 0.14895116859E+01
 0.14988548478E+01 0.15205516898E+01 0.15522317544E+01 0.15902721946E+01 0.16302678813E+01
 0.16675912588E+01 0.16979583986E+01 0.17179240645E+01 0.17252501890E+01 0.17191237015E+01
 0.17002271796E+01 0.16706738411E+01 0.16338069625E+01 0.15938542995E+01 0.15554444151E+01
 0.15230337061E+01 0.15003324902E+01 0.15741825364E+01 0.16218959249E+01 0.16806990717E+01
 0.17467693018E+01 0.18150251350E+01 0.18796570147E+01 0.19347948032E+01 0.19752148235E+01
 0.19969817988E+01 0.19979394207E+01 0.19779871971E+01 0.19391009412E+01 0.18850828555E+01
 0.18210742065E+01 0.17529111961E+01 0.16864256861E+01 0.16267848215E+01 0.15779481361E+01
 0.15423074608E+01 0.15205516898E+01 0.15117582618E+01 0.15136736866E+01 0.15231268102E+01
 0.15365156475E+01 0.15503036124E+01 0.15614562246E+01 0.15677658431E+01 0.15680519486E+01
 0.15622574027E+01 0.15514590555E+01 0.15377849560E+01 0.15242157010E+01 0.15142613715E+01
 0.15115341259E+01 0.15192604573E+01 0.15397920560E+01 0.17533421612E+01 0.18512029170E+01
 0.19584472098E+01 0.20691046807E+01 0.21758322257E+01 0.22706046802E+01 0.23456073734E+01
 0.23942230643E+01 0.24119600655E+01 0.23971366794E+01 0.23511534071E+01 0.22782731274E+01
 0.21849652522E+01 0.20789818621E+01 0.19683654713E+01 0.18605481284E+01 0.17616439001E+01
 0.16759961521E+01 0.16060070999E+01 0.15522317544E+01 0.15136736866E+01 0.14882023734E+01
 0.14730227119E+01 0.14651425625E+01 0.14617904934E+01 0.14607455413E+01 0.14605645809E+01
 0.14607166134E+01 0.14616358127E+01 0.14646896594E+01 0.14720487236E+01 0.14864530954E+01
 0.15108855449E+01 0.15481692774E+01 0.16005125644E+01 0.16690361158E+01 0.20402925701E+01
 0.21965774139E+01 0.23596356723E+01 0.25205265054E+01 0.26687579992E+01 0.27932979160E+01
 0.28838923764E+01 0.29325131199E+01 0.29346476669E+01 0.28900914751E+01 0.28029887173E+01
 0.26811029364E+01 0.25345511003E+01 0.23743518271E+01 0.22110898860E+01 0.20538787822E+01
 0.19097046678E+01 0.17831677752E+01 0.16765736845E+01 0.15902721946E+01 0.15231268102E+01
 0.14730227119E+01 0.14373536383E+01 0.14134511099E+01 0.13989412490E+01 0.13920337678E+01
 0.13917446041E+01 0.13980287485E+01 0.14117891008E+01 0.14347547707E+01 0.14692599150E+01
 0.15179575080E+01 0.15834732179E+01 0.16679867245E+01 0.17727458882E+01 0.18975534772E+01
 0.24541777845E+01 0.26804246005E+01 0.29091793618E+01 0.31272844279E+01 0.33198639050E+01
 0.34719398270E+01 0.35704659641E+01 0.36064087371E+01 0.35763573441E+01 0.34831693769E+01
 0.33354295870E+01 0.31459048543E+01 0.29294795874E+01 0.27011045333E+01 0.24741429251E+01
 0.22593017352E+01 0.20641782324E+01 0.18933329096E+01 0.17487175522E+01 0.16302678813E+01
 0.15365156475E+01 0.14651425625E+01 0.14134511099E+01 0.13787644191E+01 0.13587879828E+01
 0.13519461273E+01 0.13576466771E+01 0.13763887934E+01 0.14096688331E+01 0.14597263751E+01
 0.15292158064E+01 0.16208506979E+01 0.17370064667E+01 0.18792494713E+01 0.20477867998E+01
 0.22408642373E+01 0.30206266105E+01 0.33318666638E+01 0.36384471292E+01 0.39211657878E+01
 0.41591938342E+01 0.43327149463E+01 0.44259765875E+01 0.44300589608E+01 0.43445697759E+01
 0.41777165172E+01 0.39447371308E+01 0.36652015421E+01 0.33599571682E+01 0.30484296209E+01
 0.27467380403E+01 0.24667880480E+01 0.22162422271E+01 0.19990894955E+01 0.18164838607E+01
 0.16675912588E+01 0.15503036124E+01 0.14617904934E+01 0.13989412490E+01 0.13587879828E+01
 0.13389598030E+01 0.13381119990E+01 0.13561924622E+01 0.13944408865E+01 0.14551370416E+01
 0.15412053022E+01 0.16557756189E+01 0.18017384359E+01 0.19812789570E+01 0.21953439914E+01
 0.24429769512E+01 0.27204961271E+01 0.37722123507E+01 0.41866957448E+01 0.45842915829E+01
 0.49373721717E+01 0.52175024597E+01 0.53995832534E+01 0.54661154661E+01 0.54104765260E+01
 0.52382177494E+01 0.49659700583E+01 0.46183198194E+01 0.42235896735E+01 0.38096224171E+01
 0.34004728376E+01 0.30145162449E+01 0.26640179236E+01 0.23558107388E+01 0.20925343675E+01
 0.18739395415E+01 0.16979583986E+01 0.15614562246E+01 0.14607455413E+01 0.13920337678E+01
 0.13519461273E+01 0.13381119990E+01 0.13496409164E+01 0.13872967774E+01 0.14533188230E+01
 0.15509907504E+01 0.16841027093E+01 0.18564066861E+01 0.20711054764E+01 0.23303379596E+01
 0.26345172208E+01 0.29813427633E+01 0.33644775293E+01 0.47473861127E+01 0.52848194576E+01
 0.57847845709E+01 0.62086384410E+01 0.65191434338E+01 0.66865207894E+01 0.66938665220E+01
 0.65404238800E+01 0.62417301809E+01 0.58266069388E+01 0.53318951295E+01 0.47963735082E+01
 0.42553314295E+01 0.37368878543E+01 0.32605078366E+01 0.28374735140E+01 0.24725729231E+01
 0.21661489107E+01 0.19158666436E+01 0.17179240645E+01 0.15677658431E+01 0.14605645809E+01
 0.13917446041E+01 0.13576466771E+01 0.13561924622E+01 0.13872967774E+01 0.14528695281E+01
 0.15564350685E+01 0.17025205110E+01 0.18959877099E+01 0.21414402907E+01 0.24427154751E+01
 0.28022640585E+01 0.32200739358E+01 0.36919318294E+01 0.42072763264E+01 0.59858577814E+01
 0.66634154649E+01 0.72703732487E+01 0.77549730405E+01 0.80712300673E+01 0.81870241430E+01
 0.80901968154E+01 0.77909297559E+01 0.73197362444E+01 0.67216721913E+01 0.60483649585E+01
 0.53498932194E+01 0.46683785955E+01 0.40344539028E+01 0.34667840283E+01 0.29739072113E+01
 0.25571835591E+01 0.22136938980E+01 0.19383754652E+01 0.17252501890E+01 0.15680519486E+01
 0.14607166134E+01 0.13980287485E+01 0.13763887934E+01 0.13944408865E+01 0.14533188230E+01
 0.15564350685E+01 0.17088995332E+01 0.19167587266E+01 0.21862858727E+01 0.25234463185E+01
 0.29333539992E+01 0.34192128201E+01 0.39802697205E+01 0.46088459781E+01 0.52872548875E+01
 0.75192688441E+01 0.83454041452E+01 0.90509674387E+01 0.95704471816E+01 0.98512756310E+01
 0.98636032712E+01 0.96061119457E+01 0.91062449713E+01 0.84148458836E+01 0.75967197232E+01
 0.67195939178E+01 0.58441644050E+01 0.50173489656E+01 0.42697071602E+01 0.36166448910E+01
 0.30620235363E+01 0.26024678955E+01 0.22310003967E+01 0.19393586503E+01 0.17191237015E+01
 0.15622574027E+01 0.14616358127E+01 0.14117891008E+01 0.14096688331E+01 0.14551370416E+01
 0.15509907504E+01 0.17025205110E+01 0.19167587266E+01 0.22016901430E+01 0.25656629824E+01
 0.30169106748E+01 0.35626065740E+01 0.42066987746E+01 0.49462663399E+01 0.57670934518E+01
 0.66399526525E+01 0.93578740518E+01 0.10325008478E+02 0.11101685392E+02 0.11610453410E+02
 0.11797059642E+02 0.11640966503E+02 0.11159420507E+02 0.10403962640E+02 0.94504403662E+01
 0.83852771634E+01 0.72915067190E+01 0.62377726456E+01 0.52723030533E+01 0.44222195513E+01
 0.36970124963E+01 0.30941135783E+01 0.26044466660E+01 0.22165273417E+01 0.19187292581E+01
 0.17002271796E+01 0.15514590555E+01 0.14646896594E+01 0.14347547707E+01 0.14597263751E+01
 0.15412053022E+01 0.16841027093E+01 0.18959877099E+01 0.21862858727E+01 0.25656629824E+01
 0.30456201454E+01 0.36377291656E+01 0.43515441520E+01 0.51905572932E+01 0.61465968616E+01
 0.71941823938E+01 0.82869225596E+01 0.11476023654E+02 0.12554046316E+02 0.13351373317E+02
 0.13783578147E+02 0.13802539994E+02 0.13406151574E+02 0.12638699976E+02 0.11581872785E+02
 0.10339083760E+02 0.90174473032E+01 0.77118264831E+01 0.64941730183E+01 0.54094943129E+01
 0.44778750790E+01 0.37005389901E+01 0.30672866172E+01 0.25629468553E+01 0.21715710724E+01
 0.18784226008E+01 0.16706738411E+01 0.15377849560E+01 0.14720487236E+01 0.14692599150E+01
 0.15292158064E+01 0.16557756189E+01 0.18564066861E+01 0.21414402907E+01 0.25234463185E+01
 0.30169106748E+01 0.36377291656E+01 0.44014093189E+01 0.53189689330E+01 0.63905101871E+01
 0.75977940918E+01 0.88980991205E+01 0.10221854546E+02 0.13800457399E+02 0.14933138371E+02
 0.15677824731E+02 0.15951482081E+02 0.15722523440E+02 0.15017476719E+02 0.13915313734E+02
 0.12531314118E+02 0.10995431033E+02 0.94310444480E+01 0.79387974432E+01 0.65879600321E+01
 0.54155104701E+01 0.44313482168E+01 0.36268888790E+01 0.29839594135E+01 0.24816260674E+01
 0.21000815762E+01 0.18221733717E+01 0.16338069625E+01 0.15242157010E+01 0.14864530954E+01
 0.15179575080E+01 0.16208506979E+01 0.18017384359E+01 0.20711054764E+01 0.24427154751E+01
 0.29333539992E+01 0.35626065740E+01 0.43515441520E+01 0.53189689330E+01 0.64746792228E+01
 0.78106808554E+01 0.92925979207E+01 0.10854149901E+02 0.12397383449E+02 0.16205269708E+02
 0.17311237890E+02 0.17912501006E+02 0.17938923269E+02 0.17387375762E+02 0.16322431319E+02
 0.14862285875E+02 0.13154770260E+02 0.11350906010E+02 0.95826622990E+01 0.79487628612E+01
 0.65095331085E+01 0.52897525249E+01 0.42870900370E+01 0.34828090647E+01 0.28514499081E+01
 0.23674061405E+01 0.20081331109E+01 0.17550930743E+01 0.15938542995E+01 0.15142613715E+01
 0.15108855449E+01 0.15834732179E+01 0.17370064667E+01 0.19812789570E+01 0.23303379596E+01
 0.28022640585E+01 0.34192128201E+01 0.42066987746E+01 0.51905572932E+01 0.63905101871E+01
 0.78106808554E+01 0.94290168921E+01 0.11188630688E+02 0.12994266797E+02 0.14716535154E+02
 0.18516487032E+02 0.19495877225E+02 0.19856552198E+02 0.19554817614E+02 0.18627263049E+02
 0.17182338367E+02 0.15376552078E+02 0.13383744556E+02 0.11366535720E+02 0.94558704571E+01
 0.77406576864E+01 0.62669270590E+01 0.50445530156E+01 0.40585135176E+01 0.32809516101E+01
 0.26807994926E+01 0.22294794089E+01 0.19031580034E+01 0.16830819486E+01 0.15554444151E+01
 0.15115341259E+01 0.15481692774E+01 0.16679867245E+01 0.18792494713E+01 0.21953439914E+01
 0.26345172208E+01 0.32200739358E+01 0.39802697205E+01 0.49462663399E+01 0.61465968616E+01
 0.75977940918E+01 0.92925979207E+01 0.11188630688E+02 0.13201052442E+02 0.15202443098E+02
 0.17032243121E+02 0.20528336959E+02 0.21275637885E+02 0.21308559194E+02 0.20622949147E+02
 0.19302415643E+02 0.17498714292E+02 0.15399145161E+02 0.13192238911E+02 0.11040565989E+02
 0.90644088202E+01 0.73362325119E+01 0.58842966749E+01 0.47028882060E+01 0.37656156958E+01
 0.30378006276E+01 0.24851533895E+01 0.20781159945E+01 0.17930629364E+01 0.16121345364E+01
 0.15230337061E+01 0.15192604573E+01 0.16005125644E+01 0.17727458882E+01 0.20477867998E+01
 0.24429769512E+01 0.29813427633E+01 0.36919318294E+01 0.46088459781E+01 0.57670934518E+01
 0.71941823938E+01 0.88980991205E+01 0.10854149901E+02 0.12994266797E+02 0.15202443098E+02
 0.17319271580E+02 0.19157465941E+02 0.22031849773E+02 0.22454031803E+02 0.22100863830E+02
 0.21016635297E+02 0.19332061333E+02 0.17233988290E+02 0.14927461441E+02 0.12602026447E+02
 0.10408816494E+02 0.84495401300E+01 0.67759236231E+01 0.53974458051E+01 0.42943284885E+01
 0.34317230595E+01 0.27712667891E+01 0.22780657738E+01 0.19234671033E+01 0.16853365726E+01
 0.15476332082E+01 0.15003324902E+01 0.15397920560E+01 0.16690361158E+01 0.18975534772E+01
 0.22408642373E+01 0.27204961271E+01 0.33644775293E+01 0.42072763264E+01 0.52872548875E+01
 0.66399526525E+01 0.82869225596E+01 0.10221854546E+02 0.12397383449E+02 0.14716535154E+02
 0.17032243121E+02 0.19157465941E+02 0.20887290794E+02 0.22939568157E+02 0.22574397465E+02
 0.21453208407E+02 0.19710920567E+02 0.17541076567E+02 0.15157183457E+02 0.12757509635E+02
 0.10500155748E+02 0.84904897009E+01 0.67803922978E+01 0.53771209605E+01 0.42578742909E+01
 0.33851104996E+01 0.27185203964E+01 0.22219360122E+01 0.18658358998E+01 0.16273659669E+01
 0.14898132244E+01 0.14426302101E+01 0.14819749925E+01 0.16110571162E+01 0.18398474288E+01
 0.21845192522E+01 0.26673539535E+01 0.33172496361E+01 0.41698297091E+01 0.52652455294E+01
 0.66417076390E+01 0.83239362806E+01 0.10308017310E+02 0.12546572888E+02 0.14939189127E+02
 0.17332176786E+02 0.19530029422E+02 0.21319287815E+02 0.22503018492E+02 0.22574397465E+02
 0.21830487538E+02 0.20398536575E+02 0.18444519653E+02 0.16173456790E+02 0.13792030888E+02
 0.11478359362E+02 0.93632388920E+01 0.75236558177E+01 0.59872552612E+01 0.47445855594E+01
 0.37644153585E+01 0.30074508746E+01 0.24356145150E+01 0.20164995878E+01 0.17243810130E+01
 0.15397771162E+01 0.14491545907E+01 0.14453086688E+01 0.15279237064E+01 0.17036054762E+01
 0.19853475950E+01 0.23920999476E+01 0.29489857466E+01 0.36877746018E+01 0.46461323476E+01
 0.58636035865E+01 0.73727468682E+01 0.91856201579E+01 0.11278392321E+02 0.13578740106E+02
 0.15960663236E+02 0.18249860938E+02 0.20241184181E+02 0.21727865844E+02 0.22538724764E+02
 0.21453208407E+02 0.20398536575E+02 0.18758188639E+02 0.16712890578E+02 0.14462978174E+02
 0.12195346275E+02 0.10059436680E+02 0.81549223989E+01 0.65310050096E+01 0.51950541001E+01
 0.41264439927E+01 0.32907869458E+01 0.26509275185E+01 0.21733090607E+01 0.18303441527E+01
 0.16004994754E+01 0.14678849850E+01 0.14223931947E+01 0.14603249106E+01 0.15847695935E+01
 0.18052955829E+01 0.21373132315E+01 0.26018362834E+01 0.32258301361E+01 0.40422820947E+01
 0.50882341832E+01 0.63988599761E+01 0.79967078719E+01 0.98774599193E+01 0.11995930997E+02
 0.14257040405E+02 0.16515667530E+02 0.18587661275E+02 0.20272585349E+02 0.21386227926E+02
 0.21796628437E+02 0.19710920567E+02 0.18444519653E+02 0.16712890578E+02 0.14695546544E+02
 0.12574973831E+02 0.10509409236E+02 0.86154415415E+01 0.69619830248E+01 0.55744782289E+01
 0.44459826486E+01 0.35505886173E+01 0.28551884465E+01 0.23273573491E+01 0.19391461855E+01
 0.16679860057E+01 0.14964421816E+01 0.14121938176E+01 0.14086156079E+01 0.14854175436E+01
 0.16486767383E+01 0.19102429892E+01 0.22871276914E+01 0.28014138186E+01 0.34804747037E+01
 0.43563336762E+01 0.54623632915E+01 0.68257762960E+01 0.84558944404E+01 0.10330549627E+02
 0.12384793465E+02 0.14506239372E+02 0.16540090943E+02 0.18305187241E+02 0.19620279549E+02
 0.20336483556E+02 0.20367940305E+02 0.17541076567E+02 0.16173456790E+02 0.14462978174E+02
 0.12574973831E+02 0.10665106999E+02 0.88585947341E+01 0.72393942427E+01 0.58497024646E+01
 0.46974407062E+01 0.37677351203E+01 0.30343614279E+01 0.24684385896E+01 0.20434318535E+01
 0.17370152249E+01 0.15312190673E+01 0.14123667151E+01 0.13715757665E+01 0.14055767113E+01
 0.15171162164E+01 0.17145948774E+01 0.20112995489E+01 0.24248625058E+01 0.29771892283E+01
 0.36943295604E+01 0.46049949992E+01 0.57360795800E+01 0.71041936241E+01 0.87040494675E+01
 0.10496711919E+02 0.12401868689E+02 0.14297784102E+02 0.16031038068E+02 0.17436150435E+02
 0.18362599439E+02 0.18703552712E+02 0.18418295220E+02 0.15157183457E+02 0.13792030888E+02
 0.12195346275E+02 0.10509409236E+02 0.88585947341E+01 0.73351879388E+01 0.59945387330E+01
 0.48585468493E+01 0.39243692184E+01 0.31746116700E+01 0.25860426176E+01 0.21353312930E+01
 0.18017604960E+01 0.15679113282E+01 0.14197170007E+01 0.13468867970E+01 0.13437894755E+01
 0.14101841575E+01 0.15512347277E+01 0.17768398442E+01 0.21007962121E+01 0.25402812257E+01
 0.31156579209E+01 0.38499081934E+01 0.47663807311E+01 0.58834989444E+01 0.72060975945E+01
 0.87149470607E+01 0.10357735079E+02 0.12045254549E+02 0.13655617827E+02 0.15047496275E+02
 0.16081064376E+02 0.16642713079E+02 0.16667421084E+02 0.16152308231E+02 0.12757509635E+02
 0.11478359362E+02 0.10059436680E+02 0.86154415415E+01 0.72393942427E+01 0.59945387330E+01
 0.49140493139E+01 0.40065187964E+01 0.32641289306E+01 0.26706414089E+01 0.22073581210E+01
 0.18564369869E+01 0.16020786975E+01 0.14307766574E+01 0.13317238586E+01 0.12977086844E+01
 0.13260599119E+01 0.14190319240E+01 0.15834314910E+01 0.18297719539E+01 0.21714194370E+01
 0.26240371493E+01 0.32051996145E+01 0.39334133289E+01 0.48252979342E+01 0.58899617349E+01
 0.71208966429E+01 0.84874333190E+01 0.99289117675E+01 0.11354617844E+02 0.12651293231E+02
 0.13698034383E+02 0.14386072220E+02 0.14638907963E+02 0.14427483823E+02 0.13776113783E+02
 0.10500155748E+02 0.93632388920E+01 0.81549223989E+01 0.69619830248E+01 0.58497024646E+01
 0.48585468493E+01 0.40065187964E+01 0.32949056812E+01 0.27149212886E+01 0.22533241946E+01
 0.18960236325E+01 0.16296964095E+01 0.14422593939E+01 0.13232591686E+01 0.12647213638E+01
 0.12622231928E+01 0.13155941192E+01 0.14288924935E+01 0.16097543501E+01 0.18684625165E+01
 0.22170914693E+01 0.26689117984E+01 0.32378299775E+01 0.39370672281E+01 0.47760204354E+01
 0.57548232641E+01 0.68574589632E+01 0.80456135175E+01 0.92559997353E+01 0.10403339889E+02
 0.11389749884E+02 0.12119317702E+02 0.12514788706E+02 0.12532196811E+02 0.12169553993E+02
 0.11467264088E+02 0.84904897009E+01 0.75236558177E+01 0.65310050096E+01 0.55744782289E+01
 0.46974407062E+01 0.39243692184E+01 0.32641289306E+01 0.27149212886E+01 0.22691198020E+01
 0.19167996747E+01 0.16476116212E+01 0.14514841157E+01 0.13190407661E+01 0.12423525425E+01
 0.12159976904E+01 0.12379611456E+01 0.13099581854E+01 0.14370993645E+01 0.16270877686E+01
 0.18892554710E+01 0.22337375163E+01 0.26708814456E+01 0.32105481735E+01 0.38605299329E+01
 0.46233626606E+01 0.54915561727E+01 0.64423796762E+01 0.74341956321E+01 0.84064402484E+01
 0.92845624984E+01 0.99897594930E+01 0.10451686848E+02 0.10621136551E+02 0.10479449403E+02
 0.10042207774E+02 0.93562134739E+01 0.67803922978E+01 0.59872552612E+01 0.51950541001E+01
 0.44459826486E+01 0.37677351203E+01 0.31746116700E+01 0.26706414089E+01 0.22533241946E+01
 0.19167996747E+01 0.16538089454E+01 0.14565731106E+01 0.13172521994E+01 0.12286007559E+01
 0.11849333327E+01 0.11830705410E+01 0.12228879733E+01 0.13073086273E+01 0.14417856813E+01
 0.16334469082E+01 0.18901687565E+01 0.22198345218E+01 0.26297625334E+01 0.31258713306E+01
 0.37109542125E+01 0.43817453941E+01 0.51251769813E+01 0.59149824402E+01 0.67102224380E+01
 0.74571333754E+01 0.80948476193E+01 0.85642381668E+01 0.88179453621E+01 0.88290925709E+01
 0.85964603136E+01 0.81447643315E+01 0.75199045530E+01 0.53771209605E+01 0.47445855594E+01
 0.41264439927E+01 0.35505886173E+01 0.30343614279E+01 0.25860426176E+01 0.22073581210E+01
 0.18960236325E+01 0.16476116212E+01 0.14565731106E+01 0.13167774482E+01 0.12220776010E+01
 0.11671162331E+01 0.11482037707E+01 0.11639654841E+01 0.12155701840E+01 0.13065085305E+01
 0.14419894613E+01 0.16281206453E+01 0.18711107273E+01 0.21766380623E+01 0.25492470963E+01
 0.29913780628E+01 0.35016726026E+01 0.40725725581E+01 0.46877567447E+01 0.53203941476E+01
 0.59333186239E+01 0.64818945456E+01 0.69195526986E+01 0.72050114770E+01 0.73094954970E+01
 0.72221157645E+01 0.69519886446E+01 0.65264903252E+01 0.59860822182E+01 0.42578742909E+01
 0.37644153585E+01 0.32907869458E+01 0.28551884465E+01 0.24684385896E+01 0.21353312930E+01
 0.18564369869E+01 0.16296964095E+01 0.14514841157E+01 0.13172521994E+01 0.12220776010E+01
 0.11613164011E+01 0.11313203169E+01 0.11300436715E+01 0.11573957717E+01 0.12152601364E+01
 0.13071638132E+01 0.14376755046E+01 0.16117095347E+01 0.18338967686E+01 0.21080179642E+01
 0.24363108645E+01 0.28184240783E+01 0.32499412255E+01 0.37206717122E+01 0.42132083740E+01
 0.47024676374E+01 0.51568898721E+01 0.55415864391E+01 0.58230845025E+01 0.59747169285E+01
 0.59813739018E+01 0.58423713210E+01 0.55716067948E+01 0.51949130785E+01 0.47453654013E+01
 0.33851104996E+01 0.30074508746E+01 0.26509275185E+01 0.23273573491E+01 0.20434318535E+01
 0.18017604960E+01 0.16020786975E+01 0.14422593939E+01 0.13190407661E+01 0.12286007559E+01
 0.11671162331E+01 0.11313203169E+01 0.11189875708E+01 0.11292779151E+01 0.11628836975E+01
 0.12219284501E+01 0.13096166187E+01 0.14297285274E+01 0.15860896235E+01 0.17820550388E+01
 0.20199242401E+01 0.23001662558E+01 0.26204187634E+01 0.29743588402E+01 0.33506866642E+01
 0.37326023273E+01 0.40982196222E+01 0.44222352710E+01 0.46788353677E+01 0.48453998277E+01
 0.49062301989E+01 0.48553843251E+01 0.46978194890E+01 0.44484660899E+01 0.41294887150E+01
 0.37665540847E+01 0.27185203964E+01 0.24356145150E+01 0.21733090607E+01 0.19391461855E+01
 0.17370152249E+01 0.15679113282E+01 0.14307766574E+01 0.13232591686E+01 0.12423525425E+01
 0.11849333327E+01 0.11482037707E+01 0.11300436715E+01 0.11292779151E+01 0.11458444398E+01
 0.11808177335E+01 0.12362595885E+01 0.13149307573E+01 0.14199293695E+01 0.15542796127E+01
 0.17204289402E+01 0.19196027149E+01 0.21510216357E+01 0.24110638586E+01 0.26925241316E+01
 0.29841869849E+01 0.32709648221E+01 0.35348031238E+01 0.37564073072E+01 0.39176366001E+01
 0.40041860889E+01 0.40079843650E+01 0.39286645341E+01 0.37736422111E+01 0.35567598154E+01
 0.32959271649E+01 0.30104318201E+01 0.22219360122E+01 0.20164995878E+01 0.18303441527E+01
 0.16679860057E+01 0.15312190673E+01 0.14197170007E+01 0.13317238586E+01 0.12647213638E+01
 0.12159976904E+01 0.11830705410E+01 0.11639654841E+01 0.11573957717E+01 0.11628836975E+01
 0.11808177335E+01 0.12124194226E+01 0.12596206125E+01 0.13248711761E+01 0.14108688079E+01
 0.15201650261E+01 0.16546163669E+01 0.18147128525E+01 0.19988748975E+01 0.22028431281E+01
 0.24193093350E+01 0.26379454295E+01 0.28459465238E+01 0.30291117789E+01 0.31733840007E+01
 0.32666730710E+01 0.33006713591E+01 0.32722499895E+01 0.31840229576E+01 0.30438818618E+01
 0.28636544070E+01 0.26572980176E+01 0.24390644443E+01 0.18658358998E+01 0.17243810130E+01
 0.16004994754E+01 0.14964421816E+01 0.14123667151E+01 0.13468867970E+01 0.12977086844E+01
 0.12622231928E+01 0.12379611456E+01 0.12228879733E+01 0.12155701840E+01 0.12152601364E+01
 0.12219284501E+01 0.12362595885E+01 0.12596206125E+01 0.12939931244E+01 0.13418235937E+01
 0.14057340459E+01 0.14880689597E+01 0.15903138308E+01 0.17124692218E+01 0.18524927430E+01
 0.20059382735E+01 0.21659143608E+01 0.23234319753E+01 0.24681327846E+01 0.25893283171E+01
 0.26772469559E+01 0.27243371790E+01 0.27263948135E+01 0.26832375847E+01 0.25987305102E+01
 0.24801601405E+01 0.23371445622E+01 0.21803422296E+01 0.20201900281E+01 0.16273659669E+01
 0.15397771162E+01 0.14678849850E+01 0.14121938176E+01 0.13715757665E+01 0.13437894755E+01
 0.13260599119E+01 0.13155941192E+01 0.13099581854E+01 0.13073086273E+01 0.13065085305E+01
 0.13071638132E+01 0.13096166187E+01 0.13149307573E+01 0.13248711761E+01 0.13418235937E+01
 0.13685775671E+01 0.14079397190E+01 0.14622162910E+01 0.15326486944E+01 0.16188973617E+01
 0.17186779098E+01 0.18276559212E+01 0.19396662357E+01 0.20472410485E+01 0.21423653676E+01
 0.22173649034E+01 0.22658336129E+01 0.22834776147E+01 0.22687137042E+01 0.22228848345E+01
 0.21500546548E+01 0.20564485382E+01 0.19496559907E+01 0.18377121141E+01 0.17281801261E+01
 0.14898132244E+01 0.14491545907E+01 0.14223931947E+01 0.14086156079E+01 0.14055767113E+01
 0.14101841575E+01 0.14190319240E+01 0.14288924935E+01 0.14370993645E+01 0.14417856813E+01
 0.14419894613E+01 0.14376755046E+01 0.14297285274E+01 0.14199293695E+01 0.14108688079E+01
 0.14057340459E+01 0.14079397190E+01 0.14206360567E+01 0.14461699866E+01 0.14855909865E+01
 0.15382957193E+01 0.16018953035E+01 0.16723531829E+01 0.17443820300E+01 0.18120327955E+01
 0.18693826337E+01 0.19112273430E+01 0.19336905379E+01 0.19346725060E+01 0.19140855795E+01
 0.18738573879E+01 0.18177112839E+01 0.17507463827E+01 0.16788515779E+01 0.16080136619E+01
 0.15436124599E+01 0.14426302101E+01 0.14453086688E+01 0.14603249106E+01 0.14854175436E+01
 0.15171162164E+01 0.15512347277E+01 0.15834314910E+01 0.16097543501E+01 0.16270877686E+01
 0.16334469082E+01 0.16281206453E+01 0.16117095347E+01 0.15860896235E+01 0.15542796127E+01
 0.15201650261E+01 0.14880689597E+01 0.14622162910E+01 0.14461699866E+01 0.14423238577E+01
 0.14515370453E+01 0.14729863499E+01 0.15042726854E+01 0.15417571293E+01 0.15810569339E+01
 0.16176176453E+01 0.16472760021E+01 0.16667306318E+01 0.16738631785E+01 0.16679063027E+01
 0.16494959149E+01 0.16206315913E+01 0.15845222073E+01 0.15452771561E+01 0.15074430572E+01
 0.14754422805E+01 0.14529978104E+01 0.14819749925E+01 0.15279237064E+01 0.15847695935E+01
 0.16486767383E+01 0.17145948774E+01 0.17768398442E+01 0.18297719539E+01 0.18684625165E+01
 0.18892554710E+01 0.18901687565E+01 0.18711107273E+01 0.18338967686E+01 0.17820550388E+01
 0.17204289402E+01 0.16546163669E+01 0.15903138308E+01 0.15326486944E+01 0.14855909865E+01
 0.14515370453E+01 0.14311357371E+01 0.14233783746E+01 0.14259160353E+01 0.14355297574E+01
 0.14486649264E+01 0.14619393118E+01 0.14725448853E+01 0.14785004660E+01 0.14787701663E+01
 0.14733036340E+01 0.14630435574E+01 0.14498951631E+01 0.14366099184E+01 0.14265365682E+01
 0.14232302508E+01 0.14299558892E+01 0.14491563602E+01 0.16110571162E+01 0.17036054762E+01
 0.18052955829E+01 0.19102429892E+01 0.20112995489E+01 0.21007962121E+01 0.21714194370E+01
 0.22170914693E+01 0.22337375163E+01 0.22198345218E+01 0.21766380623E+01 0.21080179642E+01
 0.20199242401E+01 0.19196027149E+01 0.18147128525E+01 0.17124692218E+01 0.16188973617E+01
 0.15382957193E+01 0.14729863499E+01 0.14233783746E+01 0.13882893085E+01 0.13654271995E+01
 0.13519368921E+01 0.13449202536E+01 0.13418454700E+01 0.13407960783E+01 0.13405793793E+01
 0.13407631074E+01 0.13416948992E+01 0.13445064788E+01 0.13510701389E+01 0.13638732085E+01
 0.13857807119E+01 0.14196617718E+01 0.14678874778E+01 0.15317695841E+01 0.18398474288E+01
 0.19853475950E+01 0.21373132315E+01 0.22871276914E+01 0.24248625058E+01 0.25402812257E+01
 0.26240371493E+01 0.26689117984E+01 0.26708814456E+01 0.26297625334E+01 0.25492470963E+01
 0.24363108645E+01 0.23001662558E+01 0.21510216357E+01 0.19988748975E+01 0.18524927430E+01
 0.17186779098E+01 0.16018953035E+01 0.15042726854E+01 0.14259160353E+01 0.13654271995E+01
 0.13205019798E+01 0.12885016157E+01 0.12669146465E+01 0.12536672225E+01 0.12472951913E+01
 0.12470281566E+01 0.12528292365E+01 0.12654026441E+01 0.12861599967E+01 0.13171306757E+01
 0.13607916210E+01 0.14197778095E+01 0.14964449604E+01 0.15923049135E+01 0.17074157849E+01
 0.21845192522E+01 0.23920999476E+01 0.26018362834E+01 0.28014138186E+01 0.29771892283E+01
 0.31156579209E+01 0.32051996145E+01 0.32378299775E+01 0.32105481735E+01 0.31258713306E+01
 0.29913780628E+01 0.28184240783E+01 0.26204187634E+01 0.24110638586E+01 0.22028431281E+01
 0.20059382735E+01 0.18276559212E+01 0.16723531829E+01 0.15417571293E+01 0.14355297574E+01
 0.13519368921E+01 0.12885016157E+01 0.12425509842E+01 0.12116176140E+01 0.11937201635E+01
 0.11875665794E+01 0.11926892786E+01 0.12094897094E+01 0.12391868065E+01 0.12836950735E+01
 0.13454449995E+01 0.14271135181E+01 0.15312202823E+01 0.16595859738E+01 0.18126960027E+01
 0.19890387364E+01 0.26673539535E+01 0.29489857466E+01 0.32258301361E+01 0.34804747037E+01
 0.36943295604E+01 0.38499081934E+01 0.39334133289E+01 0.39370672281E+01 0.38605299329E+01
 0.37109542125E+01 0.35016726026E+01 0.32499412255E+01 0.29743588402E+01 0.26925241316E+01
 0.24193093350E+01 0.21659143608E+01 0.19396662357E+01 0.17443820300E+01 0.15810569339E+01
 0.14486649264E+01 0.13449202536E+01 0.12669146465E+01 0.12116176140E+01 0.11762851009E+01
 0.11588205425E+01 0.11580715129E+01 0.11739961148E+01 0.12076563370E+01 0.12610593467E+01
 0.13368954092E+01 0.14381964610E+01 0.15679120594E+01 0.17283966484E+01 0.19207994313E+01
 0.21443427874E+01 0.23955193720E+01 0.33172496361E+01 0.36877746018E+01 0.40422820947E+01
 0.43563336762E+01 0.46049949992E+01 0.47663807311E+01 0.48252979342E+01 0.47760204354E+01
 0.46233626606E+01 0.43817453941E+01 0.40725725581E+01 0.37206717122E+01 0.33506866642E+01
 0.29841869849E+01 0.26379454295E+01 0.23234319753E+01 0.20472410485E+01 0.18120327955E+01
 0.16176176453E+01 0.14619393118E+01 0.13418454700E+01 0.12536672225E+01 0.11937201635E+01
 0.11588205425E+01 0.11467892982E+01 0.11568183097E+01 0.11895949239E+01 0.12471756811E+01
 0.13326602421E+01 0.14497241105E+01 0.16020779131E+01 0.17929228973E+01 0.20243986515E+01
 0.22968985203E+01 0.26081200082E+01 0.29519124387E+01 0.41698297091E+01 0.46461323476E+01
 0.50882341832E+01 0.54623632915E+01 0.57360795800E+01 0.58834989444E+01 0.58899617349E+01
 0.57548232641E+01 0.54915561727E+01 0.51251769813E+01 0.46877567447E+01 0.42132083740E+01
 0.37326023273E+01 0.32709648221E+01 0.28459465238E+01 0.24681327846E+01 0.21423653676E+01
 0.18693826337E+01 0.16472760021E+01 0.14725448853E+01 0.13407960783E+01 0.12472951913E+01
 0.11875665794E+01 0.11580715129E+01 0.11568183097E+01 0.11837193971E+01 0.12406018164E+01
 0.13308839490E+01 0.14589978817E+01 0.16296949516E+01 0.18473989236E+01 0.21156655742E+01
 0.24365763799E+01 0.28097565372E+01 0.32308792980E+01 0.36899281707E+01 0.52652455294E+01
 0.58636035865E+01 0.63988599761E+01 0.68257762960E+01 0.71041936241E+01 0.72060975945E+01
 0.71208966429E+01 0.68574589632E+01 0.64423796762E+01 0.59149824402E+01 0.53203941476E+01
 0.47024676374E+01 0.40982196222E+01 0.35348031238E+01 0.30291117789E+01 0.25893283171E+01
 0.22173649034E+01 0.19112273430E+01 0.16667306318E+01 0.14785004660E+01 0.13405793793E+01
 0.12470281566E+01 0.11926892786E+01 0.11739961148E+01 0.11895949239E+01 0.12406018164E+01
 0.13304162934E+01 0.14641165329E+01 0.16476102294E+01 0.18868324701E+01 0.21871744911E+01
 0.25529701544E+01 0.29865632710E+01 0.34865746278E+01 0.40454779185E+01 0.46471366771E+01
 0.66417076390E+01 0.73727468682E+01 0.79967078719E+01 0.84558944404E+01 0.87040494675E+01
 0.87149470607E+01 0.84874333190E+01 0.80456135175E+01 0.74341956321E+01 0.67102224380E+01
 0.59333186239E+01 0.51568898721E+01 0.44222352710E+01 0.37564073072E+01 0.31733840007E+01
 0.26772469559E+01 0.22658336129E+01 0.19336905379E+01 0.16738631785E+01 0.14787701663E+01
 0.13407631074E+01 0.12528292365E+01 0.12094897094E+01 0.12076563370E+01 0.12471756811E+01
 0.13308839490E+01 0.14641165329E+01 0.16538063389E+01 0.19075234726E+01 0.22327986266E+01
 0.26366734201E+01 0.31249118562E+01 0.37002017992E+01 0.43591596587E+01 0.50886990263E+01
 0.58628961985E+01 0.83239362806E+01 0.91856201579E+01 0.98774599193E+01 0.10330549627E+02
 0.10496711919E+02 0.10357735079E+02 0.99289117675E+01 0.92559997353E+01 0.84064402484E+01
 0.74571333754E+01 0.64818945456E+01 0.55415864391E+01 0.46788353677E+01 0.39176366001E+01
 0.32666730710E+01 0.27243371790E+01 0.22834776147E+01 0.19346725060E+01 0.16679063027E+01
 0.14733036340E+01 0.13416948992E+01 0.12654026441E+01 0.12391868065E+01 0.12610593467E+01
 0.13326602421E+01 0.14589978817E+01 0.16476102294E+01 0.19075234726E+01 0.22484732177E+01
 0.26804738650E+01 0.32131909308E+01 0.38542465398E+01 0.46059154500E+01 0.54604731301E+01
 0.63953116669E+01 0.73695392662E+01 0.10308017310E+02 0.11278392321E+02 0.11995930997E+02
 0.12384793465E+02 0.12401868689E+02 0.12045254549E+02 0.11354617844E+02 0.10403339889E+02
 0.92845624984E+01 0.80948476193E+01 0.69195526986E+01 0.58230845025E+01 0.48453998277E+01
 0.40041860889E+01 0.33006713591E+01 0.27263948135E+01 0.22687137042E+01 0.19140855795E+01
 0.16494959149E+01 0.14630435574E+01 0.13445064788E+01 0.12861599967E+01 0.12836950735E+01
 0.13368954092E+01 0.14497241105E+01 0.16296949516E+01 0.18868324701E+01 0.22327986266E+01
 0.26804738650E+01 0.32435362292E+01 0.39350193701E+01 0.47639664518E+01 0.57300682049E+01
 0.68171773529E+01 0.79875189612E+01 0.91790179736E+01 0.12546572888E+02 0.13578740106E+02
 0.14257040405E+02 0.14506239372E+02 0.14297784102E+02 0.13655617827E+02 0.12651293231E+02
 0.11389749884E+02 0.99897594930E+01 0.85642381668E+01 0.72050114770E+01 0.59747169285E+01
 0.49062301989E+01 0.40079843650E+01 0.32722499895E+01 0.26832375847E+01 0.22228848345E+01
 0.18738573879E+01 0.16206315913E+01 0.14498951631E+01 0.13510701389E+01 0.13171306757E+01
 0.13454449995E+01 0.14381964610E+01 0.16020779131E+01 0.18473989236E+01 0.21871744911E+01
 0.26366734201E+01 0.32131909308E+01 0.39350193701E+01 0.48184078375E+01 0.58719152940E+01
 0.70886676736E+01 0.84382513509E+01 0.98609841503E+01 0.11267614065E+02 0.14939189127E+02
 0.15960663236E+02 0.16515667530E+02 0.16540090943E+02 0.16031038068E+02 0.15047496275E+02
 0.13698034383E+02 0.12119317702E+02 0.10451686848E+02 0.88179453621E+01 0.73094954970E+01
 0.59813739018E+01 0.48553843251E+01 0.39286645341E+01 0.31840229576E+01 0.25987305102E+01
 0.21500546548E+01 0.18177112839E+01 0.15845222073E+01 0.14366099184E+01 0.13638732085E+01
 0.13607916210E+01 0.14271135181E+01 0.15679120594E+01 0.17929228973E+01 0.21156655742E+01
 0.25529701544E+01 0.31249118562E+01 0.38542465398E+01 0.47639664518E+01 0.58719152940E+01
 0.71824064876E+01 0.86762068973E+01 0.10301698229E+02 0.11970861026E+02 0.13563249188E+02
 0.17332176786E+02 0.18249860938E+02 0.18587661275E+02 0.18305187241E+02 0.17436150435E+02
 0.16081064376E+02 0.14386072220E+02 0.12514788706E+02 0.10621136551E+02 0.88290925709E+01
 0.72221157645E+01 0.58423713210E+01 0.46978194890E+01 0.37736422111E+01 0.30438818618E+01
 0.24801601405E+01 0.20564485382E+01 0.17507463827E+01 0.15452771561E+01 0.14265365682E+01
 0.13857807119E+01 0.14197778095E+01 0.15312202823E+01 0.17283966484E+01 0.20243986515E+01
 0.24365763799E+01 0.29865632710E+01 0.37002017992E+01 0.46059154500E+01 0.57300682049E+01
 0.70886676736E+01 0.86762068973E+01 0.10454181383E+02 0.12343179122E+02 0.14222548491E+02
 0.15940158673E+02 0.19530029422E+02 0.20241184181E+02 0.20272585349E+02 0.19620279549E+02
 0.18362599439E+02 0.16642713079E+02 0.14638907963E+02 0.12532196811E+02 0.10479449403E+02
 0.85964603136E+01 0.69519886446E+01 0.55716067948E+01 0.44484660899E+01 0.35567598154E+01
 0.28636544070E+01 0.23371445622E+01 0.19496559907E+01 0.16788515779E+01 0.15074430572E+01
 0.14232302508E+01 0.14196617718E+01 0.14964449604E+01 0.16595859738E+01 0.19207994313E+01
 0.22968985203E+01 0.28097565372E+01 0.34865746278E+01 0.43591596587E+01 0.54604731301E+01
 0.68171773529E+01 0.84382513509E+01 0.10301698229E+02 0.12343179122E+02 0.14451065071E+02
 0.16471421515E+02 0.18224297602E+02 0.21319287815E+02 0.21727865844E+02 0.21386227926E+02
 0.20336483556E+02 0.18703552712E+02 0.16667421084E+02 0.14427483823E+02 0.12169553993E+02
 0.10042207774E+02 0.81447643315E+01 0.65264903252E+01 0.51949130785E+01 0.41294887150E+01
 0.32959271649E+01 0.26572980176E+01 0.21803422296E+01 0.18377121141E+01 0.16080136619E+01
 0.14754422805E+01 0.14299558892E+01 0.14678874778E+01 0.15923049135E+01 0.18126960027E+01
 0.21443427874E+01 0.26081200082E+01 0.32308792980E+01 0.40454779185E+01 0.50886990263E+01
 0.63953116669E+01 0.79875189612E+01 0.98609841503E+01 0.11970861026E+02 0.14222548491E+02
 0.16471421515E+02 0.18534016329E+02 0.20210965188E+02 0.22503018492E+02 0.22538724764E+02
 0.21796628437E+02 0.20367940305E+02 0.18418295220E+02 0.16152308231E+02 0.13776113783E+02
 0.11467264088E+02 0.93562134739E+01 0.75199045530E+01 0.59860822182E+01 0.47453654013E+01
 0.37665540847E+01 0.30104318201E+01 0.24390644443E+01 0.20201900281E+01 0.17281801261E+01
 0.15436124599E+01 0.14529978104E+01 0.14491563602E+01 0.15317695841E+01 0.17074157849E+01
 0.19890387364E+01 0.23955193720E+01 0.29519124387E+01 0.36899281707E+01 0.46471366771E+01
 0.58628961985E+01 0.73695392662E+01 0.91790179736E+01 0.11267614065E+02 0.13563249188E+02
 0.15940158673E+02 0.18224297602E+02 0.20210965188E+02 0.21694060418E+02 0.22879481421E+02
 0.22125850320E+02 0.20675995274E+02 0.18699079168E+02 0.16402861134E+02 0.13995477856E+02
 0.11655501948E+02 0.95141107554E+01 0.76492559609E+01 0.60900046276E+01 0.48281085690E+01
 0.38327637752E+01 0.30643132083E+01 0.24839311354E+01 0.20585009608E+01 0.17618225884E+01
 0.15741806204E+01 0.14819850892E+01 0.14780610652E+01 0.15621108131E+01 0.17407106224E+01
 0.20268649296E+01 0.24397338191E+01 0.30049455557E+01 0.37549998271E+01 0.47282688531E+01
 0.59646186659E+01 0.74962356739E+01 0.93341034123E+01 0.11453036309E+02 0.13779683476E+02
 0.16187573157E+02 0.18501980228E+02 0.20516467314E+02 0.22021682657E+02 0.22843244949E+02
 0.22125850320E+02 0.21038036236E+02 0.19347582770E+02 0.17241759341E+02 0.14926670916E+02
 0.12593356901E+02 0.10394166670E+02 0.84311997196E+01 0.67558358454E+01 0.53769459510E+01
 0.42742174957E+01 0.34123897335E+01 0.27527977452E+01 0.22603997202E+01 0.19065282005E+01
 0.16690345417E+01 0.15317805646E+01 0.14846339785E+01 0.15239334507E+01 0.16527589581E+01
 0.18806653535E+01 0.22232477919E+01 0.27021287873E+01 0.33453896763E+01 0.41874900015E+01
 0.52669067897E+01 0.66196648931E+01 0.82681210719E+01 0.10206649139E+02 0.12387998553E+02
 0.14714660206E+02 0.17038615319E+02 0.19171703627E+02 0.20907917592E+02 0.22056561038E+02
 0.22480175152E+02 0.20675995274E+02 0.19347582770E+02 0.17532939808E+02 0.15420663127E+02
 0.13201068265E+02 0.11038429423E+02 0.90539826601E+01 0.73202331084E+01 0.58649482972E+01
 0.46818269268E+01 0.37439473082E+01 0.30161620519E+01 0.24638389309E+01 0.20572629122E+01
 0.17727460583E+01 0.15923145601E+01 0.15035050638E+01 0.14997227998E+01 0.15806939857E+01
 0.17524610039E+01 0.20269546924E+01 0.24216682391E+01 0.29598028083E+01 0.36705179932E+01
 0.45880159426E+01 0.57476456839E+01 0.71776475103E+01 0.88868665812E+01 0.10851062968E+02
 0.13001886558E+02 0.15222386672E+02 0.17351802507E+02 0.19201293327E+02 0.20580657447E+02
 0.21332535949E+02 0.21365661828E+02 0.18699079168E+02 0.17241759341E+02 0.15420663127E+02
 0.13411627197E+02 0.11379303277E+02 0.94560753372E+01 0.77313742682E+01 0.62510339854E+01
 0.50244299207E+01 0.40359764037E+01 0.32572412650E+01 0.26566505979E+01 0.22053113232E+01
 0.18792501169E+01 0.16595864294E+01 0.15323105500E+01 0.14885301779E+01 0.15250233400E+01
 0.16445055225E+01 0.18553574728E+01 0.21711285390E+01 0.26103055466E+01 0.31964396762E+01
 0.39579608088E+01 0.49262538416E+01 0.61303722660E+01 0.75876780849E+01 0.92916494286E+01
 0.11200042947E+02 0.13227336361E+02 0.15244751684E+02 0.17089955752E+02 0.18587059466E+02
 0.19575039947E+02 0.19938898603E+02 0.19634592867E+02 0.16402861134E+02 0.14926670916E+02
 0.13201068265E+02 0.11379303277E+02 0.95951358705E+01 0.79482705852E+01 0.64992356505E+01
 0.52725382793E+01 0.42653611473E+01 0.34583781940E+01 0.28255329734E+01 0.23407642744E+01
 0.19812802716E+01 0.17283900582E+01 0.15674565526E+01 0.14880831909E+01 0.14847017624E+01
 0.15570807466E+01 0.17103199549E+01 0.19543768522E+01 0.23035403758E+01 0.27762071505E+01
 0.33948242874E+01 0.41851355459E+01 0.51733015545E+01 0.63796489280E+01 0.78090746321E+01
 0.94400233152E+01 0.11215377379E+02 0.13038792585E+02 0.14779124788E+02 0.16284119114E+02
 0.17402478456E+02 0.18010598788E+02 0.18037400848E+02 0.17479694103E+02 0.13995477856E+02
 0.12593356901E+02 0.11038429423E+02 0.94560753372E+01 0.79482705852E+01 0.65848923546E+01
 0.54029757025E+01 0.44121256454E+01 0.36032393792E+01 0.29575300601E+01 0.24535322623E+01
 0.20711062235E+01 0.17929063147E+01 0.16046293116E+01 0.14952361501E+01 0.14575571087E+01
 0.14889710005E+01 0.15916858225E+01 0.17724599414E+01 0.20419898187E+01 0.24143494660E+01
 0.29066929202E+01 0.35389241211E+01 0.43323772112E+01 0.53062191001E+01 0.64708240346E+01
 0.78187984804E+01 0.93159484864E+01 0.10895376489E+02 0.12457667807E+02 0.13878956527E+02
 0.15026832581E+02 0.15781750237E+02 0.16059281217E+02 0.15827247821E+02 0.15112548016E+02
 0.11655501948E+02 0.10394166670E+02 0.90539826601E+01 0.77313742682E+01 0.64992356505E+01
 0.54029757025E+01 0.44626543850E+01 0.36791385307E+01 0.30416765852E+01 0.25345528518E+01
 0.21414396672E+01 0.18473761325E+01 0.16393258952E+01 0.15064686645E+01 0.14408158685E+01
 0.14380150682E+01 0.14978909902E+01 0.16244351346E+01 0.18252959446E+01 0.21110612401E+01
 0.24946582794E+01 0.29909616268E+01 0.36161851042E+01 0.43860966268E+01 0.53120472794E+01
 0.63945900904E+01 0.76158305681E+01 0.89328772849E+01 0.10275187912E+02 0.11548015636E+02
 0.12642715411E+02 0.13452710675E+02 0.13891942219E+02 0.13911300382E+02 0.13508547150E+02
 0.12728816932E+02 0.95141107554E+01 0.84311997196E+01 0.73202331084E+01 0.62510339854E+01
 0.52725382793E+01 0.44121256454E+01 0.36791385307E+01 0.30705889015E+01 0.25769226054E+01
 0.21862854303E+01 0.18868054418E+01 0.16674397034E+01 0.15183595040E+01 0.14315409179E+01
 0.14016068268E+01 0.14265658712E+01 0.15080988165E+01 0.16512840111E+01 0.18639110060E+01
 0.21556914983E+01 0.25376476132E+01 0.30216484352E+01 0.36195643835E+01 0.43411762901E+01
 0.51902109166E+01 0.61587445143E+01 0.72213444474E+01 0.83311243886E+01 0.94199198196E+01
 0.10403920108E+02 0.11194546937E+02 0.11712645368E+02 0.11902752627E+02 0.11743812155E+02
 0.11253410255E+02 0.10484294930E+02 0.76492559609E+01 0.67558358454E+01 0.58649482972E+01
 0.50244299207E+01 0.42653611473E+01 0.36032393792E+01 0.30416765852E+01 0.25769226054E+01
 0.22016882896E+01 0.19074927044E+01 0.16857065930E+01 0.15280316957E+01 0.14270640851E+01
 0.13771039134E+01 0.13749762401E+01 0.14205441617E+01 0.15167248762E+01 0.16690072935E+01
 0.18846606633E+01 0.21719449713E+01 0.25395341036E+01 0.29959948791E+01 0.35487554157E+01
 0.42019087063E+01 0.49526189871E+01 0.57866911099E+01 0.66746668282E+01 0.75702255826E+01
 0.84123983777E+01 0.91321174375E+01 0.96622356341E+01 0.99488980036E+01 0.99615039782E+01
 0.96986672434E+01 0.91885235489E+01 0.84832441586E+01 0.60900046276E+01 0.53769459510E+01
 0.46818269268E+01 0.40359764037E+01 0.34583781940E+01 0.29575300601E+01 0.25345528518E+01
 0.21862854303E+01 0.19074927044E+01 0.16920297716E+01 0.15334019228E+01 0.14252783220E+01
 0.13622121041E+01 0.13404543671E+01 0.13585962454E+01 0.14178231412E+01 0.15216947362E+01
 0.16755221997E+01 0.18855712556E+01 0.21583613752E+01 0.25001447217E+01 0.29163106716E+01
 0.34102345135E+01 0.39811966484E+01 0.46214496396E+01 0.53131171391E+01 0.60260992485E+01
 0.67182647566E+01 0.73387690592E+01 0.78344224733E+01 0.81579818612E+01 0.82764665887E+01
 0.81773875671E+01 0.78712007205E+01 0.73892685281E+01 0.67778806877E+01 0.48281085690E+01
 0.42742174957E+01 0.37439473082E+01 0.32572412650E+01 0.28255329734E+01 0.24535322623E+01
 0.21414396672E+01 0.18868054418E+01 0.16857065930E+01 0.15334019228E+01 0.14248322819E+01
 0.13552165889E+01 0.13207553209E+01 0.13192895029E+01 0.13507194315E+01 0.14170324263E+01
 0.15219122509E+01 0.16700718550E+01 0.18665524646E+01 0.21161555013E+01 0.24229492376E+01
 0.27895849004E+01 0.32161247995E+01 0.36982738612E+01 0.42252597425E+01 0.47780003086E+01
 0.53284437187E+01 0.58408778265E+01 0.62755271740E+01 0.65940372509E+01 0.67657543672E+01
 0.67732892826E+01 0.66158670599E+01 0.63094834227E+01 0.58838048825E+01 0.53767267279E+01
 0.38327637752E+01 0.34123897335E+01 0.30161620519E+01 0.26566505979E+01 0.23407642744E+01
 0.20711062235E+01 0.18473761325E+01 0.16674397034E+01 0.15280316957E+01 0.14252783220E+01
 0.13552165889E+01 0.13143630846E+01 0.13002805474E+01 0.13120326822E+01 0.13503889980E+01
 0.14176798646E+01 0.15173360036E+01 0.16532882930E+01 0.18294124829E+01 0.20490582528E+01
 0.23145345234E+01 0.26263677257E+01 0.29822293135E+01 0.33755986404E+01 0.37944492137E+01
 0.42204586227E+01 0.46293185468E+01 0.49925474525E+01 0.52808026364E+01 0.54681935341E+01
 0.55366787727E+01 0.54794248263E+01 0.53021465814E+01 0.50219941145E+01 0.46643263640E+01
 0.42583468287E+01 0.30643132083E+01 0.27527977452E+01 0.24638389309E+01 0.22053113232E+01
 0.19812802716E+01 0.17929063147E+01 0.16393258952E+01 0.15183595040E+01 0.14270640851E+01
 0.13622121041E+01 0.13207553209E+01 0.13002805474E+01 0.12994145468E+01 0.13180882591E+01
 0.13575622017E+01 0.14201855929E+01 0.15089742498E+01 0.16271431282E+01 0.17776666839E+01
 0.19628286086E+01 0.21836648544E+01 0.24392354939E+01 0.27257499990E+01 0.30356848582E+01
 0.33571523334E+01 0.36738573233E+01 0.39659463103E+01 0.42118781648E+01 0.43911676244E+01
 0.44875392041E+01 0.44917723280E+01 0.44034468661E+01 0.42310331322E+01 0.39902847334E+01
 0.37014466359E+01 0.33860888407E+01 0.24839311354E+01 0.22603997202E+01 0.20572629122E+01
 0.18792501169E+01 0.17283900582E+01 0.16046293116E+01 0.15064686645E+01 0.14315409179E+01
 0.13771039134E+01 0.13404543671E+01 0.13192895029E+01 0.13120326822E+01 0.13180882591E+01
 0.13379500871E+01 0.13731162893E+01 0.14258421845E+01 0.14988109465E+01 0.15947731237E+01
 0.17161452374E+01 0.18645306518E+01 0.20401461927E+01 0.22411806336E+01 0.24631655377E+01
 0.26985046243E+01 0.29363564506E+01 0.31630534672E+01 0.33631598000E+01 0.35211444159E+01
 0.36234843485E+01 0.36608173073E+01 0.36296068182E+01 0.35328097896E+01 0.33793194918E+01
 0.31823727787E+01 0.29574160341E+01 0.27199754133E+01 0.20585009608E+01 0.19065282005E+01
 0.17727460583E+01 0.16595864294E+01 0.15674565526E+01 0.14952361501E+01 0.14408158685E+01
 0.14016068268E+01 0.13749762401E+01 0.13585962454E+01 0.13507194315E+01 0.13503889980E+01
 0.13575622017E+01 0.13731162893E+01 0.13987349882E+01 0.14367047977E+01 0.14896447188E+01
 0.15601642904E+01 0.16504360147E+01 0.17616916711E+01 0.18936839314E+01 0.20441810670E+01
 0.22085909836E+01 0.23798348595E+01 0.25485807885E+01 0.27038937861E+01 0.28342872519E+01
 0.29290899203E+01 0.29799493705E+01 0.29821749312E+01 0.29355592077E+01 0.28444145155E+01
 0.27168128608E+01 0.25632766652E+01 0.23952778207E+01 0.22238496069E+01 0.17618225884E+01
 0.16690345417E+01 0.15923145601E+01 0.15323105500E+01 0.14880831909E+01 0.14575571087E+01
 0.14380150682E+01 0.14265658712E+01 0.14205441617E+01 0.14178231412E+01 0.14170324263E+01
 0.14176798646E+01 0.14201855929E+01 0.14258421845E+01 0.14367047977E+01 0.14553964174E+01
 0.14848089453E+01 0.15277018210E+01 0.15862296617E+01 0.16614493717E+01 0.17528681133E+01
 0.18581087316E+01 0.19727803282E+01 0.20906248084E+01 0.22039625325E+01 0.23044088929E+01
 0.23837977001E+01 0.24352103423E+01 0.24539530824E+01 0.24382765556E+01 0.23896522027E+01
 0.23125317620E+01 0.22136633484E+01 0.21011385787E+01 0.19833648108E+01 0.18681225682E+01
 0.15741806204E+01 0.15317805646E+01 0.15035050638E+01 0.14885301779E+01 0.14847017624E+01
 0.14889710005E+01 0.14978909902E+01 0.15080988165E+01 0.15167248762E+01 0.15216947362E+01
 0.15219122509E+01 0.15173360036E+01 0.15089742498E+01 0.14988109465E+01 0.14896447188E+01
 0.14848089453E+01 0.14877678491E+01 0.15016303044E+01 0.15286512782E+01 0.15697912148E+01
 0.16243981737E+01 0.16900765481E+01 0.17627912692E+01 0.18372143871E+01 0.19072719222E+01
 0.19668208141E+01 0.20103761868E+01 0.20337963489E+01 0.20348185017E+01 0.20133502376E+01
 0.19714716301E+01 0.19131616934E+01 0.18437989300E+01 0.17695017335E+01 0.16963934976E+01
 0.16298992981E+01 0.14819850892E+01 0.14846339785E+01 0.14997227998E+01 0.15250233400E+01
 0.15570807466E+01 0.15916858225E+01 0.16244351346E+01 0.16512840111E+01 0.16690072935E+01
 0.16755221997E+01 0.16700718550E+01 0.16532882930E+01 0.16271431282E+01 0.15947731237E+01
 0.15601642904E+01 0.15277018210E+01 0.15016303044E+01 0.14854981416E+01 0.14816709777E+01
 0.14909922869E+01 0.15126486900E+01 0.15442651771E+01 0.15822158386E+01 0.16220986953E+01
 0.16592982668E+01 0.16895506929E+01 0.17094338573E+01 0.17167283794E+01 0.17106286332E+01
 0.16918106553E+01 0.16623697881E+01 0.16256265809E+01 0.15857883794E+01 0.15474707400E+01
 0.15151259898E+01 0.14924671236E+01 0.14780610652E+01 0.15239334507E+01 0.15806939857E+01
 0.16445055225E+01 0.17103199549E+01 0.17724599414E+01 0.18252959446E+01 0.18639110060E+01
 0.18846606633E+01 0.18855712556E+01 0.18665524646E+01 0.18294124829E+01 0.17776666839E+01
 0.17161452374E+01 0.16504360147E+01 0.15862296617E+01 0.15286512782E+01 0.14816709777E+01
 0.14476853895E+01 0.14273416498E+01 0.14196269977E+01 0.14221882974E+01 0.14318050892E+01
 0.14449254391E+01 0.14581739324E+01 0.14687525261E+01 0.14746907594E+01 0.14749599984E+01
 0.14695099505E+01 0.14592761732E+01 0.14461534658E+01 0.14328838635E+01 0.14228095465E+01
 0.14194822131E+01 0.14261669592E+01 0.14453104486E+01 0.15621108131E+01 0.16527589581E+01
 0.17524610039E+01 0.18553574728E+01 0.19543768522E+01 0.20419898187E+01 0.21110612401E+01
 0.21556914983E+01 0.21719449713E+01 0.21583613752E+01 0.21161555013E+01 0.20490582528E+01
 0.19628286086E+01 0.18645306518E+01 0.17616916711E+01 0.16614493717E+01 0.15697912148E+01
 0.14909922869E+01 0.14273416498E+01 0.13791911348E+01 0.13452850834E+01 0.13232733624E+01
 0.13102899081E+01 0.13034850918E+01 0.13004239999E+01 0.12993093775E+01 0.12990529012E+01
 0.12992695803E+01 0.13002711208E+01 0.13030838848E+01 0.13094545751E+01 0.13217745663E+01
 0.13428643365E+01 0.13755972850E+01 0.14223885499E+01 0.14846200317E+01 0.17407106224E+01
 0.18806653535E+01 0.20269546924E+01 0.21711285390E+01 0.23035403758E+01 0.24143494660E+01
 0.24946582794E+01 0.25376476132E+01 0.25395341036E+01 0.25001447217E+01 0.24229492376E+01
 0.23145345234E+01 0.21836648544E+01 0.20401461927E+01 0.18936839314E+01 0.17528681133E+01
 0.16243981737E+01 0.15126486900E+01 0.14196269977E+01 0.13452850834E+01 0.12880731612E+01
 0.12455931042E+01 0.12152158792E+01 0.11945546570E+01 0.11817399904E+01 0.11755190357E+01
 0.11752574921E+01 0.11809245717E+01 0.11930985962E+01 0.12129842472E+01 0.12424026127E+01
 0.12836951773E+01 0.13394749097E+01 0.14121839765E+01 0.15034856648E+01 0.16135965093E+01
 0.20268649296E+01 0.22232477919E+01 0.24216682391E+01 0.26103055466E+01 0.27762071505E+01
 0.29066929202E+01 0.29909616268E+01 0.30216484352E+01 0.29959948791E+01 0.29163106716E+01
 0.27895849004E+01 0.26263677257E+01 0.24392354939E+01 0.22411806336E+01 0.20441810670E+01
 0.18581087316E+01 0.16900765481E+01 0.15442651771E+01 0.14221882974E+01 0.13232733624E+01
 0.12455931042E+01 0.11865882153E+01 0.11436582571E+01 0.11145569837E+01 0.10975999589E+01
 0.10917466667E+01 0.10966268099E+01 0.11125491072E+01 0.11404976350E+01 0.11821037610E+01
 0.12395649040E+01 0.13154543662E+01 0.14123552371E+01 0.15322890990E+01 0.16759908348E+01
 0.18421606778E+01 0.24397338191E+01 0.27021287873E+01 0.29598028083E+01 0.31964396762E+01
 0.33948242874E+01 0.35389241211E+01 0.36161851042E+01 0.36195643835E+01 0.35487554157E+01
 0.34102345135E+01 0.32161247995E+01 0.29822293135E+01 0.27257499990E+01 0.24631655377E+01
 0.22085909836E+01 0.19727803282E+01 0.17627912692E+01 0.15822158386E+01 0.14318050892E+01
 0.13102899081E+01 0.12152158792E+01 0.11436582571E+01 0.10927558298E+01 0.10600755476E+01
 0.10438554237E+01 0.10431599260E+01 0.10579541940E+01 0.10890986925E+01 0.11382769709E+01
 0.12078614476E+01 0.13006907832E+01 0.14197111495E+01 0.15674467071E+01 0.17453013424E+01
 0.19527401796E+01 0.21864607722E+01 0.30049455557E+01 0.33453896763E+01 0.36705179932E+01
 0.39579608088E+01 0.41851355459E+01 0.43323772112E+01 0.43860966268E+01 0.43411762901E+01
 0.42019087063E+01 0.39811966484E+01 0.36982738612E+01 0.33755986404E+01 0.30356848582E+01
 0.26985046243E+01 0.23798348595E+01 0.20906248084E+01 0.18372143871E+01 0.16220986953E+01
 0.14449254391E+01 0.13034850918E+01 0.11945546570E+01 0.11145569837E+01 0.10600755476E+01
 0.10282842489E+01 0.10173058044E+01 0.10264547338E+01 0.10563167378E+01 0.11086625585E+01
 0.11862299933E+01 0.12923999088E+01 0.14307700712E+01 0.16046230665E+01 0.18162755366E+01
 0.20662765627E+01 0.23524439081E+01 0.26688395311E+01 0.37549998271E+01 0.41874900015E+01
 0.45880159426E+01 0.49262538416E+01 0.51733015545E+01 0.53062191001E+01 0.53120472794E+01
 0.51902109166E+01 0.49526189871E+01 0.46214496396E+01 0.42252597425E+01 0.37944492137E+01
 0.33571523334E+01 0.29363564506E+01 0.25485807885E+01 0.22039625325E+01 0.19072719222E+01
 0.16592982668E+01 0.14581739324E+01 0.13004239999E+01 0.11817399904E+01 0.10975999589E+01
 0.10438554237E+01 0.10173058044E+01 0.10161764366E+01 0.10403904128E+01 0.10915760315E+01
 0.11728181237E+01 0.12882059938E+01 0.14422607633E+01 0.16393298262E+01 0.18829716863E+01
 0.21752303678E+01 0.25156328192E+01 0.28998584460E+01 0.33183012942E+01 0.47282688531E+01
 0.52669067897E+01 0.57476456839E+01 0.61303722660E+01 0.63796489280E+01 0.64708240346E+01
 0.63945900904E+01 0.61587445143E+01 0.57866911099E+01 0.53131171391E+01 0.47780003086E+01
 0.42204586227E+01 0.36738573233E+01 0.31630534672E+01 0.27038937861E+01 0.23044088929E+01
 0.19668208141E+01 0.16895506929E+01 0.14687525261E+01 0.12993093775E+01 0.11755190357E+01
 0.10917466667E+01 0.10431599260E+01 0.10264547338E+01 0.10403904128E+01 0.10859981732E+01
 0.11664152618E+01 0.12863764030E+01 0.14514836090E+01 0.16674476534E+01 0.19394367584E+01
 0.22714411485E+01 0.26653380586E+01 0.31193735275E+01 0.36261238031E+01 0.41704521857E+01
 0.59646186659E+01 0.66196648931E+01 0.71776475103E+01 0.75876780849E+01 0.78090746321E+01
 0.78187984804E+01 0.76158305681E+01 0.72213444474E+01 0.66746668282E+01 0.60260992485E+01
 0.53284437187E+01 0.46293185468E+01 0.39659463103E+01 0.33631598000E+01 0.28342872519E+01
 0.23837977001E+01 0.20103761868E+01 0.17094338573E+01 0.14746907594E+01 0.12990529012E+01
 0.11752574921E+01 0.10966268099E+01 0.10579541940E+01 0.10563167378E+01 0.10915760315E+01
 0.11664152618E+01 0.12858839813E+01 0.14565761189E+01 0.16857136126E+01 0.19803965179E+01
 0.23470094620E+01 0.27904026885E+01 0.33123349120E+01 0.39089698025E+01 0.45678172258E+01
 0.52650774460E+01 0.74962356739E+01 0.82681210719E+01 0.88868665812E+01 0.92916494286E+01
 0.94400233152E+01 0.93159484864E+01 0.89328772849E+01 0.83311243886E+01 0.75702255826E+01
 0.67182647566E+01 0.58408778265E+01 0.49925474525E+01 0.42118781648E+01 0.35211444159E+01
 0.29290899203E+01 0.24352103423E+01 0.20337963489E+01 0.17167283794E+01 0.14749599984E+01
 0.12992695803E+01 0.11809245717E+01 0.11125491072E+01 0.10890986925E+01 0.11086625585E+01
 0.11728181237E+01 0.12863764030E+01 0.14565761189E+01 0.16920454010E+01 0.20019312424E+01
 0.23953152249E+01 0.28805306447E+01 0.34636848630E+01 0.41458802192E+01 0.49192653971E+01
 0.57628361750E+01 0.66395192276E+01 0.93341034123E+01 0.10206649139E+02 0.10851062968E+02
 0.11200042947E+02 0.11215377379E+02 0.10895376489E+02 0.10275187912E+02 0.94199198196E+01
 0.84123983777E+01 0.73387690592E+01 0.62755271740E+01 0.52808026364E+01 0.43911676244E+01
 0.36234843485E+01 0.29799493705E+01 0.24539530824E+01 0.20348185017E+01 0.17106286332E+01
 0.14695099505E+01 0.13002711208E+01 0.11930985962E+01 0.11404976350E+01 0.11382769709E+01
 0.11862299933E+01 0.12882059938E+01 0.14514836090E+01 0.16857136126E+01 0.20019312424E+01
 0.24119395725E+01 0.29277742678E+01 0.35604332173E+01 0.43170524355E+01 0.51963072273E+01
 0.61827535040E+01 0.72417555093E+01 0.83172134079E+01 0.11453036309E+02 0.12387998553E+02
 0.13001886558E+02 0.13227336361E+02 0.13038792585E+02 0.12457667807E+02 0.11548015636E+02
 0.10403920108E+02 0.91321174375E+01 0.78344224733E+01 0.65940372509E+01 0.54681935341E+01
 0.44875392041E+01 0.36608173073E+01 0.29821749312E+01 0.24382765556E+01 0.20133502376E+01
 0.16918106553E+01 0.14592761732E+01 0.13030838848E+01 0.12129842472E+01 0.11821037610E+01
 0.12078614476E+01 0.12923999088E+01 0.14422607633E+01 0.16674476534E+01 0.19803965179E+01
 0.23953152249E+01 0.29277742678E+01 0.35937336075E+01 0.44069342935E+01 0.53740144515E+01
 0.64876897618E+01 0.77195429960E+01 0.90149620052E+01 0.10293004785E+02 0.13779683476E+02
 0.14714660206E+02 0.15222386672E+02 0.15244751684E+02 0.14779124788E+02 0.13878956527E+02
 0.12642715411E+02 0.11194546937E+02 0.96622356341E+01 0.81579818612E+01 0.67657543672E+01
 0.55366787727E+01 0.44917723280E+01 0.36296068182E+01 0.29355592077E+01 0.23896522027E+01
 0.19714716301E+01 0.16623697881E+01 0.14461534658E+01 0.13094545751E+01 0.12424026127E+01
 0.12395649040E+01 0.13006907832E+01 0.14307700712E+01 0.16393298262E+01 0.19394367584E+01
 0.23470094620E+01 0.28805306447E+01 0.35604332173E+01 0.44069342935E+01 0.54352838409E+01
 0.66482816170E+01 0.80272719503E+01 0.95242143060E+01 0.11058172252E+02 0.12519058958E+02
 0.16187573157E+02 0.17038615319E+02 0.17351802507E+02 0.17089955752E+02 0.16284119114E+02
 0.15026832581E+02 0.13452710675E+02 0.11712645368E+02 0.99488980036E+01 0.82764665887E+01
 0.67732892826E+01 0.54794248263E+01 0.44034468661E+01 0.35328097896E+01 0.28444145155E+01
 0.23125317620E+01 0.19131616934E+01 0.16256265809E+01 0.14328838635E+01 0.13217745663E+01
 0.12836951773E+01 0.13154543662E+01 0.14197111495E+01 0.16046230665E+01 0.18829716863E+01
 0.22714411485E+01 0.27904026885E+01 0.34636848630E+01 0.43170524355E+01 0.53740144515E+01
 0.66482816170E+01 0.81335768047E+01 0.97931829843E+01 0.11552840293E+02 0.13300604819E+02
 0.14895884108E+02 0.18501980228E+02 0.19171703627E+02 0.19201293327E+02 0.18587059466E+02
 0.17402478456E+02 0.15781750237E+02 0.13891942219E+02 0.11902752627E+02 0.99615039782E+01
 0.81773875671E+01 0.66158670599E+01 0.53021465814E+01 0.42310331322E+01 0.33793194918E+01
 0.27168128608E+01 0.22136633484E+01 0.18437989300E+01 0.15857883794E+01 0.14228095465E+01
 0.13428643365E+01 0.13394749097E+01 0.14123552371E+01 0.15674467071E+01 0.18162755366E+01
 0.21752303678E+01 0.26653380586E+01 0.33123349120E+01 0.41458802192E+01 0.51963072273E+01
 0.64876897618E+01 0.80272719503E+01 0.97931829843E+01 0.11724035538E+02 0.13714510408E+02
 0.15620064185E+02 0.17272017668E+02 0.20516467314E+02 0.20907917592E+02 0.20580657447E+02
 0.19575039947E+02 0.18010598788E+02 0.16059281217E+02 0.13911300382E+02 0.11743812155E+02
 0.96986672434E+01 0.78712007205E+01 0.63094834227E+01 0.50219941145E+01 0.39902847334E+01
 0.31823727787E+01 0.25632766652E+01 0.21011385787E+01 0.17695017335E+01 0.15474707400E+01
 0.14194822131E+01 0.13755972850E+01 0.14121839765E+01 0.15322890990E+01 0.17453013424E+01
 0.20662765627E+01 0.25156328192E+01 0.31193735275E+01 0.39089698025E+01 0.49192653971E+01
 0.61827535040E+01 0.77195429960E+01 0.95242143060E+01 0.11552840293E+02 0.13714510408E+02
 0.15871151850E+02 0.17847914939E+02 0.19454636187E+02 0.22021682657E+02 0.22056561038E+02
 0.21332535949E+02 0.19938898603E+02 0.18037400848E+02 0.15827247821E+02 0.13508547150E+02
 0.11253410255E+02 0.91885235489E+01 0.73892685281E+01 0.58838048825E+01 0.46643263640E+01
 0.37014466359E+01 0.29574160341E+01 0.23952778207E+01 0.19833648108E+01 0.16963934976E+01
 0.15151259898E+01 0.14261669592E+01 0.14223885499E+01 0.15034856648E+01 0.16759908348E+01
 0.19527401796E+01 0.23524439081E+01 0.28998584460E+01 0.36261238031E+01 0.45678172258E+01
 0.57628361750E+01 0.72417555093E+01 0.90149620052E+01 0.11058172252E+02 0.13300604819E+02
 0.15620064185E+02 0.17847914939E+02 0.19785548574E+02 0.21232337508E+02 0.22843244949E+02
 0.22480175152E+02 0.21365661828E+02 0.19634592867E+02 0.17479694103E+02 0.15112548016E+02
 0.12728816932E+02 0.10484294930E+02 0.84832441586E+01 0.67778806877E+01 0.53767267279E+01
 0.42583468287E+01 0.33860888407E+01 0.27199754133E+01 0.22238496069E+01 0.18681225682E+01
 0.16298992981E+01 0.14924671236E+01 0.14453104486E+01 0.14846200317E+01 0.16135965093E+01
 0.18421606778E+01 0.21864607722E+01 0.26688395311E+01 0.33183012942E+01 0.41704521857E+01
 0.52650774460E+01 0.66395192276E+01 0.83172134079E+01 0.10293004785E+02 0.12519058958E+02
 0.14895884108E+02 0.17272017668E+02 0.19454636187E+02 0.21232337508E+02 0.22409080137E+02
 0.22662106773E+02 0.21551719962E+02 0.19830490023E+02 0.17691523189E+02 0.15342936280E+02
 0.12974140806E+02 0.10735129751E+02 0.87278697194E+01 0.70066125373E+01 0.55845856132E+01
 0.44450566348E+01 0.35542284691E+01 0.28729079057E+01 0.23645503340E+01 0.19990368562E+01
 0.17533479176E+01 0.16110721139E+01 0.15621304496E+01 0.16029309313E+01 0.17364918619E+01
 0.19722948698E+01 0.23261690860E+01 0.28205684367E+01 0.34849915124E+01 0.43554024123E+01
 0.54709175307E+01 0.68663350715E+01 0.85606475058E+01 0.10543848982E+02 0.12765518089E+02
 0.15127951165E+02 0.17485437392E+02 0.19651729262E+02 0.21419179266E+02 0.22591412267E+02
 0.23024373569E+02 0.21551719962E+02 0.20174032677E+02 0.18296703519E+02 0.16115420930E+02
 0.13823739434E+02 0.11586587988E+02 0.95261163302E+01 0.77177680562E+01 0.61937419352E+01
 0.49516901804E+01 0.39665209884E+01 0.32025484507E+01 0.26231854306E+01 0.21965862622E+01
 0.18975568996E+01 0.17074275440E+01 0.16136174880E+01 0.16096192243E+01 0.16951671995E+01
 0.18762075310E+01 0.21647391997E+01 0.25788967871E+01 0.31433528335E+01 0.38893808881E+01
 0.48531668056E+01 0.60707349742E+01 0.75687308093E+01 0.93522269162E+01 0.11392512175E+02
 0.13618069495E+02 0.15910868145E+02 0.18109612949E+02 0.20022583500E+02 0.21452788342E+02
 0.22233989205E+02 0.22268412665E+02 0.19830490023E+02 0.18296703519E+02 0.16383459505E+02
 0.14274021294E+02 0.12137461633E+02 0.10109340852E+02 0.82829661449E+01 0.67090252969E+01
 0.54013268378E+01 0.43466441747E+01 0.35162694460E+01 0.28764778596E+01 0.23956929731E+01
 0.20477923059E+01 0.18126950149E+01 0.16760084628E+01 0.16288827223E+01 0.16681744261E+01
 0.17965307260E+01 0.20222525403E+01 0.23592025845E+01 0.28270155259E+01 0.34513717960E+01
 0.42633860182E+01 0.52966415692E+01 0.65806153402E+01 0.81305410829E+01 0.99356450337E+01
 0.11948833743E+02 0.14080580951E+02 0.16198885570E+02 0.18137185345E+02 0.19712491120E+02
 0.20754156110E+02 0.21138303919E+02 0.20817021355E+02 0.17691523189E+02 0.16115420930E+02
 0.14274021294E+02 0.12328191468E+02 0.10417562417E+02 0.86473383783E+01 0.70837796763E+01
 0.57565000495E+01 0.46657079509E+01 0.37923000461E+01 0.31081904035E+01 0.25843589839E+01
 0.21953603452E+01 0.19207956446E+01 0.17453045547E+01 0.16584214761E+01 0.16547166125E+01
 0.17339721663E+01 0.19011419471E+01 0.21661832732E+01 0.25440251110E+01 0.30547335520E+01
 0.37234183632E+01 0.45788079140E+01 0.56491463552E+01 0.69546783020E+01 0.84975101898E+01
 0.10251201354E+02 0.12152978610E+02 0.14100947153E+02 0.15958092649E+02 0.17564720358E+02
 0.18760097068E+02 0.19410931486E+02 0.19439658581E+02 0.18842732781E+02 0.15342936280E+02
 0.13823739434E+02 0.12137461633E+02 0.10417562417E+02 0.87732686490E+01 0.72812918962E+01
 0.59845675780E+01 0.48964965683E+01 0.40088987850E+01 0.33013781659E+01 0.27495500742E+01
 0.23303648917E+01 0.20243912633E+01 0.18162679698E+01 0.16947090817E+01 0.16526940775E+01
 0.16877322639E+01 0.18019338839E+01 0.20018647478E+01 0.22983659562E+01 0.27064950952E+01
 0.32454933598E+01 0.39382124633E+01 0.48089304454E+01 0.58784700301E+01 0.71564386384E+01
 0.86319161401E+01 0.10265060672E+02 0.11982244985E+02 0.13676791260E+02 0.15216777917E+02
 0.16460604534E+02 0.17279148350E+02 0.17580251093E+02 0.17328526066E+02 0.16553506140E+02
 0.12974140806E+02 0.11586587988E+02 0.10109340852E+02 0.86473383783E+01 0.72812918962E+01
 0.60632403114E+01 0.50177490793E+01 0.41473701013E+01 0.34404065955E+01 0.28786022748E+01
 0.24427649218E+01 0.21156634172E+01 0.18829512689E+01 0.17333791270E+01 0.16590694086E+01
 0.16558945122E+01 0.17237015533E+01 0.18662642921E+01 0.20910518026E+01 0.24089777599E+01
 0.28342228316E+01 0.33839563501E+01 0.40773152286E+01 0.49326461007E+01 0.59622973115E+01
 0.71652958916E+01 0.85195190446E+01 0.99757128841E+01 0.11455642857E+02 0.12856047141E+02
 0.14059148293E+02 0.14949100891E+02 0.15431753634E+02 0.15453035378E+02 0.15010450123E+02
 0.14153704709E+02 0.10735129751E+02 0.95261163302E+01 0.82829661449E+01 0.70837796763E+01
 0.59845675780E+01 0.50177490793E+01 0.41950346346E+01 0.35132243210E+01 0.29608335957E+01
 0.25235044450E+01 0.21871829182E+01 0.19394090200E+01 0.17697641762E+01 0.16702565497E+01
 0.16357917015E+01 0.16645404576E+01 0.17580556022E+01 0.19211222505E+01 0.21614188746E+01
 0.24891399765E+01 0.29166820899E+01 0.34581587741E+01 0.41280377144E+01 0.49380679551E+01
 0.58922154034E+01 0.69803383183E+01 0.81722582405E+01 0.94142925863E+01 0.10630107387E+02
 0.11726984332E+02 0.12607365074E+02 0.13184002382E+02 0.13395565740E+02 0.13218691244E+02
 0.12672866020E+02 0.11816464948E+02 0.87278697194E+01 0.77177680562E+01 0.67090252969E+01
 0.57565000495E+01 0.48964965683E+01 0.41473701013E+01 0.35132243210E+01 0.29890921332E+01
 0.25657332006E+01 0.22328061358E+01 0.19803637184E+01 0.17994600093E+01 0.16826243375E+01
 0.16244193538E+01 0.16219327853E+01 0.16750488436E+01 0.17864467436E+01 0.19613227597E+01
 0.22069188575E+01 0.25320490692E+01 0.29467039808E+01 0.34614049430E+01 0.40856189644E+01
 0.48246731245E+01 0.56752669936E+01 0.66205076606E+01 0.76259897230E+01 0.86386058432E+01
 0.95894096206E+01 0.10400945957E+02 0.10998193145E+02 0.11321013146E+02 0.11335203503E+02
 0.11039209700E+02 0.10464487855E+02 0.96693124486E+01 0.70066125373E+01 0.61937419352E+01
 0.54013268378E+01 0.46657079509E+01 0.40088987850E+01 0.34404065955E+01 0.29608335957E+01
 0.25657332006E+01 0.22484907216E+01 0.20018927751E+01 0.18188530172E+01 0.16929209074E+01
 0.16188507036E+01 0.15931678672E+01 0.16145896718E+01 0.16841983909E+01 0.18052972171E+01
 0.19829668182E+01 0.22235007405E+01 0.25339313907E+01 0.29216058772E+01 0.33934033696E+01
 0.39540635176E+01 0.46033883742E+01 0.53326458528E+01 0.61210819894E+01 0.69338245126E+01
 0.77224470106E+01 0.84289459629E+01 0.89929545929E+01 0.93609888404E+01 0.94957316750E+01
 0.93830498154E+01 0.90347815298E+01 0.84864167392E+01 0.77903385726E+01 0.55845856132E+01
 0.49516901804E+01 0.43466441747E+01 0.37923000461E+01 0.33013781659E+01 0.28786022748E+01
 0.25235044450E+01 0.22328061358E+01 0.20018927751E+01 0.18255935931E+01 0.16987197989E+01
 0.16166108445E+01 0.15756891137E+01 0.15739479744E+01 0.16112854623E+01 0.16895543012E+01
 0.18122453628E+01 0.19839196031E+01 0.22096511277E+01 0.24946152568E+01 0.28436361008E+01
 0.32603094053E+01 0.37454110901E+01 0.42946086935E+01 0.48958743319E+01 0.55273695380E+01
 0.61567922308E+01 0.67430305432E+01 0.72403942889E+01 0.76049072877E+01 0.78014453127E+01
 0.78100738266E+01 0.76298981766E+01 0.72792540721E+01 0.67921402866E+01 0.62119942812E+01
 0.44450566348E+01 0.39665209884E+01 0.35162694460E+01 0.31081904035E+01 0.27495500742E+01
 0.24427649218E+01 0.21871829182E+01 0.19803637184E+01 0.18188530172E+01 0.16987197989E+01
 0.16160591064E+01 0.15674999121E+01 0.15506926973E+01 0.15647243743E+01 0.16103345159E+01
 0.16897895369E+01 0.18064264497E+01 0.19640807551E+01 0.21666177987E+01 0.24175618893E+01
 0.27195944060E+01 0.30736715582E+01 0.34776712819E+01 0.39247027018E+01 0.44014581405E+01
 0.48872176399E+01 0.53541855327E+01 0.57696083358E+01 0.60996370237E+01 0.63143435343E+01
 0.63928419426E+01 0.63272161904E+01 0.61240901398E+01 0.58033150125E+01 0.53941960412E+01
 0.49304258952E+01 0.35542284691E+01 0.32025484507E+01 0.28764778596E+01 0.25843589839E+01
 0.23303648917E+01 0.21156634172E+01 0.19394090200E+01 0.17994600093E+01 0.16929209074E+01
 0.16166108445E+01 0.15674999121E+01 0.15431438469E+01 0.15421169064E+01 0.15643370783E+01
 0.16111131370E+01 0.16848524178E+01 0.17885692328E+01 0.19254057350E+01 0.20982476891E+01
 0.23093413830E+01 0.25597571376E+01 0.28486016903E+01 0.31719872681E+01 0.35219095133E+01
 0.38853657359E+01 0.42441633493E+01 0.45758091907E+01 0.48556339155E+01 0.50599819577E+01
 0.51699433292E+01 0.51747698314E+01 0.50739819846E+01 0.48774595900E+01 0.46034909342E+01
 0.42754509206E+01 0.39180827743E+01 0.28729079057E+01 0.26231854306E+01 0.23956929731E+01
 0.21953603452E+01 0.20243912633E+01 0.18829512689E+01 0.17697641762E+01 0.16826243375E+01
 0.16188507036E+01 0.15756891137E+01 0.15506926973E+01 0.15421169064E+01 0.15492793144E+01
 0.15727348731E+01 0.16141550784E+01 0.16759655305E+01 0.17609106801E+01 0.18716626347E+01
 0.20104600949E+01 0.21786982391E+01 0.23764116921E+01 0.26016372231E+01 0.28497007324E+01
 0.31125771431E+01 0.33785832398E+01 0.36326826357E+01 0.38575773076E+01 0.40355898316E+01
 0.41511362590E+01 0.41933336125E+01 0.41580550411E+01 0.40487559767E+01 0.38757740139E+01
 0.36543682796E+01 0.34021469708E+01 0.31365567616E+01 0.23645503340E+01 0.21965862622E+01
 0.20477923059E+01 0.19207956446E+01 0.18162679698E+01 0.17333791270E+01 0.16702565497E+01
 0.16244193538E+01 0.15931678672E+01 0.15739479744E+01 0.15647243743E+01 0.15643370783E+01
 0.15727348731E+01 0.15909840749E+01 0.16210529369E+01 0.16654668215E+01 0.17269308608E+01
 0.18079551123E+01 0.19104711293E+01 0.20354212767E+01 0.21823091632E+01 0.23487221081E+01
 0.25298948063E+01 0.27184538842E+01 0.29045070445E+01 0.30762002137E+01 0.32207945283E+01
 0.33262176163E+01 0.33828818947E+01 0.33853606572E+01 0.33334185440E+01 0.32320471969E+01
 0.30905093212E+01 0.29207237988E+01 0.27354541540E+01 0.25467004563E+01 0.19990368562E+01
 0.18975568996E+01 0.18126950149E+01 0.17453045547E+01 0.16947090817E+01 0.16590694086E+01
 0.16357917015E+01 0.16219327853E+01 0.16145896718E+01 0.16112854623E+01 0.16103345159E+01
 0.16111131370E+01 0.16141550784E+01 0.16210529369E+01 0.16342116705E+01 0.16565124244E+01
 0.16909237817E+01 0.17400888276E+01 0.18059180260E+01 0.18892039326E+01 0.19892590475E+01
 0.21036016545E+01 0.22277665993E+01 0.23553409824E+01 0.24782952123E+01 0.25876357852E+01
 0.26743701749E+01 0.27307052642E+01 0.27512722481E+01 0.27340603856E+01 0.26807718496E+01
 0.25964977099E+01 0.24888391934E+01 0.23667288108E+01 0.22392206186E+01 0.21144693806E+01
 0.17533479176E+01 0.17074275440E+01 0.16760084628E+01 0.16584214761E+01 0.16526940775E+01
 0.16558945122E+01 0.16645404576E+01 0.16750488436E+01 0.16841983909E+01 0.16895543012E+01
 0.16897895369E+01 0.16848524178E+01 0.16759655305E+01 0.16654668215E+01 0.16565124244E+01
 0.16526709310E+01 0.16574589565E+01 0.16738786039E+01 0.17040025306E+01 0.17486287318E+01
 0.18070241265E+01 0.18767935167E+01 0.19539204064E+01 0.20330127096E+01 0.21077618200E+01
 0.21715987247E+01 0.22184937869E+01 0.22437886265E+01 0.22448963378E+01 0.22217061909E+01
 0.21765959802E+01 0.21140564781E+01 0.20400214615E+01 0.19610484037E+01 0.18835050329E+01
 0.18128884043E+01 0.16110721139E+01 0.16136174880E+01 0.16288827223E+01 0.16547166125E+01
 0.16877322639E+01 0.17237015533E+01 0.17580556022E+01 0.17864467436E+01 0.18052972171E+01
 0.18122453628E+01 0.18064264497E+01 0.17885692328E+01 0.17609106801E+01 0.17269308608E+01
 0.16909237817E+01 0.16574589565E+01 0.16308185501E+01 0.16144873239E+01 0.16107444172E+01
 0.16203900613E+01 0.16426371618E+01 0.16751847153E+01 0.17144649395E+01 0.17560387694E+01
 0.17951083555E+01 0.18270994261E+01 0.18482360710E+01 0.18560156304E+01 0.18495151828E+01
 0.18295023749E+01 0.17983459221E+01 0.17597272032E+01 0.17181762649E+01 0.16784986851E+01
 0.16451878845E+01 0.16219045806E+01 0.15621304496E+01 0.16096192243E+01 0.16681744261E+01
 0.17339721663E+01 0.18019338839E+01 0.18662642921E+01 0.19211222505E+01 0.19613227597E+01
 0.19829668182E+01 0.19839196031E+01 0.19640807551E+01 0.19254057350E+01 0.18716626347E+01
 0.18079551123E+01 0.17400888276E+01 0.16738786039E+01 0.16144873239E+01 0.15658765206E+01
 0.15304387705E+01 0.15088580631E+01 0.15002012957E+01 0.15022028109E+01 0.15116844724E+01
 0.15250491890E+01 0.15387793234E+01 0.15498685359E+01 0.15561367189E+01 0.15564205538E+01
 0.15506639848E+01 0.15399283133E+01 0.15263143887E+01 0.15127736370E+01 0.15027957139E+01
 0.14999870155E+01 0.15075808184E+01 0.15279407204E+01 0.16029309313E+01 0.16951671995E+01
 0.17965307260E+01 0.19011419471E+01 0.20018647478E+01 0.20910518026E+01 0.21614188746E+01
 0.22069188575E+01 0.22235007405E+01 0.22096511277E+01 0.21666177987E+01 0.20982476891E+01
 0.20104600949E+01 0.19104711293E+01 0.18059180260E+01 0.17040025306E+01 0.16107444172E+01
 0.15304387705E+01 0.14654022584E+01 0.14160346565E+01 0.13811418411E+01 0.13584223990E+01
 0.13450187624E+01 0.13380400638E+01 0.13349703049E+01 0.13339125929E+01 0.13336906089E+01
 0.13338788722E+01 0.13348193428E+01 0.13376279124E+01 0.13441572537E+01 0.13568784648E+01
 0.13786485612E+01 0.14123380481E+01 0.14603266731E+01 0.15239379002E+01 0.17364918619E+01
 0.18762075310E+01 0.20222525403E+01 0.21661832732E+01 0.22983659562E+01 0.24089777599E+01
 0.24891399765E+01 0.25320490692E+01 0.25339313907E+01 0.24946152568E+01 0.24175618893E+01
 0.23093413830E+01 0.21786982391E+01 0.20354212767E+01 0.18892039326E+01 0.17486287318E+01
 0.16203900613E+01 0.15088580631E+01 0.14160346565E+01 0.13418648264E+01 0.12847917369E+01
 0.12424132673E+01 0.12121016548E+01 0.11914762966E+01 0.11786768658E+01 0.11724599967E+01
 0.11721982398E+01 0.11778618020E+01 0.11900228098E+01 0.12098752222E+01 0.12392301545E+01
 0.12804236846E+01 0.13360682133E+01 0.14086087614E+01 0.14997140907E+01 0.16096080683E+01
 0.19722948698E+01 0.21647391997E+01 0.23592025845E+01 0.25440251110E+01 0.27064950952E+01
 0.28342228316E+01 0.29166820899E+01 0.29467039808E+01 0.29216058772E+01 0.28436361008E+01
 0.27195944060E+01 0.25597571376E+01 0.23764116921E+01 0.21823091632E+01 0.19892590475E+01
 0.18070241265E+01 0.16426371618E+01 0.15002012957E+01 0.13811418411E+01 0.12847917369E+01
 0.12091478605E+01 0.11516263898E+01 0.11096704465E+01 0.10811322669E+01 0.10644460026E+01
 0.10586704077E+01 0.10634809077E+01 0.10791566307E+01 0.11065816058E+01 0.11472566498E+01
 0.12032752163E+01 0.12771713685E+01 0.13715539323E+01 0.14885120589E+01 0.16288675575E+01
 0.17914117381E+01 0.23261690860E+01 0.25788967871E+01 0.28270155259E+01 0.30547335520E+01
 0.32454933598E+01 0.33839563501E+01 0.34581587741E+01 0.34614049430E+01 0.33934033696E+01
 0.32603094053E+01 0.30736715582E+01 0.28486016903E+01 0.26016372231E+01 0.23487221081E+01
 0.21036016545E+01 0.18767935167E+01 0.16751847153E+01 0.15022028109E+01 0.13584223990E+01
 0.12424132673E+01 0.11516263898E+01 0.10831520613E+01 0.10342624270E+01 0.10027384031E+01
 0.98703713052E+00 0.98636328426E+00 0.10006879496E+01 0.10307417263E+01 0.10779937867E+01
 0.11445981990E+01 0.12332486587E+01 0.13468652372E+01 0.14880625201E+01 0.16584065751E+01
 0.18575386342E+01 0.20823152452E+01 0.28205684367E+01 0.31433528335E+01 0.34513717960E+01
 0.37234183632E+01 0.39382124633E+01 0.40773152286E+01 0.41280377144E+01 0.40856189644E+01
 0.39540635176E+01 0.37454110901E+01 0.34776712819E+01 0.31719872681E+01 0.28497007324E+01
 0.25298948063E+01 0.22277665993E+01 0.19539204064E+01 0.17144649395E+01 0.15116844724E+01
 0.13450187624E+01 0.12121016548E+01 0.11096704465E+01 0.10342624270E+01 0.98271457098E+00
 0.95251966302E+00 0.94206874003E+00 0.95078415875E+00 0.97915463676E+00 0.10286943833E+01
 0.11018287513E+01 0.12016781398E+01 0.13317077484E+01 0.14952243335E+01 0.16946989166E+01
 0.19308937876E+01 0.22018338337E+01 0.25017919073E+01 0.34849915124E+01 0.38893808881E+01
 0.42633860182E+01 0.45788079140E+01 0.48089304454E+01 0.49326461007E+01 0.49380679551E+01
 0.48246731245E+01 0.46033883742E+01 0.42946086935E+01 0.39247027018E+01 0.35219095133E+01
 0.31125771431E+01 0.27184538842E+01 0.23553409824E+01 0.20330127096E+01 0.17560387694E+01
 0.15250491890E+01 0.13380400638E+01 0.11914762966E+01 0.10811322669E+01 0.10027384031E+01
 0.95251966302E+00 0.92765058209E+00 0.92659336765E+00 0.94927924261E+00 0.99711685578E+00
 0.10728279229E+01 0.11801224301E+01 0.13232482907E+01 0.15064562244E+01 0.17333702365E+01
 0.20061773439E+01 0.23245469612E+01 0.26843211885E+01 0.30762233536E+01 0.43554024123E+01
 0.48531668056E+01 0.52966415692E+01 0.56491463552E+01 0.58784700301E+01 0.59622973115E+01
 0.58922154034E+01 0.56752669936E+01 0.53326458528E+01 0.48958743319E+01 0.44014581405E+01
 0.38853657359E+01 0.33785832398E+01 0.29045070445E+01 0.24782952123E+01 0.21077618200E+01
 0.17951083555E+01 0.15387793234E+01 0.13349703049E+01 0.11786768658E+01 0.10644460026E+01
 0.98703713052E+00 0.94206874003E+00 0.92659336765E+00 0.93950690503E+00 0.98171894154E+00
 0.10560345059E+01 0.11667477861E+01 0.13190434468E+01 0.15183564177E+01 0.17697535676E+01
 0.20772140295E+01 0.24425796048E+01 0.28640485428E+01 0.33343484058E+01 0.38390128959E+01
 0.54709175307E+01 0.60707349742E+01 0.65806153402E+01 0.69546783020E+01 0.71564386384E+01
 0.71652958916E+01 0.69803383183E+01 0.66205076606E+01 0.61210819894E+01 0.55273695380E+01
 0.48872176399E+01 0.42441633493E+01 0.36326826357E+01 0.30762002137E+01 0.25876357852E+01
 0.21715987247E+01 0.18270994261E+01 0.15498685359E+01 0.13339125929E+01 0.11724599967E+01
 0.10586704077E+01 0.98636328426E+00 0.95078415875E+00 0.94927924261E+00 0.98171894154E+00
 0.10505392093E+01 0.11603550497E+01 0.13172564565E+01 0.15280243456E+01 0.17994453045E+01
 0.21376523150E+01 0.25471766248E+01 0.30293811493E+01 0.35801981131E+01 0.41875038646E+01
 0.48288947072E+01 0.68663350715E+01 0.75687308093E+01 0.81305410829E+01 0.84975101898E+01
 0.86319161401E+01 0.85195190446E+01 0.81722582405E+01 0.76259897230E+01 0.69338245126E+01
 0.61567922308E+01 0.53541855327E+01 0.45758091907E+01 0.38575773076E+01 0.32207945283E+01
 0.26743701749E+01 0.22184937869E+01 0.18482360710E+01 0.15561367189E+01 0.13336906089E+01
 0.11721982398E+01 0.10634809077E+01 0.10006879496E+01 0.97915463676E+00 0.99711685578E+00
 0.10560345059E+01 0.11603550497E+01 0.13167874720E+01 0.15333982896E+01 0.18188355737E+01
 0.21816890305E+01 0.26296437099E+01 0.31679516832E+01 0.37969094974E+01 0.45084442257E+01
 0.52825181288E+01 0.60846816287E+01 0.85606475058E+01 0.93522269162E+01 0.99356450337E+01
 0.10251201354E+02 0.10265060672E+02 0.99757128841E+01 0.94142925863E+01 0.86386058432E+01
 0.77224470106E+01 0.67430305432E+01 0.57696083358E+01 0.48556339155E+01 0.40355898316E+01
 0.33262176163E+01 0.27307052642E+01 0.22437886265E+01 0.18560156304E+01 0.15564205538E+01
 0.13338788722E+01 0.11778618020E+01 0.10791566307E+01 0.10307417263E+01 0.10286943833E+01
 0.10728279229E+01 0.11667477861E+01 0.13172564565E+01 0.15333982896E+01 0.18255774529E+01
 0.22049123597E+01 0.26825167650E+01 0.32680997443E+01 0.39673350618E+01 0.47778402764E+01
 0.56842942417E+01 0.66540951938E+01 0.76355857243E+01 0.10543848982E+02 0.11392512175E+02
 0.11948833743E+02 0.12152978610E+02 0.11982244985E+02 0.11455642857E+02 0.10630107387E+02
 0.95894096206E+01 0.84289459629E+01 0.72403942889E+01 0.60996370237E+01 0.50599819577E+01
 0.41511362590E+01 0.33828818947E+01 0.27512722481E+01 0.22448963378E+01 0.18495151828E+01
 0.15506639848E+01 0.13348193428E+01 0.11900228098E+01 0.11065816058E+01 0.10779937867E+01
 0.11018287513E+01 0.11801224301E+01 0.13190434468E+01 0.15280243456E+01 0.18188355737E+01
 0.22049123597E+01 0.27007460751E+01 0.33207018554E+01 0.40764924133E+01 0.49728116434E+01
 0.60013615765E+01 0.71346088880E+01 0.83215975938E+01 0.94882883074E+01 0.12765518089E+02
 0.13618069495E+02 0.14080580951E+02 0.14100947153E+02 0.13676791260E+02 0.12856047141E+02
 0.11726984332E+02 0.10400945957E+02 0.89929545929E+01 0.76049072877E+01 0.63143435343E+01
 0.51699433292E+01 0.41933336125E+01 0.33853606572E+01 0.27340603856E+01 0.22217061909E+01
 0.18295023749E+01 0.15399283133E+01 0.13376279124E+01 0.12098752222E+01 0.11472566498E+01
 0.11445981990E+01 0.12016781398E+01 0.13232482907E+01 0.15183564177E+01 0.17994453045E+01
 0.21816890305E+01 0.26825167650E+01 0.33207018554E+01 0.41141088690E+01 0.50753071093E+01
 0.62048953949E+01 0.74835985499E+01 0.88655481354E+01 0.10275742008E+02 0.11613935100E+02
 0.15127951165E+02 0.15910868145E+02 0.16198885570E+02 0.15958092649E+02 0.15216777917E+02
 0.14059148293E+02 0.12607365074E+02 0.10998193145E+02 0.93609888404E+01 0.78014453127E+01
 0.63928419426E+01 0.51747698314E+01 0.41580550411E+01 0.33334185440E+01 0.26807718496E+01
 0.21765959802E+01 0.17983459221E+01 0.15263143887E+01 0.13441572537E+01 0.12392301545E+01
 0.12032752163E+01 0.12332486587E+01 0.13317077484E+01 0.15064562244E+01 0.17697535676E+01
 0.21376523150E+01 0.26296437099E+01 0.32680997443E+01 0.40764924133E+01 0.50753071093E+01
 0.62751028192E+01 0.76674122191E+01 0.92157534148E+01 0.10849990732E+02 0.12466917531E+02
 0.13938543550E+02 0.17485437392E+02 0.18109612949E+02 0.18137185345E+02 0.17564720358E+02
 0.16460604534E+02 0.14949100891E+02 0.13184002382E+02 0.11321013146E+02 0.94957316750E+01
 0.78100738266E+01 0.63272161904E+01 0.50739819846E+01 0.40487559767E+01 0.32320471969E+01
 0.25964977099E+01 0.21140564781E+01 0.17597272032E+01 0.15127736370E+01 0.13568784648E+01
 0.12804236846E+01 0.12771713685E+01 0.13468652372E+01 0.14952243335E+01 0.17333702365E+01
 0.20772140295E+01 0.25471766248E+01 0.31679516832E+01 0.39673350618E+01 0.49728116434E+01
 0.62048953949E+01 0.76674122191E+01 0.93367164911E+01 0.11153163184E+02 0.13018071249E+02
 0.14798248678E+02 0.16338999566E+02 0.19651729262E+02 0.20022583500E+02 0.19712491120E+02
 0.18760097068E+02 0.17279148350E+02 0.15431753634E+02 0.13395565740E+02 0.11335203503E+02
 0.93830498154E+01 0.76298981766E+01 0.61240901398E+01 0.48774595900E+01 0.38757740139E+01
 0.30905093212E+01 0.24888391934E+01 0.20400214615E+01 0.17181762649E+01 0.15027957139E+01
 0.13786485612E+01 0.13360682133E+01 0.13715539323E+01 0.14880625201E+01 0.16946989166E+01
 0.20061773439E+01 0.24425796048E+01 0.30293811493E+01 0.37969094974E+01 0.47778402764E+01
 0.60013615765E+01 0.74835985499E+01 0.92157534148E+01 0.11153163184E+02 0.13208789784E+02
 0.15253580039E+02 0.17125166021E+02 0.18646131964E+02 0.21419179266E+02 0.21452788342E+02
 0.20754156110E+02 0.19410931486E+02 0.17580251093E+02 0.15453035378E+02 0.13218691244E+02
 0.11039209700E+02 0.90347815298E+01 0.72792540721E+01 0.58033150125E+01 0.46034909342E+01
 0.36543682796E+01 0.29207237988E+01 0.23667288108E+01 0.19610484037E+01 0.16784986851E+01
 0.14999870155E+01 0.14123380481E+01 0.14086087614E+01 0.14885120589E+01 0.16584065751E+01
 0.19308937876E+01 0.23245469612E+01 0.28640485428E+01 0.35801981131E+01 0.45084442257E+01
 0.56842942417E+01 0.71346088880E+01 0.88655481354E+01 0.10849990732E+02 0.13018071249E+02
 0.15253580039E+02 0.17397886952E+02 0.19263270412E+02 0.20657626645E+02 0.22591412267E+02
 0.22233989205E+02 0.21138303919E+02 0.19439658581E+02 0.17328526066E+02 0.15010450123E+02
 0.12672866020E+02 0.10464487855E+02 0.84864167392E+01 0.67921402866E+01 0.53941960412E+01
 0.42754509206E+01 0.34021469708E+01 0.27354541540E+01 0.22392206186E+01 0.18835050329E+01
 0.16451878845E+01 0.15075808184E+01 0.14603266731E+01 0.14997140907E+01 0.16288675575E+01
 0.18575386342E+01 0.22018338337E+01 0.26843211885E+01 0.33343484058E+01 0.41875038646E+01
 0.52825181288E+01 0.66540951938E+01 0.83215975938E+01 0.10275742008E+02 0.12466917531E+02
 0.14798248678E+02 0.17125166021E+02 0.19263270412E+02 0.21007486740E+02 0.22164187965E+02
 0.23024373569E+02 0.22268412665E+02 0.20817021355E+02 0.18842732781E+02 0.16553506140E+02
 0.14153704709E+02 0.11816464948E+02 0.96693124486E+01 0.77903385726E+01 0.62119942812E+01
 0.49304258952E+01 0.39180827743E+01 0.31365567616E+01 0.25467004563E+01 0.21144693806E+01
 0.18128884043E+01 0.16219045806E+01 0.15279407204E+01 0.15239379002E+01 0.16096080683E+01
 0.17914117381E+01 0.20823152452E+01 0.25017919073E+01 0.30762233536E+01 0.38390128959E+01
 0.48288947072E+01 0.60846816287E+01 0.76355857243E+01 0.94882883074E+01 0.11613935100E+02
 0.13938543550E+02 0.16338999566E+02 0.18646131964E+02 0.20657626645E+02 0.22164187965E+02
 0.22988091409E+02 0.22252186667E+02 0.20844397582E+02 0.18931602073E+02 0.16717152887E+02
 0.14392383686E+02 0.12115864641E+02 0.10005400925E+02 0.81376716839E+01 0.65508707117E+01
 0.52498710465E+01 0.42147312415E+01 0.34115569575E+01 0.28028606539E+01 0.23547642856E+01
 0.20402891781E+01 0.18398556969E+01 0.17407246871E+01 0.17364997532E+01 0.18269195110E+01
 0.20178198693E+01 0.23213197449E+01 0.27563619959E+01 0.33493041033E+01 0.41334921973E+01
 0.51462583859E+01 0.64221805737E+01 0.79829956029E+01 0.98265444093E+01 0.11917830905E+02
 0.14183638579E+02 0.16509894357E+02 0.18741668827E+02 0.20690042373E+02 0.22151200434E+02
 0.22949908662E+02 0.22985057589E+02 0.20844397582E+02 0.19253454364E+02 0.17276461455E+02
 0.15100553880E+02 0.12892849401E+02 0.10785978912E+02 0.88738639558E+01 0.72123185223E+01
 0.58223505022E+01 0.46966600550E+01 0.38092234975E+01 0.31258136230E+01 0.26125547364E+01
 0.22408565401E+01 0.19890428133E+01 0.18421681452E+01 0.17914223770E+01 0.18337483934E+01
 0.19717064635E+01 0.22135527859E+01 0.25736342722E+01 0.30730332165E+01 0.37398029048E+01
 0.46074866692E+01 0.57105187696E+01 0.70760487237E+01 0.87135320509E+01 0.10604876254E+02
 0.12697551506E+02 0.14901069916E+02 0.17086204030E+02 0.19088588342E+02 0.20721983965E+02
 0.21805121398E+02 0.22204883337E+02 0.21870440870E+02 0.18931602073E+02 0.17276461455E+02
 0.15346113742E+02 0.13304071509E+02 0.11290022959E+02 0.94106302484E+01 0.77370184267E+01
 0.63059005425E+01 0.51239661602E+01 0.41756875341E+01 0.34331237355E+01 0.28650147130E+01
 0.24429773395E+01 0.21443560755E+01 0.19527431859E+01 0.18575450116E+01 0.18534884555E+01
 0.19403530287E+01 0.21229409598E+01 0.24113192473E+01 0.28213459863E+01 0.33751652222E+01
 0.41007777737E+01 0.50293800498E+01 0.61894761543E+01 0.75980611842E+01 0.92508341166E+01
 0.11114091410E+02 0.13119925516E+02 0.15164779859E+02 0.17111619639E+02 0.18798435305E+02
 0.20057297378E+02 0.20744493699E+02 0.20774801802E+02 0.20144343818E+02 0.16717152887E+02
 0.15100553880E+02 0.13304071509E+02 0.11464367022E+02 0.96939333228E+01 0.80748365198E+01
 0.66571746878E+01 0.54612083547E+01 0.44831157674E+01 0.37034440698E+01 0.30959597846E+01
 0.26345211814E+01 0.22969340447E+01 0.20662828011E+01 0.19309051350E+01 0.18839713310E+01
 0.19231295899E+01 0.20503521334E+01 0.22720284130E+01 0.25993261718E+01 0.30486843323E+01
 0.36419274919E+01 0.44050327265E+01 0.53644421649E+01 0.65404521231E+01 0.79385803431E+01
 0.95410687195E+01 0.11300762251E+02 0.13138496313E+02 0.14944247145E+02 0.16583002584E+02
 0.17907732792E+02 0.18781079183E+02 0.19102753180E+02 0.18833734005E+02 0.18006646295E+02
 0.14392383686E+02 0.12892849401E+02 0.11290022959E+02 0.96939333228E+01 0.81915053235E+01
 0.68421732568E+01 0.56776257425E+01 0.47053848455E+01 0.39155006801E+01 0.32884966694E+01
 0.28022821926E+01 0.24366334583E+01 0.21752423964E+01 0.20061946648E+01 0.19217795619E+01
 0.19181739461E+01 0.19952265658E+01 0.21564249956E+01 0.24090761707E+01 0.27646604720E+01
 0.32391200981E+01 0.38524825270E+01 0.46268962478E+01 0.55822804497E+01 0.67296260513E+01
 0.80632139092E+01 0.95538074466E+01 0.11144641184E+02 0.12751153508E+02 0.14264975914E+02
 0.15563096137E+02 0.16523185823E+02 0.17044141177E+02 0.17067088149E+02 0.16589313029E+02
 0.15665005985E+02 0.12115864641E+02 0.10785978912E+02 0.94106302484E+01 0.80748365198E+01
 0.68421732568E+01 0.57522507528E+01 0.48221217545E+01 0.40510390094E+01 0.34270515779E+01
 0.29333829342E+01 0.25530634088E+01 0.22714613975E+01 0.20772454713E+01 0.19625116530E+01
 0.19226026584E+01 0.19559083407E+01 0.20637800713E+01 0.22505881395E+01 0.25238981825E+01
 0.28946891530E+01 0.33773447265E+01 0.39888125908E+01 0.47461337748E+01 0.56618799178E+01
 0.67379312110E+01 0.79589974165E+01 0.92876982126E+01 0.10662685354E+02 0.12000648079E+02
 0.13202662334E+02 0.14165153136E+02 0.14794942044E+02 0.15025927174E+02 0.14832781476E+02
 0.14236664833E+02 0.13300524472E+02 0.10005400925E+02 0.88738639558E+01 0.77370184267E+01
 0.66571746878E+01 0.56776257425E+01 0.48221217545E+01 0.40976853524E+01 0.34996178663E+01
 0.30169444192E+01 0.26367816467E+01 0.23470361034E+01 0.21376959580E+01 0.20012733007E+01
 0.19328377260E+01 0.19299120373E+01 0.19923924008E+01 0.21225496051E+01 0.23250850500E+01
 0.26072065982E+01 0.29786569117E+01 0.34514187009E+01 0.40385245723E+01 0.47513612591E+01
 0.55953277236E+01 0.65645193779E+01 0.76367928807E+01 0.87707361521E+01 0.99057265291E+01
 0.10965709410E+02 0.11866810495E+02 0.12528290118E+02 0.12885352016E+02 0.12901030804E+02
 0.12573654205E+02 0.11937226238E+02 0.11054528192E+02 0.81376716839E+01 0.72123185223E+01
 0.63059005425E+01 0.54612083547E+01 0.47053848455E+01 0.40510390094E+01 0.34996178663E+01
 0.30456631912E+01 0.26806001180E+01 0.23953435182E+01 0.21817401644E+01 0.20332222618E+01
 0.19450355936E+01 0.19142853408E+01 0.19399452855E+01 0.20228765627E+01 0.21658227105E+01
 0.23733605679E+01 0.26518364244E+01 0.30092329379E+01 0.34546595051E+01 0.39969613556E+01
 0.46420748230E+01 0.53892540484E+01 0.62269167013E+01 0.71292828524E+01 0.80550190021E+01
 0.89487631794E+01 0.97458596592E+01 0.10380015129E+02 0.10792895046E+02 0.10943884098E+02
 0.10817609155E+02 0.10426953677E+02 0.98105308181E+01 0.90254553384E+01 0.65508707117E+01
 0.58223505022E+01 0.51239661602E+01 0.44831157674E+01 0.39155006801E+01 0.34270515779E+01
 0.30169444192E+01 0.26806001180E+01 0.24119693150E+01 0.22049664465E+01 0.20542457173E+01
 0.19555667029E+01 0.19059591318E+01 0.19038410557E+01 0.19491325880E+01 0.20432899966E+01
 0.21891963716E+01 0.23909711274E+01 0.26537958896E+01 0.29836720705E+01 0.33867759749E+01
 0.38680276289E+01 0.44287371617E+01 0.50636136771E+01 0.57578267708E+01 0.64850498371E+01
 0.72073815895E+01 0.78777144789E+01 0.84445950234E+01 0.88590353107E+01 0.90821436564E+01
 0.90919200559E+01 0.88873902552E+01 0.84887907480E+01 0.79337370525E+01 0.72705913671E+01
 0.52498710465E+01 0.46966600550E+01 0.41756875341E+01 0.37034440698E+01 0.32884966694E+01
 0.29333829342E+01 0.26367816467E+01 0.23953435182E+01 0.22049664465E+01 0.20615837315E+01
 0.19616139798E+01 0.19022217309E+01 0.18815253053E+01 0.18988070597E+01 0.19546458205E+01
 0.20508530415E+01 0.21902242189E+01 0.23762538653E+01 0.26129019232E+01 0.29042728969E+01
 0.32539111138E+01 0.36634873590E+01 0.41309038493E+01 0.46481388690E+01 0.51993954621E+01
 0.57602390599E+01 0.62983280008E+01 0.67760422690E+01 0.71548810582E+01 0.74010190695E+01
 0.74909407358E+01 0.74157545814E+01 0.71829090484E+01 0.68147472352E+01 0.63443768791E+01
 0.58101093927E+01 0.42147312415E+01 0.38092234975E+01 0.34331237355E+01 0.30959597846E+01
 0.28022821926E+01 0.25530634088E+01 0.23470361034E+01 0.21817401644E+01 0.20542457173E+01
 0.19616139798E+01 0.19012039352E+01 0.18709496286E+01 0.18696634787E+01 0.18972804221E+01
 0.19548916944E+01 0.20445245063E+01 0.21687947446E+01 0.23305929236E+01 0.25328165842E+01
 0.27779919001E+01 0.30675902640E+01 0.34009527238E+01 0.37739112241E+01 0.41773837930E+01
 0.45963737216E+01 0.50098473649E+01 0.53918541364E+01 0.57140140242E+01 0.59491790780E+01
 0.60756871078E+01 0.60812397586E+01 0.59652871268E+01 0.57391329971E+01 0.54237320069E+01
 0.50459162635E+01 0.46341425072E+01 0.34115569575E+01 0.31258136230E+01 0.28650147130E+01
 0.26345211814E+01 0.24366334583E+01 0.22714613975E+01 0.21376959580E+01 0.20332222618E+01
 0.19555667029E+01 0.19022217309E+01 0.18709496286E+01 0.18601409465E+01 0.18691653477E+01
 0.18985402965E+01 0.19498053774E+01 0.20251755277E+01 0.21271530890E+01 0.22582053756E+01
 0.24204650394E+01 0.26153337858E+01 0.28428960261E+01 0.31011262101E+01 0.33849783121E+01
 0.36855728955E+01 0.39897919139E+01 0.42805851917E+01 0.45381860950E+01 0.47422671029E+01
 0.48748251276E+01 0.49232531717E+01 0.48827658307E+01 0.47573719829E+01 0.45590487865E+01
 0.43054304126E+01 0.40167764555E+01 0.37130317250E+01 0.28028606539E+01 0.26125547364E+01
 0.24429773395E+01 0.22969340447E+01 0.21752423964E+01 0.20772454713E+01 0.20012733007E+01
 0.19450355936E+01 0.19059591318E+01 0.18815253053E+01 0.18696634787E+01 0.18691653477E+01
 0.18799736163E+01 0.19031987502E+01 0.19408544660E+01 0.19954450191E+01 0.20695550042E+01
 0.21654998431E+01 0.22850019672E+01 0.24288275791E+01 0.25963373307E+01 0.27849515606E+01
 0.29896086881E+01 0.32023808004E+01 0.34124503438E+01 0.36066247468E+01 0.37704932956E+01
 0.38902072365E+01 0.39546474837E+01 0.39574726935E+01 0.38984020245E+01 0.37832680684E+01
 0.36228299353E+01 0.34307827891E+01 0.32215813358E+01 0.30085922066E+01 0.23547642856E+01
 0.22408565401E+01 0.21443560755E+01 0.20662828011E+01 0.20061946648E+01 0.19625116530E+01
 0.19328377260E+01 0.19142853408E+01 0.19038410557E+01 0.18988070597E+01 0.18972804221E+01
 0.18985402965E+01 0.19031987502E+01 0.19130613679E+01 0.19307641694E+01 0.19593127300E+01
 0.20016305558E+01 0.20601696216E+01 0.21365833691E+01 0.22314256740E+01 0.23438357878E+01
 0.24712131543E+01 0.26089540351E+01 0.27503656573E+01 0.28868749452E+01 0.30086275616E+01
 0.31055264058E+01 0.31686411055E+01 0.31917251041E+01 0.31724136560E+01 0.31126978691E+01
 0.30185119876E+01 0.28985943961E+01 0.27629989312E+01 0.26216594732E+01 0.24832939525E+01
 0.20402891781E+01 0.19890428133E+01 0.19527431859E+01 0.19309051350E+01 0.19217795619E+01
 0.19226026584E+01 0.19299120373E+01 0.19399452855E+01 0.19491325880E+01 0.19546458205E+01
 0.19548916944E+01 0.19498053774E+01 0.19408544660E+01 0.19307641694E+01 0.19230530806E+01
 0.19214942068E+01 0.19296023754E+01 0.19502133076E+01 0.19851686642E+01 0.20350775229E+01
 0.20991215415E+01 0.21749109067E+01 0.22584419823E+01 0.23442225682E+01 0.24256240109E+01
 0.24955031385E+01 0.25470870067E+01 0.25750045218E+01 0.25762245632E+01 0.25506208458E+01
 0.25009853882E+01 0.24325006076E+01 0.23518437401E+01 0.22661683649E+01 0.21821889857E+01
 0.21055167999E+01 0.18398556969E+01 0.18421681452E+01 0.18575450116E+01 0.18839713310E+01
 0.19181739461E+01 0.19559083407E+01 0.19923924008E+01 0.20228765627E+01 0.20432899966E+01
 0.20508530415E+01 0.20445245063E+01 0.20251755277E+01 0.19954450191E+01 0.19593127300E+01
 0.19214942068E+01 0.18867914730E+01 0.18595146781E+01 0.18430382478E+01 0.18395017619E+01
 0.18496369756E+01 0.18727018753E+01 0.19065169210E+01 0.19476144829E+01 0.19915235682E+01
 0.20332104398E+01 0.20676692408E+01 0.20906028719E+01 0.20990751317E+01 0.20919875517E+01
 0.20702618844E+01 0.20366833032E+01 0.19954476943E+01 0.19515247017E+01 0.19099753538E+01
 0.18753453599E+01 0.18512056410E+01 0.17407246871E+01 0.17914223770E+01 0.18534884555E+01
 0.19231295899E+01 0.19952265658E+01 0.20637800713E+01 0.21225496051E+01 0.21658227105E+01
 0.21891963716E+01 0.21902242189E+01 0.21687947446E+01 0.21271530890E+01 0.20695550042E+01
 0.20016305558E+01 0.19296023754E+01 0.18595146781E+01 0.17965869127E+01 0.17447486192E+01
 0.17063729992E+01 0.16822044649E+01 0.16714554311E+01 0.16720338580E+01 0.16808686924E+01
 0.16943160886E+01 0.17086276392E+01 0.17204364005E+01 0.17271946145E+01 0.17275028164E+01
 0.17212929051E+01 0.17098438307E+01 0.16956188973E+01 0.16819381167E+01 0.16725366695E+01
 0.16710822549E+01 0.16807118024E+01 0.17036206319E+01 0.17364997532E+01 0.18337483934E+01
 0.19403530287E+01 0.20503521334E+01 0.21564249956E+01 0.22505881395E+01 0.23250850500E+01
 0.23733605679E+01 0.23909711274E+01 0.23762538653E+01 0.23305929236E+01 0.22582053756E+01
 0.21654998431E+01 0.20601696216E+01 0.19502133076E+01 0.18430382478E+01 0.17447486192E+01
 0.16596833392E+01 0.15902367669E+01 0.15369485867E+01 0.14988017635E+01 0.14736470483E+01
 0.14586812671E+01 0.14509207658E+01 0.14476183766E+01 0.14465849291E+01 0.14464041649E+01
 0.14465560874E+01 0.14474655789E+01 0.14504744353E+01 0.14577215171E+01 0.14719214600E+01
 0.14960466946E+01 0.15329269803E+01 0.15847887260E+01 0.16527735273E+01 0.18269195110E+01
 0.19717064635E+01 0.21229409598E+01 0.22720284130E+01 0.24090761707E+01 0.25238981825E+01
 0.26072065982E+01 0.26518364244E+01 0.26537958896E+01 0.26129019232E+01 0.25328165842E+01
 0.24204650394E+01 0.22850019672E+01 0.21365833691E+01 0.19851686642E+01 0.18395017619E+01
 0.17063729992E+01 0.15902367669E+01 0.14932062866E+01 0.14153687508E+01 0.13553073400E+01
 0.13107055493E+01 0.12789243620E+01 0.12574665051E+01 0.12442830212E+01 0.12379356276E+01
 0.12376698842E+01 0.12434489225E+01 0.12559620376E+01 0.12765969590E+01 0.13073583872E+01
 0.13507064375E+01 0.14092735641E+01 0.14854276595E+01 0.15807007741E+01 0.16951702460E+01
 0.20178198693E+01 0.22135527859E+01 0.24113192473E+01 0.25993261718E+01 0.27646604720E+01
 0.28946891530E+01 0.29786569117E+01 0.30092329379E+01 0.29836720705E+01 0.29042728969E+01
 0.27779919001E+01 0.26153337858E+01 0.24288275791E+01 0.22314256740E+01 0.20350775229E+01
 0.18496369756E+01 0.16822044649E+01 0.15369485867E+01 0.14153687508E+01 0.13168771571E+01
 0.12395344833E+01 0.11807772580E+01 0.11380112868E+01 0.11090056827E+01 0.10920954099E+01
 0.10862562377E+01 0.10911246350E+01 0.11070037610E+01 0.11348619969E+01 0.11763111024E+01
 0.12335323864E+01 0.13090920037E+01 0.14055764819E+01 0.15250191330E+01 0.16681701866E+01
 0.18337443520E+01 0.23213197449E+01 0.25736342722E+01 0.28213459863E+01 0.30486843323E+01
 0.32391200981E+01 0.33773447265E+01 0.34514187009E+01 0.34546595051E+01 0.33867759749E+01
 0.32539111138E+01 0.30675902640E+01 0.28428960261E+01 0.25963373307E+01 0.23438357878E+01
 0.20991215415E+01 0.18727018753E+01 0.16714554311E+01 0.14988017635E+01 0.13553073400E+01
 0.12395344833E+01 0.11489297045E+01 0.10805843896E+01 0.10317776282E+01 0.10003004708E+01
 0.98461967125E+00 0.98394616571E+00 0.99825204821E+00 0.10282625605E+01 0.10754362732E+01
 0.11419158065E+01 0.12303879161E+01 0.13437724665E+01 0.14846886209E+01 0.16547088240E+01
 0.18534814243E+01 0.20778711297E+01 0.27563619959E+01 0.30730332165E+01 0.33751652222E+01
 0.36419274919E+01 0.38524825270E+01 0.39888125908E+01 0.40385245723E+01 0.39969613556E+01
 0.38680276289E+01 0.36634873590E+01 0.34009527238E+01 0.31011262101E+01 0.27849515606E+01
 0.24712131543E+01 0.21749109067E+01 0.19065169210E+01 0.16720338580E+01 0.14736470483E+01
 0.13107055493E+01 0.11807772580E+01 0.10805843896E+01 0.10067188131E+01 0.95613156038E+00
 0.92644791835E+00 0.91616172177E+00 0.92473684434E+00 0.95263096564E+00 0.10012602362E+01
 0.10729132228E+01 0.11705871333E+01 0.12976884119E+01 0.14575426645E+01 0.16526885151E+01
 0.18839692598E+01 0.21494955074E+01 0.24436453638E+01 0.33493041033E+01 0.37398029048E+01
 0.41007777737E+01 0.44050327265E+01 0.46268962478E+01 0.47461337748E+01 0.47513612591E+01
 0.46420748230E+01 0.44287371617E+01 0.41309038493E+01 0.37739112241E+01 0.33849783121E+01
 0.29896086881E+01 0.26089540351E+01 0.22584419823E+01 0.19476144829E+01 0.16808686924E+01
 0.14586812671E+01 0.12789243620E+01 0.11380112868E+01 0.10317776282E+01 0.95613156038E+00
 0.90754623035E+00 0.88343496483E+00 0.88240879914E+00 0.90440668951E+00 0.95069973323E+00
 0.10237732903E+01 0.11270852433E+01 0.12647007100E+01 0.14408039568E+01 0.16590614313E+01
 0.19217702964E+01 0.22287420693E+01 0.25759903389E+01 0.29544755427E+01 0.41334921973E+01
 0.46074866692E+01 0.50293800498E+01 0.53644421649E+01 0.55822804497E+01 0.56618799178E+01
 0.55953277236E+01 0.53892540484E+01 0.50636136771E+01 0.46481388690E+01 0.41773837930E+01
 0.36855728955E+01 0.32023808004E+01 0.27503656573E+01 0.23442225682E+01 0.19915235682E+01
 0.16943160886E+01 0.14509207658E+01 0.12574665051E+01 0.11090056827E+01 0.10003004708E+01
 0.92644791835E+00 0.88343496483E+00 0.86860565034E+00 0.88097838463E+00 0.92136758131E+00
 0.99229028850E+00 0.10976630135E+01 0.12423345811E+01 0.14315317346E+01 0.16702498282E+01
 0.19624980646E+01 0.23102189293E+01 0.27117764657E+01 0.31601598578E+01 0.36413504909E+01
 0.51462583859E+01 0.57105187696E+01 0.61894761543E+01 0.65404521231E+01 0.67296260513E+01
 0.67379312110E+01 0.65645193779E+01 0.62269167013E+01 0.57578267708E+01 0.51993954621E+01
 0.45963737216E+01 0.39897919139E+01 0.34124503438E+01 0.28868749452E+01 0.24256240109E+01
 0.20332104398E+01 0.17086276392E+01 0.14476183766E+01 0.12442830212E+01 0.10920954099E+01
 0.98461967125E+00 0.91616172177E+00 0.88240879914E+00 0.88097838463E+00 0.91175718809E+00
 0.97693069856E+00 0.10806742662E+01 0.12285901581E+01 0.14270570668E+01 0.16826056657E+01
 0.20012424459E+01 0.23874558113E+01 0.28426283337E+01 0.33628146002E+01 0.39362496539E+01
 0.45413605088E+01 0.64221805737E+01 0.70760487237E+01 0.75980611842E+01 0.79385803431E+01
 0.80632139092E+01 0.79589974165E+01 0.76367928807E+01 0.71292828524E+01 0.64850498371E+01
 0.57602390599E+01 0.50098473649E+01 0.42805851917E+01 0.36066247468E+01 0.30086275616E+01
 0.24955031385E+01 0.20676692408E+01 0.17204364005E+01 0.14465849291E+01 0.12379356276E+01
 0.10862562377E+01 0.98394616571E+00 0.92473684434E+00 0.90440668951E+00 0.92136758131E+00
 0.97693069856E+00 0.10751177968E+01 0.12220664569E+01 0.14252706986E+01 0.16928987806E+01
 0.20331779344E+01 0.24535203359E+01 0.29589481450E+01 0.35495712390E+01 0.42173220850E+01
 0.49427186730E+01 0.56928920606E+01 0.79829956029E+01 0.87135320509E+01 0.92508341166E+01
 0.95410687195E+01 0.95538074466E+01 0.92876982126E+01 0.87707361521E+01 0.80550190021E+01
 0.72073815895E+01 0.62983280008E+01 0.53918541364E+01 0.45381860950E+01 0.37704932956E+01
 0.31055264058E+01 0.25470870067E+01 0.20906028719E+01 0.17271946145E+01 0.14464041649E+01
 0.12376698842E+01 0.10911246350E+01 0.99825204821E+00 0.95263096564E+00 0.95069973323E+00
 0.99229028850E+00 0.10806742662E+01 0.12220664569E+01 0.14248243424E+01 0.16986914465E+01
 0.20541977062E+01 0.25019121601E+01 0.30509746179E+01 0.37064252077E+01 0.44653056474E+01
 0.53122037994E+01 0.62156222276E+01 0.71268939509E+01 0.98265444093E+01 0.10604876254E+02
 0.11114091410E+02 0.11300762251E+02 0.11144641184E+02 0.10662685354E+02 0.99057265291E+01
 0.89487631794E+01 0.78777144789E+01 0.67760422690E+01 0.57140140242E+01 0.47422671029E+01
 0.38902072365E+01 0.31686411055E+01 0.25750045218E+01 0.20990751317E+01 0.17275028164E+01
 0.14465560874E+01 0.12434489225E+01 0.11070037610E+01 0.10282625605E+01 0.10012602362E+01
 0.10237732903E+01 0.10976630135E+01 0.12285901581E+01 0.14252706986E+01 0.16986914465E+01
 0.20615266067E+01 0.25275144242E+01 0.31101520840E+01 0.38200292320E+01 0.46605075315E+01
 0.56222094122E+01 0.66777025917E+01 0.77784073042E+01 0.88556181025E+01 0.11917830905E+02
 0.12697551506E+02 0.13119925516E+02 0.13138496313E+02 0.12751153508E+02 0.12000648079E+02
 0.10965709410E+02 0.97458596592E+01 0.84445950234E+01 0.71548810582E+01 0.59491790780E+01
 0.48748251276E+01 0.39546474837E+01 0.31917251041E+01 0.25762245632E+01 0.20919875517E+01
 0.17212929051E+01 0.14474655789E+01 0.12559620376E+01 0.11348619969E+01 0.10754362732E+01
 0.10729132228E+01 0.11270852433E+01 0.12423345811E+01 0.14270570668E+01 0.16928987806E+01
 0.20541977062E+01 0.25275144242E+01 0.31305773853E+01 0.38797754843E+01 0.47856376746E+01
 0.58465143965E+01 0.70417444521E+01 0.83264761894E+01 0.96304137739E+01 0.10861940952E+02
 0.14183638579E+02 0.14901069916E+02 0.15164779859E+02 0.14944247145E+02 0.14264975914E+02
 0.13202662334E+02 0.11866810495E+02 0.10380015129E+02 0.88590353107E+01 0.74010190695E+01
 0.60756871078E+01 0.49232531717E+01 0.39574726935E+01 0.31724136560E+01 0.25506208458E+01
 0.20702618844E+01 0.17098438307E+01 0.14504744353E+01 0.12765969590E+01 0.11763111024E+01
 0.11419158065E+01 0.11705871333E+01 0.12647007100E+01 0.14315317346E+01 0.16826056657E+01
 0.20331779344E+01 0.25019121601E+01 0.31101520840E+01 0.38797754843E+01 0.48287663539E+01
 0.59644008521E+01 0.72751599322E+01 0.87236018988E+01 0.10242694350E+02 0.11737356194E+02
 0.13091932999E+02 0.16509894357E+02 0.17086204030E+02 0.17111619639E+02 0.16583002584E+02
 0.15563096137E+02 0.14165153136E+02 0.12528290118E+02 0.10792895046E+02 0.90821436564E+01
 0.74909407358E+01 0.60812397586E+01 0.48827658307E+01 0.38984020245E+01 0.31126978691E+01
 0.25009853882E+01 0.20366833032E+01 0.16956188973E+01 0.14577215171E+01 0.13073583872E+01
 0.12335323864E+01 0.12303879161E+01 0.12976884119E+01 0.14408039568E+01 0.16702498282E+01
 0.20012424459E+01 0.24535203359E+01 0.30509746179E+01 0.38200292320E+01 0.47856376746E+01
 0.59644008521E+01 0.73556147897E+01 0.89324600664E+01 0.10636035398E+02 0.12374131619E+02
 0.14025571850E+02 0.15450840229E+02 0.18741668827E+02 0.19088588342E+02 0.18798435305E+02
 0.17907732792E+02 0.16523185823E+02 0.14794942044E+02 0.12885352016E+02 0.10943884098E+02
 0.90919200559E+01 0.74157545814E+01 0.59652871268E+01 0.47573719829E+01 0.37832680684E+01
 0.30185119876E+01 0.24325006076E+01 0.19954476943E+01 0.16819381167E+01 0.14719214600E+01
 0.13507064375E+01 0.13090920037E+01 0.13437724665E+01 0.14575426645E+01 0.16590614313E+01
 0.19624980646E+01 0.23874558113E+01 0.29589481450E+01 0.37064252077E+01 0.46605075315E+01
 0.58465143965E+01 0.72751599322E+01 0.89324600664E+01 0.10771744062E+02 0.12709858435E+02
 0.14628212844E+02 0.16379353803E+02 0.17801303773E+02 0.20690042373E+02 0.20721983965E+02
 0.20057297378E+02 0.18781079183E+02 0.17044141177E+02 0.15025927174E+02 0.12901030804E+02
 0.10817609155E+02 0.88873902552E+01 0.71829090484E+01 0.57391329971E+01 0.45590487865E+01
 0.36228299353E+01 0.28985943961E+01 0.23518437401E+01 0.19515247017E+01 0.16725366695E+01
 0.14960466946E+01 0.14092735641E+01 0.14055764819E+01 0.14846886209E+01 0.16526885151E+01
 0.19217702964E+01 0.23102189293E+01 0.28426283337E+01 0.35495712390E+01 0.44653056474E+01
 0.56222094122E+01 0.70417444521E+01 0.87236018988E+01 0.10636035398E+02 0.12709858435E+02
 0.14836672862E+02 0.16871340302E+02 0.18641060860E+02 0.19965625591E+02 0.22151200434E+02
 0.21805121398E+02 0.20744493699E+02 0.19102753180E+02 0.17067088149E+02 0.14832781476E+02
 0.12573654205E+02 0.10426953677E+02 0.84887907480E+01 0.68147472352E+01 0.54237320069E+01
 0.43054304126E+01 0.34307827891E+01 0.27629989312E+01 0.22661683649E+01 0.19099753538E+01
 0.16710822549E+01 0.15329269803E+01 0.14854276595E+01 0.15250191330E+01 0.16547088240E+01
 0.18839692598E+01 0.22287420693E+01 0.27117764657E+01 0.33628146002E+01 0.42173220850E+01
 0.53122037994E+01 0.66777025917E+01 0.83264761894E+01 0.10242694350E+02 0.12374131619E+02
 0.14628212844E+02 0.16871340302E+02 0.18932730836E+02 0.20618083680E+02 0.21737628956E+02
 0.22949908662E+02 0.22204883337E+02 0.20774801802E+02 0.18833734005E+02 0.16589313029E+02
 0.14236664833E+02 0.11937226238E+02 0.98105308181E+01 0.79337370525E+01 0.63443768791E+01
 0.50459162635E+01 0.40167764555E+01 0.32215813358E+01 0.26216594732E+01 0.21821889857E+01
 0.18753453599E+01 0.16807118024E+01 0.15847887260E+01 0.15807007741E+01 0.16681701866E+01
 0.18534814243E+01 0.21494955074E+01 0.25759903389E+01 0.31601598578E+01 0.39362496539E+01
 0.49427186730E+01 0.62156222276E+01 0.77784073042E+01 0.96304137739E+01 0.11737356194E+02
 0.14025571850E+02 0.16379353803E+02 0.18641060860E+02 0.20618083680E+02 0.22102304272E+02
 0.22914199983E+02 0.22985057589E+02 0.21870440870E+02 0.20144343818E+02 0.18006646295E+02
 0.15665005985E+02 0.13300524472E+02 0.11054528192E+02 0.90254553384E+01 0.72705913671E+01
 0.58101093927E+01 0.46341425072E+01 0.37130317250E+01 0.30085922066E+01 0.24832939525E+01
 0.21055167999E+01 0.18512056410E+01 0.17036206319E+01 0.16527735273E+01 0.16951702460E+01
 0.18337443520E+01 0.20778711297E+01 0.24436453638E+01 0.29544755427E+01 0.36413504909E+01
 0.45413605088E+01 0.56928920606E+01 0.71268939509E+01 0.88556181025E+01 0.10861940952E+02
 0.13091932999E+02 0.15450840229E+02 0.17801303773E+02 0.19965625591E+02 0.21737628956E+02
 0.22914199983E+02 0.23348714061E+02 0.21544356721E+02 0.19973105310E+02 0.17997446706E+02
 0.15807330787E+02 0.13579386030E+02 0.11437286451E+02 0.94704225526E+01 0.77389158939E+01
 0.62736166423E+01 0.50772312135E+01 0.41301016234E+01 0.33998826521E+01 0.28514970585E+01
 0.24541595500E+01 0.21845085862E+01 0.20268654312E+01 0.19723121906E+01 0.20178238030E+01
 0.21659279601E+01 0.24249689706E+01 0.28099429483E+01 0.33434946178E+01 0.40558680087E+01
 0.49820593502E+01 0.61550479129E+01 0.75959685163E+01 0.93043452837E+01 0.11251988778E+02
 0.13381510918E+02 0.15606270295E+02 0.17806304843E+02 0.19809254425E+02 0.21424006074E+02
 0.22484847652E+02 0.22874782715E+02 0.22548725069E+02 0.19973105310E+02 0.18293619482E+02
 0.16320782630E+02 0.14229604472E+02 0.12155020038E+02 0.10198536435E+02 0.84335857749E+01
 0.69054974008E+01 0.56312943705E+01 0.46031567946E+01 0.37963694723E+01 0.31790833744E+01
 0.27204799892E+01 0.23955235392E+01 0.21864578200E+01 0.20823216915E+01 0.20778843945E+01
 0.21729248854E+01 0.23722031054E+01 0.26861104412E+01 0.31317144310E+01 0.37334040303E+01
 0.45217037545E+01 0.55287783161E+01 0.67803601219E+01 0.82859857809E+01 0.10030971160E+02
 0.11972690985E+02 0.14040420902E+02 0.16135221041E+02 0.18125581212E+02 0.19838607754E+02
 0.21104534519E+02 0.21790496156E+02 0.21820741564E+02 0.21191736576E+02 0.17997446706E+02
 0.16320782630E+02 0.14454843766E+02 0.12534262139E+02 0.10667835072E+02 0.89392438252E+01
 0.74061326817E+01 0.60989524315E+01 0.50224843336E+01 0.41617600611E+01 0.34908417472E+01
 0.29813088152E+01 0.26081401468E+01 0.23524555274E+01 0.22018495206E+01 0.21495055059E+01
 0.21931808806E+01 0.23347624195E+01 0.25806158243E+01 0.29425422049E+01 0.34387563972E+01
 0.40938275540E+01 0.49362199226E+01 0.59925242565E+01 0.72789682816E+01 0.87926404492E+01
 0.10505490816E+02 0.12362491499E+02 0.14282400945E+02 0.16158536399E+02 0.17858560454E+02
 0.19226351415E+02 0.20122055535E+02 0.20450542584E+02 0.20175923461E+02 0.19328088691E+02
 0.15807330787E+02 0.14229604472E+02 0.12534262139E+02 0.10829996269E+02 0.92058423399E+01
 0.77281871083E+01 0.64385016789E+01 0.53533367266E+01 0.44682660677E+01 0.37651243946E+01
 0.32200268775E+01 0.28097840817E+01 0.25156505149E+01 0.23245725071E+01 0.22287651519E+01
 0.22246613056E+01 0.23121292175E+01 0.24944305859E+01 0.27789094072E+01 0.31780179263E+01
 0.37099260670E+01 0.43976099634E+01 0.52653214470E+01 0.63321547290E+01 0.76039498019E+01
 0.90660545535E+01 0.10679294655E+02 0.12379641561E+02 0.14080079853E+02 0.15673396332E+02
 0.17037397285E+02 0.18044611149E+02 0.18589442452E+02 0.18613395140E+02 0.18113820503E+02
 0.17144412932E+02 0.13579386030E+02 0.12155020038E+02 0.10667835072E+02 0.92058423399E+01
 0.78393495928E+01 0.66172510563E+01 0.55656181796E+01 0.46898756188E+01 0.39803312622E+01
 0.34191472748E+01 0.29865970105E+01 0.26653633811E+01 0.24426195435E+01 0.23102571359E+01
 0.22640355749E+01 0.23026023467E+01 0.24270944979E+01 0.26415014170E+01 0.29535229861E+01
 0.33754082885E+01 0.39240166330E+01 0.46191242247E+01 0.54792350289E+01 0.65151463210E+01
 0.77228529826E+01 0.90780651780E+01 0.10533963397E+02 0.12022228651E+02 0.13456310675E+02
 0.14736554546E+02 0.15758587359E+02 0.16426792185E+02 0.16671839082E+02 0.16466910733E+02
 0.15834438536E+02 0.14840573606E+02 0.11437286451E+02 0.10198536435E+02 0.89392438252E+01
 0.77281871083E+01 0.66172510563E+01 0.56387968935E+01 0.48062551898E+01 0.41179144303E+01
 0.35625318150E+01 0.31249446918E+01 0.27904167575E+01 0.25472249851E+01 0.23875191242E+01
 0.23068903943E+01 0.23034263003E+01 0.23770462461E+01 0.25295141415E+01 0.27650328980E+01
 0.30910510678E+01 0.35187712393E+01 0.40626582668E+01 0.47381732868E+01 0.55573962647E+01
 0.65231790487E+01 0.76234347947E+01 0.88273916898E+01 0.10084887544E+02 0.11328629895E+02
 0.12478784340E+02 0.13449727540E+02 0.14159490079E+02 0.14541824386E+02 0.14558592329E+02
 0.14208078490E+02 0.13525405290E+02 0.12574794979E+02 0.94704225526E+01 0.84335857749E+01
 0.74061326817E+01 0.64385016789E+01 0.55656181796E+01 0.48062551898E+01 0.41652570824E+01
 0.36376475356E+01 0.32132237017E+01 0.28805414200E+01 0.26296881124E+01 0.24536046017E+01
 0.23480954432E+01 0.23110993895E+01 0.23419670586E+01 0.24412229558E+01 0.26108483361E+01
 0.28548718661E+01 0.31799712558E+01 0.35956312198E+01 0.41132117057E+01 0.47433934919E+01
 0.54920550626E+01 0.63554296500E+01 0.73159224094E+01 0.83399166335E+01 0.93782873964E+01
 0.10369560697E+02 0.11245248265E+02 0.11937009708E+02 0.12385365555E+02 0.12548966765E+02
 0.12412152614E+02 0.11988069735E+02 0.11316019003E+02 0.10454178104E+02 0.77389158939E+01
 0.69054974008E+01 0.60989524315E+01 0.53533367266E+01 0.46898756188E+01 0.41179144303E+01
 0.36376475356E+01 0.32435697574E+01 0.29277753175E+01 0.26825641581E+01 0.25020095568E+01
 0.23823740715E+01 0.23216826269E+01 0.23190825306E+01 0.23745034913E+01 0.24887273469E+01
 0.26637209780E+01 0.29030785304E+01 0.32123725250E+01 0.35989927538E+01 0.40709348334E+01
 0.46342803817E+01 0.52896883032E+01 0.60287361912E+01 0.68311653749E+01 0.76639400944E+01
 0.84825867742E+01 0.92347312460E+01 0.98654006900E+01 0.10323571642E+02 0.10569275490E+02
 0.10580028561E+02 0.10354839078E+02 0.99143812430E+01 0.92972743039E+01 0.85538137573E+01
 0.62736166423E+01 0.56312943705E+01 0.50224843336E+01 0.44682660677E+01 0.39803312622E+01
 0.35625318150E+01 0.32132237017E+01 0.29277753175E+01 0.27007823417E+01 0.25276185146E+01
 0.24050972562E+01 0.23313650023E+01 0.23054770194E+01 0.23270963296E+01 0.23964547095E+01
 0.25144855599E+01 0.26830479989E+01 0.29051941445E+01 0.31852825851E+01 0.35285516472E+01
 0.39398160023E+01 0.44212772330E+01 0.49698352735E+01 0.55745668437E+01 0.62151282961E+01
 0.68616988816E+01 0.74767212119E+01 0.80182994693E+01 0.84448815192E+01 0.87207084411E+01
 0.88212169939E+01 0.87371785620E+01 0.84763359770E+01 0.80619973292E+01 0.75291009938E+01
 0.69189285895E+01 0.50772312135E+01 0.46031567946E+01 0.41617600611E+01 0.37651243946E+01
 0.34191472748E+01 0.31249446918E+01 0.28805414200E+01 0.26825641581E+01 0.25276185146E+01
 0.24130500869E+01 0.23370675690E+01 0.22985505333E+01 0.22969083409E+01 0.23320882170E+01
 0.24046174195E+01 0.25156239190E+01 0.26669034542E+01 0.28610175734E+01 0.31011942448E+01
 0.33907406687E+01 0.37318476916E+01 0.41239059370E+01 0.45616450814E+01 0.50335577427E+01
 0.55211363141E+01 0.59993209325E+01 0.64382644346E+01 0.68062749665E+01 0.70736719988E+01
 0.72170886464E+01 0.72233661170E+01 0.70919342731E+01 0.68348874216E+01 0.64747793445E+01
 0.60408958766E+01 0.55649815680E+01 0.41301016234E+01 0.37963694723E+01 0.34908417472E+01
 0.32200268775E+01 0.29865970105E+01 0.27904167575E+01 0.26296881124E+01 0.25020095568E+01
 0.24050972562E+01 0.23370675690E+01 0.22964601321E+01 0.22822780822E+01 0.22941265865E+01
 0.23323106173E+01 0.23977815680E+01 0.24920065950E+01 0.26168807892E+01 0.27746437545E+01
 0.29676163113E+01 0.31976060983E+01 0.34649719883E+01 0.37674606517E+01 0.40990309931E+01
 0.44489836562E+01 0.48017344623E+01 0.51374519770E+01 0.54336134489E+01 0.56674249297E+01
 0.58189125267E+01 0.58741794410E+01 0.58279731685E+01 0.56847029554E+01 0.54575576983E+01
 0.51660797011E+01 0.48329744599E+01 0.44809411903E+01 0.33998826521E+01 0.31790833744E+01
 0.29813088152E+01 0.28097840817E+01 0.26653633811E+01 0.25472249851E+01 0.24536046017E+01
 0.23823740715E+01 0.23313650023E+01 0.22985505333E+01 0.22822780822E+01 0.22815847617E+01
 0.22964305118E+01 0.23276950930E+01 0.23769671413E+01 0.24462705917E+01 0.25378162468E+01
 0.26537482676E+01 0.27958082309E+01 0.29648600135E+01 0.31602587125E+01 0.33791173936E+01
 0.36156308535E+01 0.38606792131E+01 0.41018965343E+01 0.43243151828E+01 0.45116656604E+01
 0.46483489148E+01 0.47218589555E+01 0.47250780262E+01 0.46576982203E+01 0.45262657614E+01
 0.43428662341E+01 0.41229253746E+01 0.38827766251E+01 0.36375708213E+01 0.28514970585E+01
 0.27204799892E+01 0.26081401468E+01 0.25156505149E+01 0.24426195435E+01 0.23875191242E+01
 0.23480954432E+01 0.23216826269E+01 0.23054770194E+01 0.22969083409E+01 0.22941265865E+01
 0.22964305118E+01 0.23044252183E+01 0.23198532788E+01 0.23452156598E+01 0.23833346759E+01
 0.24369462662E+01 0.25083465393E+01 0.25990794832E+01 0.27096173116E+01 0.28389838992E+01
 0.29843437797E+01 0.31406711912E+01 0.33006358689E+01 0.34548056846E+01 0.35922563249E+01
 0.37016826433E+01 0.37729913812E+01 0.37990789763E+01 0.37772528761E+01 0.37097864672E+01
 0.36034233209E+01 0.34680397179E+01 0.33149131308E+01 0.31550757626E+01 0.29981071717E+01
 0.24541595500E+01 0.23955235392E+01 0.23524555274E+01 0.23245725071E+01 0.23102571359E+01
 0.23068903943E+01 0.23110993895E+01 0.23190825306E+01 0.23270963296E+01 0.23320882170E+01
 0.23323106173E+01 0.23276950930E+01 0.23198532788E+01 0.23117247712E+01 0.23070065587E+01
 0.23095346672E+01 0.23227580281E+01 0.23493668482E+01 0.23910471442E+01 0.24482861594E+01
 0.25201809071E+01 0.26042665051E+01 0.26964212688E+01 0.27909153802E+01 0.28806864455E+01
 0.29579410720E+01 0.30151251570E+01 0.30461412574E+01 0.30475040389E+01 0.30190592036E+01
 0.29640139777E+01 0.28882728681E+01 0.27993114527E+01 0.27049466162E+01 0.26123275261E+01
 0.25273067037E+01 0.21845085862E+01 0.21864578200E+01 0.22018495206E+01 0.22287651519E+01
 0.22640355749E+01 0.23034263003E+01 0.23419670586E+01 0.23745034913E+01 0.23964547095E+01
 0.24046174195E+01 0.23977815680E+01 0.23769671413E+01 0.23452156598E+01 0.23070065587E+01
 0.22674744184E+01 0.22316428165E+01 0.22038381833E+01 0.21873289956E+01 0.21841352857E+01
 0.21949328680E+01 0.22190137146E+01 0.22542974190E+01 0.22974047113E+01 0.23438326428E+01
 0.23883075783E+01 0.24253776179E+01 0.24502080424E+01 0.24594162321E+01 0.24517166316E+01
 0.24281806367E+01 0.23920265436E+01 0.23479991073E+01 0.23015303124E+01 0.22579281831E+01
 0.22217738020E+01 0.21965614995E+01 0.20268654312E+01 0.20823216915E+01 0.21495055059E+01
 0.22246613056E+01 0.23026023467E+01 0.23770462461E+01 0.24412229558E+01 0.24887273469E+01
 0.25144855599E+01 0.25156239190E+01 0.24920065950E+01 0.24462705917E+01 0.23833346759E+01
 0.23095346672E+01 0.22316428165E+01 0.21560063702E+01 0.20879288121E+01 0.20313079489E+01
 0.19884897591E+01 0.19602814751E+01 0.19460651859E+01 0.19439675191E+01 0.19510794952E+01
 0.19637593404E+01 0.19780521324E+01 0.19902173480E+01 0.19972977679E+01 0.19976202559E+01
 0.19911049136E+01 0.19792871233E+01 0.19650353294E+01 0.19520487242E+01 0.19442805141E+01
 0.19454131086E+01 0.19584393469E+01 0.19853441618E+01 0.19723121906E+01 0.20778843945E+01
 0.21931808806E+01 0.23121292175E+01 0.24270944979E+01 0.25295141415E+01 0.26108483361E+01
 0.26637209780E+01 0.26830479989E+01 0.26669034542E+01 0.26168807892E+01 0.25378162468E+01
 0.24369462662E+01 0.23227580281E+01 0.22038381833E+01 0.20879288121E+01 0.19812740183E+01
 0.18882697462E+01 0.18113958753E+01 0.17513695633E+01 0.17074277759E+01 0.16776648798E+01
 0.16594017819E+01 0.16495884631E+01 0.16452253017E+01 0.16437687591E+01 0.16434863983E+01
 0.16437218237E+01 0.16450121468E+01 0.16490084337E+01 0.16582102550E+01 0.16755921177E+01
 0.17042035290E+01 0.17467718883E+01 0.18053012256E+01 0.18806765032E+01 0.20178238030E+01
 0.21729248854E+01 0.23347624195E+01 0.24944305859E+01 0.26415014170E+01 0.27650328980E+01
 0.28548718661E+01 0.29030785304E+01 0.29051941445E+01 0.28610175734E+01 0.27746437545E+01
 0.26537482676E+01 0.25083465393E+01 0.23493668482E+01 0.21873289956E+01 0.20313079489E+01
 0.18882697462E+01 0.17628015039E+01 0.16571927427E+01 0.15717700744E+01 0.15053704374E+01
 0.14558583865E+01 0.14206218655E+01 0.13970046203E+01 0.13826589061E+01 0.13758243964E+01
 0.13755379262E+01 0.13817560021E+01 0.13953621870E+01 0.14180548590E+01 0.14521409109E+01
 0.15002606899E+01 0.15650445614E+01 0.16486903912E+01 0.17524712609E+01 0.18762150225E+01
 0.21659279601E+01 0.23722031054E+01 0.25806158243E+01 0.27789094072E+01 0.29535229861E+01
 0.30910510678E+01 0.31799712558E+01 0.32123725250E+01 0.31852825851E+01 0.31011942448E+01
 0.29676163113E+01 0.27958082309E+01 0.25990794832E+01 0.23910471442E+01 0.21841352857E+01
 0.19884897591E+01 0.18113958753E+01 0.16571927427E+01 0.15275859699E+01 0.14222130582E+01
 0.13393183580E+01 0.12764143677E+01 0.12308339981E+01 0.12001318180E+01 0.11823567858E+01
 0.11762428711E+01 0.11813329133E+01 0.11980190211E+01 0.12274955328E+01 0.12716472989E+01
 0.13328814657E+01 0.14138664944E+01 0.15171310672E+01 0.16445177912E+01 0.17965376097E+01
 0.19717003198E+01 0.24249689706E+01 0.26861104412E+01 0.29425422049E+01 0.31780179263E+01
 0.33754082885E+01 0.35187712393E+01 0.35956312198E+01 0.35989927538E+01 0.35285516472E+01
 0.33907406687E+01 0.31976060983E+01 0.29648600135E+01 0.27096173116E+01 0.24482861594E+01
 0.21949328680E+01 0.19602814751E+01 0.17513695633E+01 0.15717700744E+01 0.14222130582E+01
 0.13014100043E+01 0.12068948139E+01 0.11357435928E+01 0.10851099859E+01 0.10525863669E+01
 0.10364377541E+01 0.10357457824E+01 0.10504755270E+01 0.10814711124E+01 0.11303909697E+01
 0.11995826563E+01 0.12918678520E+01 0.14101890944E+01 0.15570816622E+01 0.17339703666E+01
 0.19403421670E+01 0.21729122344E+01 0.28099429483E+01 0.31317144310E+01 0.34387563972E+01
 0.37099260670E+01 0.39240166330E+01 0.40626582668E+01 0.41132117057E+01 0.40709348334E+01
 0.39398160023E+01 0.37318476916E+01 0.34649719883E+01 0.31602587125E+01 0.28389838992E+01
 0.25201809071E+01 0.22190137146E+01 0.19460651859E+01 0.17074277759E+01 0.15053704374E+01
 0.13393183580E+01 0.12068948139E+01 0.11048348631E+01 0.10296842894E+01 0.97829765121E+00
 0.94818876430E+00 0.93776573940E+00 0.94645789860E+00 0.97474823677E+00 0.10241345133E+01
 0.10970208590E+01 0.11965094076E+01 0.13260561874E+01 0.14889697036E+01 0.16877310470E+01
 0.19231164374E+01 0.21931655278E+01 0.24921671731E+01 0.33434946178E+01 0.37334040303E+01
 0.40938275540E+01 0.43976099634E+01 0.46191242247E+01 0.47381732868E+01 0.47433934919E+01
 0.46342803817E+01 0.44212772330E+01 0.41239059370E+01 0.37674606517E+01 0.33791173936E+01
 0.29843437797E+01 0.26042665051E+01 0.22542974190E+01 0.19439675191E+01 0.16776648798E+01
 0.14558583865E+01 0.12764143677E+01 0.11357435928E+01 0.10296842894E+01 0.95415319075E+00
 0.90563553008E+00 0.88155560479E+00 0.88053062706E+00 0.90249981962E+00 0.94872884093E+00
 0.10216926384E+01 0.11248364248E+01 0.12622155237E+01 0.14380114102E+01 0.16558940880E+01
 0.19181665131E+01 0.22246459095E+01 0.25713533239E+01 0.29492614076E+01 0.40558680087E+01
 0.45217037545E+01 0.49362199226E+01 0.52653214470E+01 0.54792350289E+01 0.55573962647E+01
 0.54920550626E+01 0.52896883032E+01 0.49698352735E+01 0.45616450814E+01 0.40990309931E+01
 0.36156308535E+01 0.31406711912E+01 0.26964212688E+01 0.22974047113E+01 0.19510794952E+01
 0.16594017819E+01 0.14206218655E+01 0.12308339981E+01 0.10851099859E+01 0.97829765121E+00
 0.90563553008E+00 0.86326638202E+00 0.84865027970E+00 0.86084676773E+00 0.90063160866E+00
 0.97041637892E+00 0.10739691079E+01 0.12159888077E+01 0.14016032103E+01 0.16357877512E+01
 0.19225921423E+01 0.22640200607E+01 0.26585059877E+01 0.30991493718E+01 0.35721229568E+01
 0.49820593502E+01 0.55287783161E+01 0.59925242565E+01 0.63321547290E+01 0.65151463210E+01
 0.65231790487E+01 0.63554296500E+01 0.60287361912E+01 0.55745668437E+01 0.50335577427E+01
 0.44489836562E+01 0.38606792131E+01 0.33006358689E+01 0.27909153802E+01 0.23438326428E+01
 0.19637593404E+01 0.16495884631E+01 0.13970046203E+01 0.12001318180E+01 0.10525863669E+01
 0.94818876430E+00 0.88155560479E+00 0.84865027970E+00 0.84725416671E+00 0.87726254434E+00
 0.94071025518E+00 0.10415011952E+01 0.11849250653E+01 0.13771006988E+01 0.16244109600E+01
 0.19328251090E+01 0.23068675740E+01 0.27480058303E+01 0.32524427567E+01 0.38086760771E+01
 0.43955920379E+01 0.61550479129E+01 0.67803601219E+01 0.72789682816E+01 0.76039498019E+01
 0.77228529826E+01 0.76234347947E+01 0.73159224094E+01 0.68311653749E+01 0.62151282961E+01
 0.55211363141E+01 0.48017344623E+01 0.41018965343E+01 0.34548056846E+01 0.28806864455E+01
 0.23883075783E+01 0.19780521324E+01 0.16452253017E+01 0.13826589061E+01 0.11823567858E+01
 0.10364377541E+01 0.93776573940E+00 0.88053062706E+00 0.86084676773E+00 0.87726254434E+00
 0.93098721540E+00 0.10257129100E+01 0.11671081292E+01 0.13622036897E+01 0.16188269211E+01
 0.19450080114E+01 0.23480623212E+01 0.28329844575E+01 0.33999402376E+01 0.40410521608E+01
 0.47372735558E+01 0.54566280022E+01 0.75959685163E+01 0.82859857809E+01 0.87926404492E+01
 0.90660545535E+01 0.90780651780E+01 0.88273916898E+01 0.83399166335E+01 0.76639400944E+01
 0.68616988816E+01 0.59993209325E+01 0.51374519770E+01 0.43243151828E+01 0.35922563249E+01
 0.29579410720E+01 0.24253776179E+01 0.19902173480E+01 0.16437687591E+01 0.13758243964E+01
 0.11762428711E+01 0.10357457824E+01 0.94645789860E+00 0.90249981962E+00 0.90063160866E+00
 0.94071025518E+00 0.10257129100E+01 0.11613068694E+01 0.13552062570E+01 0.16165812940E+01
 0.19555354247E+01 0.23823345495E+01 0.29058836810E+01 0.35310283232E+01 0.42546854298E+01
 0.50615442129E+01 0.59207982276E+01 0.67855564896E+01 0.93043452837E+01 0.10030971160E+02
 0.10505490816E+02 0.10679294655E+02 0.10533963397E+02 0.10084887544E+02 0.93782873964E+01
 0.84825867742E+01 0.74767212119E+01 0.64382644346E+01 0.54336134489E+01 0.45116656604E+01
 0.37016826433E+01 0.30151251570E+01 0.24502080424E+01 0.19972977679E+01 0.16434863983E+01
 0.13755379262E+01 0.11813329133E+01 0.10504755270E+01 0.97474823677E+00 0.94872884093E+00
 0.97041637892E+00 0.10415011952E+01 0.11671081292E+01 0.13552062570E+01 0.16160224115E+01
 0.19615756333E+01 0.24050536209E+01 0.29594425574E+01 0.36347801383E+01 0.44337873855E+01
 0.53464929551E+01 0.63454379988E+01 0.73834503301E+01 0.83954172775E+01 0.11251988778E+02
 0.11972690985E+02 0.12362491499E+02 0.12379641561E+02 0.12022228651E+02 0.11328629895E+02
 0.10369560697E+02 0.92347312460E+01 0.80182994693E+01 0.68062749665E+01 0.56674249297E+01
 0.46483489148E+01 0.37729913812E+01 0.30461412574E+01 0.24594162321E+01 0.19976202559E+01
 0.16437218237E+01 0.13817560021E+01 0.11980190211E+01 0.10814711124E+01 0.10241345133E+01
 0.10216926384E+01 0.10739691079E+01 0.11849250653E+01 0.13622036897E+01 0.16165812940E+01
 0.19615756333E+01 0.24130053559E+01 0.29878426620E+01 0.37015403304E+01 0.45633457419E+01
 0.55700365121E+01 0.66996991864E+01 0.79078027860E+01 0.91273072922E+01 0.10273330131E+02
 0.13381510918E+02 0.14040420902E+02 0.14282400945E+02 0.14080079853E+02 0.13456310675E+02
 0.12478784340E+02 0.11245248265E+02 0.98654006900E+01 0.84448815192E+01 0.70736719988E+01
 0.58189125267E+01 0.47218589555E+01 0.37990789763E+01 0.30475040389E+01 0.24517166316E+01
 0.19911049136E+01 0.16450121468E+01 0.13953621870E+01 0.12274955328E+01 0.11303909697E+01
 0.10970208590E+01 0.11248364248E+01 0.12159888077E+01 0.13771006988E+01 0.16188269211E+01
 0.19555354247E+01 0.24050536209E+01 0.29878426620E+01 0.37245919855E+01 0.46314366744E+01
 0.57129976484E+01 0.69548879345E+01 0.83181923700E+01 0.97378743803E+01 0.11125612393E+02
 0.12376759693E+02 0.15606270295E+02 0.16135221041E+02 0.16158536399E+02 0.15673396332E+02
 0.14736554546E+02 0.13449727540E+02 0.11937009708E+02 0.10323571642E+02 0.87207084411E+01
 0.72170886464E+01 0.58741794410E+01 0.47250780262E+01 0.37772528761E+01 0.30190592036E+01
 0.24281806367E+01 0.19792871233E+01 0.16490084337E+01 0.14180548590E+01 0.12716472989E+01
 0.11995826563E+01 0.11965094076E+01 0.12622155237E+01 0.14016032103E+01 0.16244109600E+01
 0.19450080114E+01 0.23823345495E+01 0.29594425574E+01 0.37015403304E+01 0.46314366744E+01
 0.57622112425E+01 0.70886309632E+01 0.85801133193E+01 0.10177554822E+02 0.11794390901E+02
 0.13321073293E+02 0.14633323118E+02 0.17806304843E+02 0.18125581212E+02 0.17858560454E+02
 0.17037397285E+02 0.15758587359E+02 0.14159490079E+02 0.12385365555E+02 0.10569275490E+02
 0.88212169939E+01 0.72233661170E+01 0.58279731685E+01 0.46576982203E+01 0.37097864672E+01
 0.29640139777E+01 0.23920265436E+01 0.19650353294E+01 0.16582102550E+01 0.14521409109E+01
 0.13328814657E+01 0.12918678520E+01 0.13260561874E+01 0.14380114102E+01 0.16357877512E+01
 0.19328251090E+01 0.23480623212E+01 0.29058836810E+01 0.36347801383E+01 0.45633457419E+01
 0.57129976484E+01 0.70886309632E+01 0.86701781112E+01 0.10407928206E+02 0.12222099148E+02
 0.14005034545E+02 0.15625607973E+02 0.16939132484E+02 0.19809254425E+02 0.19838607754E+02
 0.19226351415E+02 0.18044611149E+02 0.16426792185E+02 0.14541824386E+02 0.12548966765E+02
 0.10580028561E+02 0.87371785620E+01 0.70919342731E+01 0.56847029554E+01 0.45262657614E+01
 0.36034233209E+01 0.28882728681E+01 0.23479991073E+01 0.19520487242E+01 0.16755921177E+01
 0.15002606899E+01 0.14138664944E+01 0.14101890944E+01 0.14889697036E+01 0.16558940880E+01
 0.19225921423E+01 0.23068675740E+01 0.28329844575E+01 0.35310283232E+01 0.44337873855E+01
 0.55700365121E+01 0.69548879345E+01 0.85801133193E+01 0.10407928206E+02 0.12369345482E+02
 0.14364876692E+02 0.16265490565E+02 0.17914463297E+02 0.19141738196E+02 0.21424006074E+02
 0.21104534519E+02 0.20122055535E+02 0.18589442452E+02 0.16671839082E+02 0.14558592329E+02
 0.12412152614E+02 0.10354839078E+02 0.84763359770E+01 0.68348874216E+01 0.54575576983E+01
 0.43428662341E+01 0.34680397179E+01 0.27993114527E+01 0.23015303124E+01 0.19442805141E+01
 0.17042035290E+01 0.15650445614E+01 0.15171310672E+01 0.15570816622E+01 0.16877310470E+01
 0.19181665131E+01 0.22640200607E+01 0.27480058303E+01 0.33999402376E+01 0.42546854298E+01
 0.53464929551E+01 0.66996991864E+01 0.83181923700E+01 0.10177554822E+02 0.12222099148E+02
 0.14364876692E+02 0.16486813455E+02 0.18429826775E+02 0.20004599053E+02 0.21042231878E+02
 0.22484847652E+02 0.21790496156E+02 0.20450542584E+02 0.18613395140E+02 0.16466910733E+02
 0.14208078490E+02 0.11988069735E+02 0.99143812430E+01 0.80619973292E+01 0.64747793445E+01
 0.51660797011E+01 0.41229253746E+01 0.33149131308E+01 0.27049466162E+01 0.22579281831E+01
 0.19454131086E+01 0.17467718883E+01 0.16486903912E+01 0.16445177912E+01 0.17339703666E+01
 0.19231164374E+01 0.22246459095E+01 0.26585059877E+01 0.32524427567E+01 0.40410521608E+01
 0.50615442129E+01 0.63454379988E+01 0.79078027860E+01 0.97378743803E+01 0.11794390901E+02
 0.14005034545E+02 0.16265490565E+02 0.18429826775E+02 0.20303061887E+02 0.21694767915E+02
 0.22451649677E+02 0.22874782715E+02 0.21820741564E+02 0.20175923461E+02 0.18113820503E+02
 0.15834438536E+02 0.13525405290E+02 0.11316019003E+02 0.92972743039E+01 0.75291009938E+01
 0.60408958766E+01 0.48329744599E+01 0.38827766251E+01 0.31550757626E+01 0.26123275261E+01
 0.22217738020E+01 0.19584393469E+01 0.18053012256E+01 0.17524712609E+01 0.17965376097E+01
 0.19403421670E+01 0.21931655278E+01 0.25713533239E+01 0.30991493718E+01 0.38086760771E+01
 0.47372735558E+01 0.59207982276E+01 0.73834503301E+01 0.91273072922E+01 0.11125612393E+02
 0.13321073293E+02 0.15625607973E+02 0.17914463297E+02 0.20004599053E+02 0.21694767915E+02
 0.22807919198E+02 0.23217558766E+02 0.22548725069E+02 0.21191736576E+02 0.19328088691E+02
 0.17144412932E+02 0.14840573606E+02 0.12574794979E+02 0.10454178104E+02 0.85538137573E+01
 0.69189285895E+01 0.55649815680E+01 0.44809411903E+01 0.36375708213E+01 0.29981071717E+01
 0.25273067037E+01 0.21965614995E+01 0.19853441618E+01 0.18806765032E+01 0.18762150225E+01
 0.19717003198E+01 0.21729122344E+01 0.24921671731E+01 0.29492614076E+01 0.35721229568E+01
 0.43955920379E+01 0.54566280022E+01 0.67855564896E+01 0.83954172775E+01 0.10273330131E+02
 0.12376759693E+02 0.14633323118E+02 0.16939132484E+02 0.19141738196E+02 0.21042231878E+02
 0.22451649677E+02 0.23217558766E+02 0.23251247545E+02 0.20437551061E+02 0.18910496736E+02
 0.17054442329E+02 0.15009943603E+02 0.12939326465E+02 0.10957453900E+02 0.91363455125E+01
 0.75304932884E+01 0.61710914409E+01 0.50629882744E+01 0.41888610932E+01 0.35188035635E+01
 0.30206748335E+01 0.26673685272E+01 0.24397227341E+01 0.23261862411E+01 0.23213554461E+01
 0.24249765583E+01 0.26419557349E+01 0.29832845143E+01 0.34673935385E+01 0.41206615700E+01
 0.49750136828E+01 0.60610743986E+01 0.73977843165E+01 0.89824210011E+01 0.10785983124E+02
 0.12755912906E+02 0.14822010465E+02 0.16875715065E+02 0.18754990657E+02 0.20316592963E+02
 0.21443913624E+02 0.22047084298E+02 0.22073638686E+02 0.21521033454E+02 0.18910496736E+02
 0.17319193197E+02 0.15480164060E+02 0.13542397662E+02 0.11632658260E+02 0.98317678074E+01
 0.82037623555E+01 0.67922258563E+01 0.56155501473E+01 0.46680748928E+01 0.39274359152E+01
 0.33645224206E+01 0.29519623597E+01 0.26688609708E+01 0.25018023027E+01 0.24436747644E+01
 0.24921823222E+01 0.26492246600E+01 0.29214518577E+01 0.33216501416E+01 0.38699710997E+01
 0.45933013713E+01 0.55209895617E+01 0.66765307833E+01 0.80674002633E+01 0.96773415371E+01
 0.11464871291E+02 0.13367737008E+02 0.15307222602E+02 0.17161761841E+02 0.18780753619E+02
 0.20041131348E+02 0.20849229157E+02 0.21142617354E+02 0.20897539976E+02 0.20133709044E+02
 0.17054442329E+02 0.15480164060E+02 0.13751074245E+02 0.11988895633E+02 0.10279375293E+02
 0.86933796464E+01 0.72841253180E+01 0.60819054166E+01 0.50929314847E+01 0.43041636897E+01
 0.36919766605E+01 0.32309425699E+01 0.28998934751E+01 0.26843360640E+01 0.25760259977E+01
 0.25713804458E+01 0.26702638449E+01 0.28759363622E+01 0.31961593460E+01 0.36447583925E+01
 0.42422731359E+01 0.50139681618E+01 0.59840923495E+01 0.71670858976E+01 0.85586467551E+01
 0.10130558112E+02 0.11831513549E+02 0.13592172356E+02 0.15328596996E+02 0.16922637562E+02
 0.18242992123E+02 0.19188888213E+02 0.19691182640E+02 0.19713148671E+02 0.19253116589E+02
 0.18344738569E+02 0.15009943603E+02 0.13542397662E+02 0.11988895633E+02 0.10433930441E+02
 0.89513595246E+01 0.76004483785E+01 0.64204895705E+01 0.54282083567E+01 0.46203158765E+01
 0.39803105096E+01 0.34866448784E+01 0.31194234482E+01 0.28640529445E+01 0.27118141028E+01
 0.26585361694E+01 0.27029889193E+01 0.28461965980E+01 0.30920476533E+01 0.34487894165E+01
 0.39303785532E+01 0.45562346397E+01 0.53480397500E+01 0.63232424730E+01 0.74867138581E+01
 0.88235984360E+01 0.10296458754E+02 0.11847644176E+02 0.13404538172E+02 0.14883702396E+02
 0.16183522672E+02 0.17195941619E+02 0.17842522198E+02 0.18076351058E+02 0.17880925876E+02
 0.17270032064E+02 0.16287860872E+02 0.12939326465E+02 0.11632658260E+02 0.10279375293E+02
 0.89513595246E+01 0.77096110340E+01 0.65987199944E+01 0.56433572780E+01 0.48489926697E+01
 0.42067356320E+01 0.37002651742E+01 0.33123788219E+01 0.30293821103E+01 0.28426736857E+01
 0.27480381951E+01 0.27439635215E+01 0.28303890981E+01 0.30086869402E+01 0.32828180368E+01
 0.36609099286E+01 0.41560845694E+01 0.47852762962E+01 0.55652263061E+01 0.65059719153E+01
 0.76036329291E+01 0.88352362350E+01 0.10157766608E+02 0.11511510219E+02 0.12825459077E+02
 0.14022187757E+02 0.15020976897E+02 0.15741008251E+02 0.16123873968E+02 0.16140576112E+02
 0.15789899107E+02 0.15098319713E+02 0.14121536804E+02 0.10957453900E+02 0.98317678074E+01
 0.86933796464E+01 0.76004483785E+01 0.65987199944E+01 0.57175299108E+01 0.49691160835E+01
 0.43515877746E+01 0.38543041761E+01 0.34637131722E+01 0.31679204358E+01 0.29590005796E+01
 0.28330241339E+01 0.27886646031E+01 0.28256714584E+01 0.29442393914E+01 0.31455989721E+01
 0.34334291545E+01 0.38152011973E+01 0.43023596349E+01 0.49084046214E+01 0.56445864930E+01
 0.65139933822E+01 0.75058671114E+01 0.85923326202E+01 0.97288887975E+01 0.10858277497E+02
 0.11915922364E+02 0.12835255647E+02 0.13552828712E+02 0.14014366132E+02 0.14182120147E+02
 0.14041892389E+02 0.13605581618E+02 0.12909062894E+02 0.12005397953E+02 0.91363455125E+01
 0.82037623555E+01 0.72841253180E+01 0.64204895705E+01 0.56433572780E+01 0.49691160835E+01
 0.44014509299E+01 0.39350773375E+01 0.35604564115E+01 0.32680526861E+01 0.30510269835E+01
 0.29059254413E+01 0.28317700398E+01 0.28285715764E+01 0.28963144717E+01 0.30349687575E+01
 0.32454527997E+01 0.35309880978E+01 0.38980065704E+01 0.43557232497E+01 0.49137999551E+01
 0.55782347955E+01 0.63464841797E+01 0.72034266528E+01 0.81197115965E+01 0.90531862282E+01
 0.99528512178E+01 0.10763976830E+02 0.11433230276E+02 0.11913583808E+02 0.12169268025E+02
 0.12180435115E+02 0.11946215180E+02 0.11484843419E+02 0.10830811353E+02 0.10030316096E+02
 0.75304932884E+01 0.67922258563E+01 0.60819054166E+01 0.54282083567E+01 0.48489926697E+01
 0.43515877746E+01 0.39350773375E+01 0.35937463801E+01 0.33206349902E+01 0.31102042476E+01
 0.29594877207E+01 0.28677488227E+01 0.28353014517E+01 0.28623889456E+01 0.29487624277E+01
 0.30941196834E+01 0.32991421856E+01 0.35665741486E+01 0.39016299407E+01 0.43111003557E+01
 0.48009435865E+01 0.53727772812E+01 0.60202521745E+01 0.67265204038E+01 0.74637636640E+01
 0.81950478528E+01 0.88779409693E+01 0.94688936356E+01 0.99276047031E+01 0.10221109037E+02
 0.10327466043E+02 0.10238552973E+02 0.99611828215E+01 0.95161442173E+01 0.89355373303E+01
 0.82591687496E+01 0.61710914409E+01 0.56155501473E+01 0.50929314847E+01 0.46203158765E+01
 0.42067356320E+01 0.38543041761E+01 0.35604564115E+01 0.33206349902E+01 0.31306263617E+01
 0.29878869499E+01 0.28916624484E+01 0.28422615482E+01 0.28401314642E+01 0.28852757762E+01
 0.29772591747E+01 0.31157730400E+01 0.33015032318E+01 0.35368209075E+01 0.38257347331E+01
 0.41727484005E+01 0.45807009390E+01 0.50480996855E+01 0.55667138293E+01 0.61202198825E+01
 0.66844346607E+01 0.72291604876E+01 0.77211529650E+01 0.81275545220E+01 0.84193552053E+01
 0.85746609562E+01 0.85814398498E+01 0.84391702958E+01 0.81588997079E+01 0.77617195572E+01
 0.72761277471E+01 0.67348000879E+01 0.50629882744E+01 0.46680748928E+01 0.43041636897E+01
 0.39803105096E+01 0.37002651742E+01 0.34637131722E+01 0.32680526861E+01 0.31102042476E+01
 0.29878869499E+01 0.29000434588E+01 0.28465480363E+01 0.28276332134E+01 0.28434300011E+01
 0.28938026177E+01 0.29785136202E+01 0.30976756304E+01 0.32522966262E+01 0.34445494012E+01
 0.36773983206E+01 0.39534666519E+01 0.42733544004E+01 0.46338354923E+01 0.50264434994E+01
 0.54369090510E+01 0.58456972922E+01 0.62295532981E+01 0.65637200622E+01 0.68245123310E+01
 0.69920516230E+01 0.70528950909E+01 0.70020357118E+01 0.68436812434E+01 0.65905665117E+01
 0.62620694292E+01 0.58816612269E+01 0.54741439749E+01 0.41888610932E+01 0.39274359152E+01
 0.36919766605E+01 0.34866448784E+01 0.33123788219E+01 0.31679204358E+01 0.30510269835E+01
 0.29594877207E+01 0.28916624484E+01 0.28465480363E+01 0.28236121939E+01 0.28226262511E+01
 0.28435778604E+01 0.28866631370E+01 0.29523778005E+01 0.30417041229E+01 0.31562667505E+01
 0.32982358226E+01 0.34698170259E+01 0.36723420199E+01 0.39051350020E+01 0.41644307109E+01
 0.44426549490E+01 0.47283136338E+01 0.50065596243E+01 0.52603360881E+01 0.54719691672E+01
 0.56251409440E+01 0.57070975528E+01 0.57106820160E+01 0.56355880490E+01 0.54883948473E+01
 0.52814023470E+01 0.50306893386E+01 0.47539186712E+01 0.44682870825E+01 0.35188035635E+01
 0.33645224206E+01 0.32309425699E+01 0.31194234482E+01 0.30293821103E+01 0.29590005796E+01
 0.29059254413E+01 0.28677488227E+01 0.28422615482E+01 0.28276332134E+01 0.28226262511E+01
 0.28267886749E+01 0.28405142721E+01 0.28649567347E+01 0.29018786963E+01 0.29534895380E+01
 0.30222384127E+01 0.31104948236E+01 0.32200814118E+01 0.33516742613E+01 0.35041473449E+01
 0.36740122906E+01 0.38551320410E+01 0.40388116763E+01 0.42142606808E+01 0.43694052782E+01
 0.44920896740E+01 0.45716619862E+01 0.46007044776E+01 0.45764157229E+01 0.45011543710E+01
 0.43819587994E+01 0.42292450495E+01 0.40551163959E+01 0.38717270030E+01 0.36900002526E+01
 0.30206748335E+01 0.29519623597E+01 0.28998934751E+01 0.28640529445E+01 0.28426736857E+01
 0.28330241339E+01 0.28317700398E+01 0.28353014517E+01 0.28401314642E+01 0.28434300011E+01
 0.28435778604E+01 0.28405142721E+01 0.28357302640E+01 0.28319413999E+01 0.28325905203E+01
 0.28413284753E+01 0.28615570329E+01 0.28960513763E+01 0.29466304181E+01 0.30138355573E+01
 0.30966285256E+01 0.31921810576E+01 0.32958313386E+01 0.34012335109E+01 0.35007162964E+01
 0.35859201475E+01 0.36487865539E+01 0.36828204389E+01 0.36843124803E+01 0.36531025441E+01
 0.35926038459E+01 0.35090963331E+01 0.34105522022E+01 0.33053637645E+01 0.32012927326E+01
 0.31047938011E+01 0.26673685272E+01 0.26688609708E+01 0.26843360640E+01 0.27118141028E+01
 0.27480381951E+01 0.27886646031E+01 0.28285715764E+01 0.28623889456E+01 0.28852757762E+01
 0.28938026177E+01 0.28866631370E+01 0.28649567347E+01 0.28319413999E+01 0.27923578779E+01
 0.27515661698E+01 0.27147511844E+01 0.26863515623E+01 0.26697200785E+01 0.26669352049E+01
 0.26786913477E+01 0.27042483778E+01 0.27414472791E+01 0.27867946518E+01 0.28356362780E+01
 0.28824902684E+01 0.29216263417E+01 0.29478939553E+01 0.29576464906E+01 0.29494892748E+01
 0.29245874555E+01 0.28864139073E+01 0.28400276962E+01 0.27911426216E+01 0.27452787789E+01
 0.27071713367E+01 0.26804332232E+01 0.24397227341E+01 0.25018023027E+01 0.25760259977E+01
 0.26585361694E+01 0.27439635215E+01 0.28256714584E+01 0.28963144717E+01 0.29487624277E+01
 0.29772591747E+01 0.29785136202E+01 0.29523778005E+01 0.29018786963E+01 0.28325905203E+01
 0.27515661698E+01 0.26661760877E+01 0.25831601324E+01 0.25080268208E+01 0.24447669413E+01
 0.23957827469E+01 0.23619507170E+01 0.23427599378E+01 0.23364777001E+01 0.23403258459E+01
 0.23507129438E+01 0.23636016347E+01 0.23750477341E+01 0.23818503651E+01 0.23821652046E+01
 0.23758998977E+01 0.23647478371E+01 0.23518287010E+01 0.23410586503E+01 0.23364753730E+01
 0.23417058508E+01 0.23596175981E+01 0.23920746732E+01 0.23261862411E+01 0.24436747644E+01
 0.25713804458E+01 0.27029889193E+01 0.28303890981E+01 0.29442393914E+01 0.30349687575E+01
 0.30941196834E+01 0.31157730400E+01 0.30976756304E+01 0.30417041229E+01 0.29534895380E+01
 0.28413284753E+01 0.27147511844E+01 0.25831601324E+01 0.24548085788E+01 0.23361967037E+01
 0.22318406367E+01 0.21443240144E+01 0.20745247703E+01 0.20219097221E+01 0.19848266296E+01
 0.19607887592E+01 0.19467938216E+01 0.19397164518E+01 0.19367725509E+01 0.19359991099E+01
 0.19366417138E+01 0.19393227194E+01 0.19459145662E+01 0.19591582555E+01 0.19821675542E+01
 0.20179624886E+01 0.20690895860E+01 0.21373013426E+01 0.22232503607E+01 0.23213554461E+01
 0.24921823222E+01 0.26702638449E+01 0.28461965980E+01 0.30086869402E+01 0.31455989721E+01
 0.32454527997E+01 0.32991421856E+01 0.33015032318E+01 0.32522966262E+01 0.31562667505E+01
 0.30222384127E+01 0.28615570329E+01 0.26863515623E+01 0.25080268208E+01 0.23361967037E+01
 0.21781074759E+01 0.20385080239E+01 0.19198590428E+01 0.18227301753E+01 0.17462485496E+01
 0.16885281728E+01 0.16470700621E+01 0.16191449684E+01 0.16021723514E+01 0.15941016761E+01
 0.15937642150E+01 0.16011055218E+01 0.16172007334E+01 0.16440386042E+01 0.16841667993E+01
 0.17403115863E+01 0.18150116433E+01 0.19102374448E+01 0.20269730696E+01 0.21647772528E+01
 0.24249765583E+01 0.26492246600E+01 0.28759363622E+01 0.30920476533E+01 0.32828180368E+01
 0.34334291545E+01 0.35309880978E+01 0.35665741486E+01 0.35368209075E+01 0.34445494012E+01
 0.32982358226E+01 0.31104948236E+01 0.28960513763E+01 0.26697200785E+01 0.24447669413E+01
 0.22318406367E+01 0.20385080239E+01 0.18693117254E+01 0.17261855215E+01 0.16090422011E+01
 0.15163894912E+01 0.14458923698E+01 0.13948509616E+01 0.13606019673E+01 0.13408748899E+01
 0.13341173048E+01 0.13397474199E+01 0.13582559492E+01 0.13911165363E+01 0.14405440977E+01
 0.15091784052E+01 0.15997338253E+01 0.17146003818E+01 0.18553674103E+01 0.20222666700E+01
 0.22135649970E+01 0.26419557349E+01 0.29214518577E+01 0.31961593460E+01 0.34487894165E+01
 0.36609099286E+01 0.38152011973E+01 0.38980065704E+01 0.39016299407E+01 0.38257347331E+01
 0.36773983206E+01 0.34698170259E+01 0.32200814118E+01 0.29466304181E+01 0.26669352049E+01
 0.23957827469E+01 0.21443240144E+01 0.19198590428E+01 0.17261855215E+01 0.15642781901E+01
 0.14330888663E+01 0.13303143690E+01 0.12530424837E+01 0.11982565735E+01 0.11632400628E+01
 0.11459264172E+01 0.11451832707E+01 0.11609702565E+01 0.11943311947E+01 0.12472427220E+01
 0.13223656638E+01 0.14227165590E+01 0.15512486345E+01 0.17103340323E+01 0.19011438778E+01
 0.21229201296E+01 0.23721738564E+01 0.29832845143E+01 0.33216501416E+01 0.36447583925E+01
 0.39303785532E+01 0.41560845694E+01 0.43023596349E+01 0.43557232497E+01 0.43111003557E+01
 0.41727484005E+01 0.39534666519E+01 0.36723420199E+01 0.33516742613E+01 0.30138355573E+01
 0.26786913477E+01 0.23619507170E+01 0.20745247703E+01 0.18227301753E+01 0.16090422011E+01
 0.14330888663E+01 0.12926449142E+01 0.11844822078E+01 0.11050340468E+01 0.10509095659E+01
 0.10193158294E+01 0.10084034112E+01 0.10174978352E+01 0.10471748434E+01 0.10991789136E+01
 0.11762154225E+01 0.12816380326E+01 0.14190315584E+01 0.15916830666E+01 0.18019263447E+01
 0.20503307110E+01 0.23347313898E+01 0.26492099387E+01 0.34673935385E+01 0.38699710997E+01
 0.42422731359E+01 0.45562346397E+01 0.47852762962E+01 0.49084046214E+01 0.49137999551E+01
 0.48009435865E+01 0.45807009390E+01 0.42733544004E+01 0.39051350020E+01 0.35041473449E+01
 0.30966285256E+01 0.27042483778E+01 0.23427599378E+01 0.20219097221E+01 0.17462485496E+01
 0.15163894912E+01 0.13303143690E+01 0.11844822078E+01 0.10746747724E+01 0.99664327015E+00
 0.94664189072E+00 0.92187424030E+00 0.92082135155E+00 0.94341536765E+00 0.99104723771E+00
 0.10664096817E+01 0.11731834591E+01 0.13155957974E+01 0.14978890330E+01 0.17236907850E+01
 0.19952007508E+01 0.23121057569E+01 0.26702676214E+01 0.30604359747E+01 0.41206615700E+01
 0.45933013713E+01 0.50139681618E+01 0.53480397500E+01 0.55652263061E+01 0.56445864930E+01
 0.55782347955E+01 0.53727772812E+01 0.50480996855E+01 0.46338354923E+01 0.41644307109E+01
 0.36740122906E+01 0.31921810576E+01 0.27414472791E+01 0.23364777001E+01 0.19848266296E+01
 0.16885281728E+01 0.14458923698E+01 0.12530424837E+01 0.11050340468E+01 0.99664327015E+00
 0.92298971407E+00 0.88008468792E+00 0.86529083316E+00 0.87763392432E+00 0.91792238497E+00
 0.98865536907E+00 0.10937249158E+01 0.12379569232E+01 0.14265638163E+01 0.16645372946E+01
 0.19558907458E+01 0.23025752098E+01 0.27029671986E+01 0.31500749160E+01 0.36299096266E+01
 0.49750136828E+01 0.55209895617E+01 0.59840923495E+01 0.63232424730E+01 0.65059719153E+01
 0.65139933822E+01 0.63464841797E+01 0.60202521745E+01 0.55667138293E+01 0.50264434994E+01
 0.44426549490E+01 0.38551320410E+01 0.32958313386E+01 0.27867946518E+01 0.23403258459E+01
 0.19607887592E+01 0.16470700621E+01 0.13948509616E+01 0.11982565735E+01 0.10509095659E+01
 0.94664189072E+00 0.88008468792E+00 0.84721458753E+00 0.84582027487E+00 0.87579663092E+00
 0.93917165377E+00 0.10398378870E+01 0.11830710041E+01 0.13749764743E+01 0.16219291645E+01
 0.19298980014E+01 0.23034120454E+01 0.27439439791E+01 0.32477022402E+01 0.38031954296E+01
 0.43893314651E+01 0.60610743986E+01 0.66765307833E+01 0.71670858976E+01 0.74867138581E+01
 0.76036329291E+01 0.75058671114E+01 0.72034266528E+01 0.67265204038E+01 0.61202198825E+01
 0.54369090510E+01 0.47283136338E+01 0.40388116763E+01 0.34012335109E+01 0.28356362780E+01
 0.23507129438E+01 0.19467938216E+01 0.16191449684E+01 0.13606019673E+01 0.11632400628E+01
 0.10193158294E+01 0.92187424030E+00 0.86529083316E+00 0.84582027487E+00 0.86206232912E+00
 0.91517611075E+00 0.10087242326E+01 0.11482020119E+01 0.13404573170E+01 0.15931626465E+01
 0.19142625399E+01 0.23110714205E+01 0.27886351590E+01 0.33471740349E+01 0.39788699254E+01
 0.46648198239E+01 0.53733823276E+01 0.73977843165E+01 0.80674002633E+01 0.85586467551E+01
 0.88235984360E+01 0.88352362350E+01 0.85923326202E+01 0.81197115965E+01 0.74637636640E+01
 0.66844346607E+01 0.58456972922E+01 0.50065596243E+01 0.42142606808E+01 0.35007162964E+01
 0.28824902684E+01 0.23636016347E+01 0.19397164518E+01 0.16021723514E+01 0.13408748899E+01
 0.11459264172E+01 0.10084034112E+01 0.92082135155E+00 0.87763392432E+00 0.87579663092E+00
 0.91517611075E+00 0.99856956610E+00 0.11313194698E+01 0.13207512069E+01 0.15756737277E+01
 0.19059303230E+01 0.23216582996E+01 0.28317365558E+01 0.34410157330E+01 0.41464075580E+01
 0.49326656309E+01 0.57693422372E+01 0.66104644434E+01 0.89824210011E+01 0.96773415371E+01
 0.10130558112E+02 0.10296458754E+02 0.10157766608E+02 0.97288887975E+01 0.90531862282E+01
 0.81950478528E+01 0.72291604876E+01 0.62295532981E+01 0.52603360881E+01 0.43694052782E+01
 0.35859201475E+01 0.29216263417E+01 0.23750477341E+01 0.19367725509E+01 0.15941016761E+01
 0.13341173048E+01 0.11451832707E+01 0.10174978352E+01 0.94341536765E+00 0.91792238497E+00
 0.93917165377E+00 0.10087242326E+01 0.11313194698E+01 0.13143650129E+01 0.15674823157E+01
 0.19021855241E+01 0.23313356197E+01 0.28677229256E+01 0.35211815264E+01 0.42941232571E+01
 0.51762592827E+01 0.61401620577E+01 0.71395527312E+01 0.81114843751E+01 0.10785983124E+02
 0.11464871291E+02 0.11831513549E+02 0.11847644176E+02 0.11511510219E+02 0.10858277497E+02
 0.99528512178E+01 0.88779409693E+01 0.77211529650E+01 0.65637200622E+01 0.54719691672E+01
 0.44920896740E+01 0.36487865539E+01 0.29478939553E+01 0.23818503651E+01 0.19359991099E+01
 0.15937642150E+01 0.13397474199E+01 0.11609702565E+01 0.10471748434E+01 0.99104723771E+00
 0.98865536907E+00 0.10398378870E+01 0.11482020119E+01 0.13207512069E+01 0.15674823157E+01
 0.19011674270E+01 0.23370405263E+01 0.28916315745E+01 0.35798959366E+01 0.44102909488E+01
 0.53785230849E+01 0.64618190163E+01 0.76159022648E+01 0.87759952935E+01 0.98618317160E+01
 0.12755912906E+02 0.13367737008E+02 0.13592172356E+02 0.13404538172E+02 0.12825459077E+02
 0.11915922364E+02 0.10763976830E+02 0.94688936356E+01 0.81275545220E+01 0.68245123310E+01
 0.56251409440E+01 0.45716619862E+01 0.36828204389E+01 0.29576464906E+01 0.23821652046E+01
 0.19366417138E+01 0.16011055218E+01 0.13582559492E+01 0.11943311947E+01 0.10991789136E+01
 0.10664096817E+01 0.10937249158E+01 0.11830710041E+01 0.13404573170E+01 0.15756737277E+01
 0.19021855241E+01 0.23370405263E+01 0.29000227280E+01 0.36109855036E+01 0.44846898826E+01
 0.55236965417E+01 0.67113680125E+01 0.80076097223E+01 0.93488566348E+01 0.10651936499E+02
 0.11820768622E+02 0.14822010465E+02 0.15307222602E+02 0.15328596996E+02 0.14883702396E+02
 0.14022187757E+02 0.12835255647E+02 0.11433230276E+02 0.99276047031E+01 0.84193552053E+01
 0.69920516230E+01 0.57070975528E+01 0.46007044776E+01 0.36843124803E+01 0.29494892748E+01
 0.23758998977E+01 0.19393227194E+01 0.16172007334E+01 0.13911165363E+01 0.12472427220E+01
 0.11762154225E+01 0.11731834591E+01 0.12379569232E+01 0.13749764743E+01 0.15931626465E+01
 0.19059303230E+01 0.23313356197E+01 0.28916315745E+01 0.36109855036E+01 0.45103324863E+01
 0.55996280384E+01 0.68696526342E+01 0.82865219356E+01 0.97908263413E+01 0.11300632560E+02
 0.12716309345E+02 0.13927081737E+02 0.16875715065E+02 0.17161761841E+02 0.16922637562E+02
 0.16183522672E+02 0.15020976897E+02 0.13552828712E+02 0.11913583808E+02 0.10221109037E+02
 0.85746609562E+01 0.70528950909E+01 0.57106820160E+01 0.45764157229E+01 0.36531025441E+01
 0.29245874555E+01 0.23647478371E+01 0.19459145662E+01 0.16440386042E+01 0.14405440977E+01
 0.13223656638E+01 0.12816380326E+01 0.13155957974E+01 0.14265638163E+01 0.16219291645E+01
 0.19142625399E+01 0.23216582996E+01 0.28677229256E+01 0.35798959366E+01 0.44846898826E+01
 0.55996280384E+01 0.69239247091E+01 0.84316368039E+01 0.10070011914E+02 0.11762166608E+02
 0.13410580620E+02 0.14899303813E+02 0.16094620197E+02 0.18754990657E+02 0.18780753619E+02
 0.18242992123E+02 0.17195941619E+02 0.15741008251E+02 0.14014366132E+02 0.12169268025E+02
 0.10327466043E+02 0.85814398498E+01 0.70020357118E+01 0.56355880490E+01 0.45011543710E+01
 0.35926038459E+01 0.28864139073E+01 0.23518287010E+01 0.19591582555E+01 0.16841667993E+01
 0.15091784052E+01 0.14227165590E+01 0.14190315584E+01 0.14978890330E+01 0.16645372946E+01
 0.19298980014E+01 0.23110714205E+01 0.28317365558E+01 0.35211815264E+01 0.44102909488E+01
 0.55236965417E+01 0.68696526342E+01 0.84316368039E+01 0.10165524548E+02 0.12002235648E+02
 0.13851152797E+02 0.15594376502E+02 0.17079696368E+02 0.18168298389E+02 0.20316592963E+02
 0.20041131348E+02 0.19188888213E+02 0.17842522198E+02 0.16123873968E+02 0.14182120147E+02
 0.12180435115E+02 0.10238552973E+02 0.84391702958E+01 0.68436812434E+01 0.54883948473E+01
 0.43819587994E+01 0.35090963331E+01 0.28400276962E+01 0.23410586503E+01 0.19821675542E+01
 0.17403115863E+01 0.15997338253E+01 0.15512486345E+01 0.15916830666E+01 0.17236907850E+01
 0.19558907458E+01 0.23034120454E+01 0.27886351590E+01 0.34410157330E+01 0.42941232571E+01
 0.53785230849E+01 0.67113680125E+01 0.82865219356E+01 0.10070011914E+02 0.12002235648E+02
 0.14002289092E+02 0.15955710489E+02 0.17700791991E+02 0.19086242360E+02 0.19987167457E+02
 0.21443913624E+02 0.20849229157E+02 0.19691182640E+02 0.18076351058E+02 0.16140576112E+02
 0.14041892389E+02 0.11946215180E+02 0.99611828215E+01 0.81588997079E+01 0.65905665117E+01
 0.52814023470E+01 0.42292450495E+01 0.34105522022E+01 0.27911426216E+01 0.23364753730E+01
 0.20179624886E+01 0.18150116433E+01 0.17146003818E+01 0.17103340323E+01 0.18019263447E+01
 0.19952007508E+01 0.23025752098E+01 0.27439439791E+01 0.33471740349E+01 0.41464075580E+01
 0.51762592827E+01 0.64618190163E+01 0.80076097223E+01 0.97908263413E+01 0.11762166608E+02
 0.13851152797E+02 0.15955710489E+02 0.17912838297E+02 0.19562604056E+02 0.20766840787E+02
 0.21415506982E+02 0.22047084298E+02 0.21142617354E+02 0.19713148671E+02 0.17880925876E+02
 0.15789899107E+02 0.13605581618E+02 0.11484843419E+02 0.95161442173E+01 0.77617195572E+01
 0.62620694292E+01 0.50306893386E+01 0.40551163959E+01 0.33053637645E+01 0.27452787789E+01
 0.23417058508E+01 0.20690895860E+01 0.19102374448E+01 0.18553674103E+01 0.19011438778E+01
 0.20503307110E+01 0.23121057569E+01 0.27029671986E+01 0.32477022402E+01 0.39788699254E+01
 0.49326656309E+01 0.61401620577E+01 0.76159022648E+01 0.93488566348E+01 0.11300632560E+02
 0.13410580620E+02 0.15594376502E+02 0.17700791991E+02 0.19562604056E+02 0.21033913551E+02
 0.21989937921E+02 0.22339646405E+02 0.22073638686E+02 0.20897539976E+02 0.19253116589E+02
 0.17270032064E+02 0.15098319713E+02 0.12909062894E+02 0.10830811353E+02 0.89355373303E+01
 0.72761277471E+01 0.58816612269E+01 0.47539186712E+01 0.38717270030E+01 0.32012927326E+01
 0.27071713367E+01 0.23596175981E+01 0.21373013426E+01 0.20269730696E+01 0.20222666700E+01
 0.21229201296E+01 0.23347313898E+01 0.26702676214E+01 0.31500749160E+01 0.38031954296E+01
 0.46648198239E+01 0.57693422372E+01 0.71395527312E+01 0.87759952935E+01 0.10651936499E+02
 0.12716309345E+02 0.14899303813E+02 0.17079696368E+02 0.19086242360E+02 0.20766840787E+02
 0.21989937921E+02 0.22648219606E+02 0.22677095297E+02 0.21521033454E+02 0.20133709044E+02
 0.18344738569E+02 0.16287860872E+02 0.14121536804E+02 0.12005397953E+02 0.10030316096E+02
 0.82591687496E+01 0.67348000879E+01 0.54741439749E+01 0.44682870825E+01 0.36900002526E+01
 0.31047938011E+01 0.26804332232E+01 0.23920746732E+01 0.22232503607E+01 0.21647772528E+01
 0.22135649970E+01 0.23721738564E+01 0.26492099387E+01 0.30604359747E+01 0.36299096266E+01
 0.43893314651E+01 0.53733823276E+01 0.66104644434E+01 0.81114843751E+01 0.98618317160E+01
 0.11820768622E+02 0.13927081737E+02 0.16094620197E+02 0.18168298389E+02 0.19987167457E+02
 0.21415506982E+02 0.22339646405E+02 0.22677095297E+02 0.22395104309E+02 0.18993844996E+02
 0.17749611377E+02 0.16187461832E+02 0.14392380690E+02 0.12516589702E+02 0.10698389393E+02
 0.90109368607E+01 0.75133292250E+01 0.62423442640E+01 0.52069380710E+01 0.43926354152E+01
 0.37722839465E+01 0.33173045112E+01 0.30049707516E+01 0.28205913237E+01 0.27564212684E+01
 0.28099606283E+01 0.29832628450E+01 0.32835931142E+01 0.37249926089E+01 0.43294089239E+01
 0.51250079219E+01 0.61395373579E+01 0.73892422361E+01 0.88675986299E+01 0.10540114443E+02
 0.12349188087E+02 0.14223886430E+02 0.16033478447E+02 0.17621221654E+02 0.18895952776E+02
 0.19821415970E+02 0.20386797908E+02 0.20587162845E+02 0.20420053195E+02 0.19887334706E+02
 0.17749611377E+02 0.16420402771E+02 0.14825231705E+02 0.13087904526E+02 0.11350455617E+02
 0.96941151090E+01 0.81848557329E+01 0.68709377649E+01 0.57747958485E+01 0.48935833478E+01
 0.42073351445E+01 0.36899993197E+01 0.33183613338E+01 0.30762501069E+01 0.29545377961E+01
 0.29493067828E+01 0.30604004681E+01 0.32913818453E+01 0.36508722536E+01 0.41543403241E+01
 0.48243627329E+01 0.56869779189E+01 0.67632153926E+01 0.80579872675E+01 0.95513032122E+01
 0.11196924235E+02 0.12929948461E+02 0.14672156723E+02 0.16286237866E+02 0.17642791433E+02
 0.18676828114E+02 0.19369562864E+02 0.19721820704E+02 0.19736945316E+02 0.19415109786E+02
 0.18753170375E+02 0.16187461832E+02 0.14825231705E+02 0.13285431435E+02 0.11694173272E+02
 0.10133564021E+02 0.86731355667E+01 0.73689095086E+01 0.62543587019E+01 0.53380594428E+01
 0.46088747052E+01 0.40455541563E+01 0.36262338189E+01 0.33343721989E+01 0.31602013617E+01
 0.30992100239E+01 0.31500909332E+01 0.33138887016E+01 0.35948235479E+01 0.40021994351E+01
 0.45518922718E+01 0.52652815700E+01 0.61639465518E+01 0.72604862206E+01 0.85485774052E+01
 0.99970132464E+01 0.11551360888E+02 0.13142774445E+02 0.14691805864E+02 0.16074929121E+02
 0.17189982100E+02 0.17992090855E+02 0.18474114067E+02 0.18642635255E+02 0.18501912371E+02
 0.18048421986E+02 0.17275309604E+02 0.14392380690E+02 0.13087904526E+02 0.11694173272E+02
 0.10285270453E+02 0.89303877150E+01 0.76891773568E+01 0.66026859350E+01 0.56891090165E+01
 0.49462773522E+01 0.43592115421E+01 0.39091128332E+01 0.35802468102E+01 0.33628551673E+01
 0.32524895031E+01 0.32477430283E+01 0.33485251724E+01 0.35560687626E+01 0.38745808864E+01
 0.43133654450E+01 0.48875653808E+01 0.56157180295E+01 0.65134398255E+01 0.75845793015E+01
 0.88131678497E+01 0.10160130692E+02 0.11566977209E+02 0.12964858877E+02 0.14280936822E+02
 0.15417981704E+02 0.16297337862E+02 0.16887653394E+02 0.17186463522E+02 0.17199209018E+02
 0.16926324619E+02 0.16362536206E+02 0.15508667444E+02 0.12516589702E+02 0.11350455617E+02
 0.10133564021E+02 0.89303877150E+01 0.77997211019E+01 0.67860983125E+01 0.59144941724E+01
 0.51905665944E+01 0.46059528196E+01 0.41460345369E+01 0.37969634987E+01 0.35496196448E+01
 0.33999899658E+01 0.33472065707E+01 0.33912679509E+01 0.35320868938E+01 0.37704235202E+01
 0.41100624065E+01 0.45596952991E+01 0.51327074829E+01 0.58436781747E+01 0.67018063974E+01
 0.77031540829E+01 0.88247890437E+01 0.10023786245E+02 0.11242114923E+02 0.12415340418E+02
 0.13480767590E+02 0.14372299815E+02 0.15031329846E+02 0.15433424107E+02 0.15574875607E+02
 0.15456783572E+02 0.15078242810E+02 0.14441901555E+02 0.13569419359E+02 0.10698389393E+02
 0.96941151090E+01 0.86731355667E+01 0.76891773568E+01 0.67860983125E+01 0.59922293474E+01
 0.53189814168E+01 0.47639920149E+01 0.43172168689E+01 0.39673888640E+01 0.37064855857E+01
 0.35310817300E+01 0.34410493330E+01 0.34371795515E+01 0.35194627604E+01 0.36870825885E+01
 0.39400901875E+01 0.42816946554E+01 0.47195462055E+01 0.52645889108E+01 0.59270031962E+01
 0.67100758691E+01 0.76040100164E+01 0.85822175803E+01 0.96020661646E+01 0.10610247572E+02
 0.11550660598E+02 0.12371540072E+02 0.13029420801E+02 0.13487951439E+02 0.13725613693E+02
 0.13735904827E+02 0.13518628398E+02 0.13079418720E+02 0.12438048715E+02 0.11630094371E+02
 0.90109368607E+01 0.81848557329E+01 0.73689095086E+01 0.66026859350E+01 0.59144941724E+01
 0.53189814168E+01 0.48184435592E+01 0.44071091426E+01 0.40765486881E+01 0.38200907274E+01
 0.36348433143E+01 0.35211987434E+01 0.34808193071E+01 0.35145708229E+01 0.36216416775E+01
 0.38003551824E+01 0.40502170955E+01 0.43739289015E+01 0.47778992193E+01 0.52703722571E+01
 0.58573409645E+01 0.65374038069E+01 0.72973379904E+01 0.81102322061E+01 0.89373225466E+01
 0.97331866751E+01 0.10452364963E+02 0.11054941871E+02 0.11509615614E+02 0.11794452282E+02
 0.11896498277E+02 0.11811262620E+02 0.11542485533E+02 0.11102310417E+02 0.10511842272E+02
 0.98016228245E+01 0.75133292250E+01 0.68709377649E+01 0.62543587019E+01 0.56891090165E+01
 0.51905665944E+01 0.47639920149E+01 0.44071091426E+01 0.41141658147E+01 0.38798450555E+01
 0.37016038978E+01 0.35799047775E+01 0.35168232718E+01 0.35141115984E+01 0.35718304682E+01
 0.36882851540E+01 0.38613443946E+01 0.40904342005E+01 0.43779657306E+01 0.47290943070E+01
 0.51494867175E+01 0.56416843542E+01 0.62012274234E+01 0.68138824653E+01 0.74551406728E+01
 0.80925000910E+01 0.86899231425E+01 0.92128548294E+01 0.96320908362E+01 0.99257047884E+01
 0.10079382692E+02 0.10086031358E+02 0.99453721589E+01 0.96638885629E+01 0.92552013363E+01
 0.87405437343E+01 0.81485315874E+01 0.62423442640E+01 0.57747958485E+01 0.53380594428E+01
 0.49462773522E+01 0.46059528196E+01 0.43172168689E+01 0.40765486881E+01 0.38798450555E+01
 0.37246662770E+01 0.36109906057E+01 0.35405515335E+01 0.35153876664E+01 0.35364336751E+01
 0.36028820610E+01 0.37126907811E+01 0.38640225136E+01 0.40568061144E+01 0.42934190570E+01
 0.45778895753E+01 0.49137292030E+01 0.53010778348E+01 0.57340875277E+01 0.61994598651E+01
 0.66767913900E+01 0.71407862818E+01 0.75646262135E+01 0.79233383794E+01 0.81962316257E+01
 0.83681568609E+01 0.84299174296E+01 0.83782930779E+01 0.82159953434E+01 0.79516845980E+01
 0.75999731137E+01 0.71810773824E+01 0.67196285757E+01 0.52069380710E+01 0.48935833478E+01
 0.46088747052E+01 0.43592115421E+01 0.41460345369E+01 0.39673888640E+01 0.38200907274E+01
 0.37016038978E+01 0.36109906057E+01 0.35488435951E+01 0.35165157875E+01 0.35151084477E+01
 0.35447012756E+01 0.36042502336E+01 0.36922945243E+01 0.38081156443E+01 0.39526285296E+01
 0.41283854588E+01 0.43385405036E+01 0.45850762604E+01 0.48668289612E+01 0.51779293094E+01
 0.55072372323E+01 0.58390671534E+01 0.61549880859E+01 0.64360652811E+01 0.66649089349E+01
 0.68272301814E+01 0.69129064784E+01 0.69166315773E+01 0.68381966539E+01 0.66824654062E+01
 0.64591072235E+01 0.61820461005E+01 0.58684646986E+01 0.55372452343E+01 0.43926354152E+01
 0.42073351445E+01 0.40455541563E+01 0.39091128332E+01 0.37969634987E+01 0.37064855857E+01
 0.36348433143E+01 0.35799047775E+01 0.35405515335E+01 0.35165157875E+01 0.35079719075E+01
 0.35150891177E+01 0.35377699282E+01 0.35757753309E+01 0.36292263072E+01 0.36991675942E+01
 0.37877661804E+01 0.38979028960E+01 0.40322136434E+01 0.41918362472E+01 0.43752093237E+01
 0.45773081137E+01 0.47896220943E+01 0.50009074243E+01 0.51984307507E+01 0.53693260146E+01
 0.55018559656E+01 0.55865546924E+01 0.56172167265E+01 0.55915829458E+01 0.55115706558E+01
 0.53830310323E+01 0.52151293734E+01 0.50194409117E+01 0.48088146861E+01 0.45960690113E+01
 0.37722839465E+01 0.36899993197E+01 0.36262338189E+01 0.35802468102E+01 0.35496196448E+01
 0.35310817300E+01 0.35211987434E+01 0.35168232718E+01 0.35153876664E+01 0.35151084477E+01
 0.35150891177E+01 0.35153170068E+01 0.35166209382E+01 0.35206539955E+01 0.35298724276E+01
 0.35474109876E+01 0.35767715594E+01 0.36212990167E+01 0.36834768091E+01 0.37641615494E+01
 0.38619773291E+01 0.39730974047E+01 0.40914898288E+01 0.42095085187E+01 0.43186496558E+01
 0.44103827168E+01 0.44770504261E+01 0.45127953558E+01 0.45143665721E+01 0.44816111509E+01
 0.44175084701E+01 0.43277258529E+01 0.42198140490E+01 0.41022575792E+01 0.39835717195E+01
 0.38715020080E+01 0.33173045112E+01 0.33183613338E+01 0.33343721989E+01 0.33628551673E+01
 0.33999899658E+01 0.34410493330E+01 0.34808193071E+01 0.35141115984E+01 0.35364336751E+01
 0.35447012756E+01 0.35377699282E+01 0.35166209382E+01 0.34841707385E+01 0.34447776333E+01
 0.34035842806E+01 0.33658557982E+01 0.33364170808E+01 0.33191841047E+01 0.33167395417E+01
 0.33299811782E+01 0.33579610360E+01 0.33979922349E+01 0.34459663259E+01 0.34967665964E+01
 0.35447428982E+01 0.35842991534E+01 0.36106061712E+01 0.36203321241E+01 0.36122096550E+01
 0.35872776289E+01 0.35487109217E+01 0.35012666430E+01 0.34505159014E+01 0.34021027642E+01
 0.33611767868E+01 0.33319554182E+01 0.30049707516E+01 0.30762501069E+01 0.31602013617E+01
 0.32524895031E+01 0.33472065707E+01 0.34371795515E+01 0.35145708229E+01 0.35718304682E+01
 0.36028820610E+01 0.36042502336E+01 0.35757753309E+01 0.35206539955E+01 0.34447776333E+01
 0.33556113835E+01 0.32610004920E+01 0.31682127091E+01 0.30833104317E+01 0.30107872616E+01
 0.29533945961E+01 0.29121416601E+01 0.28864577456E+01 0.28744588429E+01 0.28732489898E+01
 0.28792403157E+01 0.28885328515E+01 0.28973936877E+01 0.29028175155E+01 0.29030721852E+01
 0.28980691437E+01 0.28894010847E+01 0.28800035131E+01 0.28735763391E+01 0.28739972814E+01
 0.28848723181E+01 0.29091918484E+01 0.29489872945E+01 0.28205913237E+01 0.29545377961E+01
 0.30992100239E+01 0.32477430283E+01 0.33912679509E+01 0.35194627604E+01 0.36216416775E+01
 0.36882851540E+01 0.37126907811E+01 0.36922945243E+01 0.36292263072E+01 0.35298724276E+01
 0.34035842806E+01 0.32610004920E+01 0.31125095623E+01 0.29671595836E+01 0.28320468017E+01
 0.27120901587E+01 0.26101043073E+01 0.25270835883E+01 0.24625744553E+01 0.24150261781E+01
 0.23820945868E+01 0.23609481652E+01 0.23486272880E+01 0.23424678800E+01 0.23405600006E+01
 0.23421535435E+01 0.23478588594E+01 0.23595153177E+01 0.23797647219E+01 0.24115371207E+01
 0.24576443082E+01 0.25204909416E+01 0.26017748614E+01 0.27021034377E+01 0.27564212684E+01
 0.29493067828E+01 0.31500909332E+01 0.33485251724E+01 0.35320868938E+01 0.36870825885E+01
 0.38003551824E+01 0.38613443946E+01 0.38640225136E+01 0.38081156443E+01 0.36991675942E+01
 0.35474109876E+01 0.33658557982E+01 0.31682127091E+01 0.29671595836E+01 0.27731949689E+01
 0.25941011810E+01 0.24349202104E+01 0.22982834535E+01 0.21849083767E+01 0.20941025493E+01
 0.20241929861E+01 0.19728789941E+01 0.19375549393E+01 0.19156626428E+01 0.19051034741E+01
 0.19046577436E+01 0.19142706807E+01 0.19350671814E+01 0.19690834712E+01 0.20188483073E+01
 0.20869724487E+01 0.21758046870E+01 0.22871068489E+01 0.24216829234E+01 0.25789427466E+01
 0.28099606283E+01 0.30604004681E+01 0.33138887016E+01 0.35560687626E+01 0.37704235202E+01
 0.39400901875E+01 0.40502170955E+01 0.40904342005E+01 0.40568061144E+01 0.39526285296E+01
 0.37877661804E+01 0.35767715594E+01 0.33364170808E+01 0.30833104317E+01 0.28320468017E+01
 0.25941011810E+01 0.23774692279E+01 0.21869058603E+01 0.20245051095E+01 0.18903712304E+01
 0.17832317100E+01 0.17009439039E+01 0.16409027249E+01 0.16003979321E+01 0.15769953700E+01
 0.15689645386E+01 0.15756496472E+01 0.15976161965E+01 0.16365024574E+01 0.16946729865E+01
 0.17748266545E+01 0.18796215412E+01 0.20112847088E+01 0.21711739115E+01 0.23592879023E+01
 0.25737082140E+01 0.29832628450E+01 0.32913818453E+01 0.35948235479E+01 0.38745808864E+01
 0.41100624065E+01 0.42816946554E+01 0.43739289015E+01 0.43779657306E+01 0.42934190570E+01
 0.41283854588E+01 0.38979028960E+01 0.36212990167E+01 0.33191841047E+01 0.30107872616E+01
 0.27120901587E+01 0.24349202104E+01 0.21869058603E+01 0.19720240126E+01 0.17914211154E+01
 0.16442524932E+01 0.15283975054E+01 0.14410164962E+01 0.13789987117E+01 0.13393875913E+01
 0.13198299859E+01 0.13189942836E+01 0.13368280541E+01 0.13745583368E+01 0.14344490425E+01
 0.15194139596E+01 0.16325805424E+01 0.17768443069E+01 0.19544019241E+01 0.21662147584E+01
 0.24113388038E+01 0.26861041591E+01 0.32835931142E+01 0.36508722536E+01 0.40021994351E+01
 0.43133654450E+01 0.45596952991E+01 0.47195462055E+01 0.47778992193E+01 0.47290943070E+01
 0.45778895753E+01 0.43385405036E+01 0.40322136434E+01 0.36834768091E+01 0.33167395417E+01
 0.29533945961E+01 0.26101043073E+01 0.22982834535E+01 0.20245051095E+01 0.17914211154E+01
 0.15988337868E+01 0.14446766823E+01 0.13257913327E+01 0.12385145443E+01 0.11791818869E+01
 0.11446378095E+01 0.11327281109E+01 0.11426553227E+01 0.11750983733E+01 0.12320897357E+01
 0.13166998505E+01 0.14325825078E+01 0.15834418133E+01 0.17724857335E+01 0.20018647240E+01
 0.22719796087E+01 0.25805341923E+01 0.29213966821E+01 0.37249926089E+01 0.41543403241E+01
 0.45518922718E+01 0.48875653808E+01 0.51327074829E+01 0.52645889108E+01 0.52703722571E+01
 0.51494867175E+01 0.49137292030E+01 0.45850762604E+01 0.41918362472E+01 0.37641615494E+01
 0.33299811782E+01 0.29121416601E+01 0.25270835883E+01 0.21849083767E+01 0.18903712304E+01
 0.16442524932E+01 0.14446766823E+01 0.12881649409E+01 0.11704156817E+01 0.10869296110E+01
 0.10335932241E+01 0.10072410737E+01 0.10061200863E+01 0.10301539906E+01 0.10809514350E+01
 0.11615637992E+01 0.12760440151E+01 0.14288870604E+01 0.16244328687E+01 0.18662475408E+01
 0.21563849109E+01 0.24943760870E+01 0.28759078228E+01 0.32914070184E+01 0.43294089239E+01
 0.48243627329E+01 0.52652815700E+01 0.56157180295E+01 0.58436781747E+01 0.59270031962E+01
 0.58573409645E+01 0.56416843542E+01 0.53010778348E+01 0.48668289612E+01 0.43752093237E+01
 0.38619773291E+01 0.33579610360E+01 0.28864577456E+01 0.24625744553E+01 0.20941025493E+01
 0.17832317100E+01 0.15283975054E+01 0.13257913327E+01 0.11704156817E+01 0.10568395878E+01
 0.97985728694E+00 0.93512624658E+00 0.91973019488E+00 0.93257771894E+00 0.97456782478E+00
 0.10484754222E+01 0.11585557599E+01 0.13099582397E+01 0.15080949164E+01 0.17580243373E+01
 0.20637283492E+01 0.24270569670E+01 0.28462200236E+01 0.33139665407E+01 0.38158779450E+01
 0.51250079219E+01 0.56869779189E+01 0.61639465518E+01 0.65134398255E+01 0.67018063974E+01
 0.67100758691E+01 0.65374038069E+01 0.62012274234E+01 0.57340875277E+01 0.51779293094E+01
 0.45773081137E+01 0.39730974047E+01 0.33979922349E+01 0.28744588429E+01 0.24150261781E+01
 0.20241929861E+01 0.17009439039E+01 0.14410164962E+01 0.12385145443E+01 0.10869296110E+01
 0.97985728694E+00 0.91164084820E+00 0.87800057478E+00 0.87657432659E+00 0.90725074757E+00
 0.97219668708E+00 0.10755531354E+01 0.12228842415E+01 0.14205388979E+01 0.16750307080E+01
 0.19923590654E+01 0.23770124515E+01 0.28303816376E+01 0.33485398759E+01 0.39197545852E+01
 0.45225082854E+01 0.61395373579E+01 0.67632153926E+01 0.72604862206E+01 0.75845793015E+01
 0.77031540829E+01 0.76040100164E+01 0.72973379904E+01 0.68138824653E+01 0.61994598651E+01
 0.55072372323E+01 0.47896220943E+01 0.40914898288E+01 0.34459663259E+01 0.28732489898E+01
 0.23820945868E+01 0.19728789941E+01 0.16409027249E+01 0.13789987117E+01 0.11791818869E+01
 0.10335932241E+01 0.93512624658E+00 0.87800057478E+00 0.85835243347E+00 0.87473852887E+00
 0.92836099348E+00 0.10228912579E+01 0.11639687104E+01 0.13585941666E+01 0.16145716862E+01
 0.19399192848E+01 0.23419504233E+01 0.28256637814E+01 0.33912320774E+01 0.40307899000E+01
 0.47253170141E+01 0.54428910696E+01 0.73892422361E+01 0.80579872675E+01 0.85485774052E+01
 0.88131678497E+01 0.88247890437E+01 0.85822175803E+01 0.81102322061E+01 0.74551406728E+01
 0.66767913900E+01 0.58390671534E+01 0.50009074243E+01 0.42095085187E+01 0.34967665964E+01
 0.28792403157E+01 0.23609481652E+01 0.19375549393E+01 0.16003979321E+01 0.13393875913E+01
 0.11446378095E+01 0.10072410737E+01 0.91973019488E+00 0.87657432659E+00 0.87473852887E+00
 0.91408957477E+00 0.99741553547E+00 0.11300442940E+01 0.13192848691E+01 0.15739298696E+01
 0.19038088409E+01 0.23190523923E+01 0.28285413167E+01 0.34371312489E+01 0.41417349835E+01
 0.49271058319E+01 0.57628090282E+01 0.66029130056E+01 0.88675986299E+01 0.95513032122E+01
 0.99970132464E+01 0.10160130692E+02 0.10023786245E+02 0.96020661646E+01 0.89373225466E+01
 0.80925000910E+01 0.71407862818E+01 0.61549880859E+01 0.51984307507E+01 0.43186496558E+01
 0.35447428982E+01 0.28885328515E+01 0.23486272880E+01 0.19156626428E+01 0.15769953700E+01
 0.13198299859E+01 0.11327281109E+01 0.10061200863E+01 0.93257771894E+00 0.90725074757E+00
 0.92836099348E+00 0.99741553547E+00 0.11189906452E+01 0.13002762317E+01 0.15506726570E+01
 0.18814955324E+01 0.23054544820E+01 0.28352655254E+01 0.34807514080E+01 0.42442958220E+01
 0.51155151330E+01 0.60669345989E+01 0.70525404025E+01 0.80101773459E+01 0.10540114443E+02
 0.11196924235E+02 0.11551360888E+02 0.11566977209E+02 0.11242114923E+02 0.10610247572E+02
 0.97331866751E+01 0.86899231425E+01 0.75646262135E+01 0.64360652811E+01 0.53693260146E+01
 0.44103827168E+01 0.35842991534E+01 0.28973936877E+01 0.23424678800E+01 0.19051034741E+01
 0.15689645386E+01 0.13189942836E+01 0.11426553227E+01 0.10301539906E+01 0.97456782478E+00
 0.97219668708E+00 0.10228912579E+01 0.11300442940E+01 0.13002762317E+01 0.15431254088E+01
 0.18709188776E+01 0.22985271701E+01 0.28422255400E+01 0.35167635556E+01 0.43302966716E+01
 0.52780484580E+01 0.63367739576E+01 0.74622521149E+01 0.85908592376E+01 0.96448023708E+01
 0.12349188087E+02 0.12929948461E+02 0.13142774445E+02 0.12964858877E+02 0.12415340418E+02
 0.11550660598E+02 0.10452364963E+02 0.92128548294E+01 0.79233383794E+01 0.66649089349E+01
 0.55018559656E+01 0.44770504261E+01 0.36106061712E+01 0.29028175155E+01 0.23405600006E+01
 0.19046577436E+01 0.15756496472E+01 0.13368280541E+01 0.11750983733E+01 0.10809514350E+01
 0.10484754222E+01 0.10755531354E+01 0.11639687104E+01 0.13192848691E+01 0.15506726570E+01
 0.18709188776E+01 0.22964420764E+01 0.28465133160E+01 0.35404938144E+01 0.43923798862E+01
 0.54034639858E+01 0.65555996300E+01 0.78078477522E+01 0.90975968869E+01 0.10345083828E+02
 0.11459841223E+02 0.14223886430E+02 0.14672156723E+02 0.14691805864E+02 0.14280936822E+02
 0.13480767590E+02 0.12371540072E+02 0.11054941871E+02 0.96320908362E+01 0.81962316257E+01
 0.68272301814E+01 0.55865546924E+01 0.45127953558E+01 0.36203321241E+01 0.29030721852E+01
 0.23421535435E+01 0.19142706807E+01 0.15976161965E+01 0.13745583368E+01 0.12320897357E+01
 0.11615637992E+01 0.11585557599E+01 0.12228842415E+01 0.13585941666E+01 0.15739298696E+01
 0.18814955324E+01 0.22985271701E+01 0.28465133160E+01 0.35487822209E+01 0.44249340447E+01
 0.54826457675E+01 0.67096361705E+01 0.80693879614E+01 0.95021896066E+01 0.10929660966E+02
 0.12259760747E+02 0.13391950288E+02 0.16033478447E+02 0.16286237866E+02 0.16074929121E+02
 0.15417981704E+02 0.14372299815E+02 0.13029420801E+02 0.11509615614E+02 0.99257047884E+01
 0.83681568609E+01 0.69129064784E+01 0.56172167265E+01 0.45143665721E+01 0.36122096550E+01
 0.28980691437E+01 0.23478588594E+01 0.19350671814E+01 0.16365024574E+01 0.14344490425E+01
 0.13166998505E+01 0.12760440151E+01 0.13099582397E+01 0.14205388979E+01 0.16145716862E+01
 0.19038088409E+01 0.23054544820E+01 0.28422255400E+01 0.35404938144E+01 0.44249340447E+01
 0.55097234784E+01 0.67891570769E+01 0.82321727911E+01 0.97833455153E+01 0.11368205634E+02
 0.12897756277E+02 0.14261795553E+02 0.15338582180E+02 0.17621221654E+02 0.17642791433E+02
 0.17189982100E+02 0.16297337862E+02 0.15031329846E+02 0.13487951439E+02 0.11794452282E+02
 0.10079382692E+02 0.84299174296E+01 0.69166315773E+01 0.55915829458E+01 0.44816111509E+01
 0.35872776289E+01 0.28894010847E+01 0.23595153177E+01 0.19690834712E+01 0.16946729865E+01
 0.15194139596E+01 0.14325825078E+01 0.14288870604E+01 0.15080949164E+01 0.16750307080E+01
 0.19399192848E+01 0.23190523923E+01 0.28352655254E+01 0.35167635556E+01 0.43923798862E+01
 0.54826457675E+01 0.67891570769E+01 0.82874176180E+01 0.99272702377E+01 0.11639489746E+02
 0.13339321013E+02 0.14901840420E+02 0.16197312761E+02 0.17126868975E+02 0.18895952776E+02
 0.18676828114E+02 0.17992090855E+02 0.16887653394E+02 0.15433424107E+02 0.13725613693E+02
 0.11896498277E+02 0.10086031358E+02 0.83782930779E+01 0.68381966539E+01 0.55115706558E+01
 0.44175084701E+01 0.35487109217E+01 0.28800035131E+01 0.23797647219E+01 0.20188483073E+01
 0.17748266545E+01 0.16325805424E+01 0.15834418133E+01 0.16244328687E+01 0.17580243373E+01
 0.19923590654E+01 0.23419504233E+01 0.28285413167E+01 0.34807514080E+01 0.43302966716E+01
 0.54034639858E+01 0.67096361705E+01 0.82321727911E+01 0.99272702377E+01 0.11731269918E+02
 0.13563409152E+02 0.15288017318E+02 0.16769565310E+02 0.17908888957E+02 0.18633790669E+02
 0.19821415970E+02 0.19369562864E+02 0.18474114067E+02 0.17186463522E+02 0.15574875607E+02
 0.13735904827E+02 0.11811262620E+02 0.99453721589E+01 0.82159953434E+01 0.66824654062E+01
 0.53830310323E+01 0.43277258529E+01 0.35012666430E+01 0.28735763391E+01 0.24115371207E+01
 0.20869724487E+01 0.18796215412E+01 0.17768443069E+01 0.17724857335E+01 0.18662475408E+01
 0.20637283492E+01 0.23770124515E+01 0.28256637814E+01 0.34371312489E+01 0.42442958220E+01
 0.52780484580E+01 0.65555996300E+01 0.80693879614E+01 0.97833455153E+01 0.11639489746E+02
 0.13563409152E+02 0.15416519508E+02 0.17053185962E+02 0.18373235779E+02 0.19306439134E+02
 0.19799882709E+02 0.20386797908E+02 0.19721820704E+02 0.18642635255E+02 0.17199209018E+02
 0.15456783572E+02 0.13518628398E+02 0.11542485533E+02 0.96638885629E+01 0.79516845980E+01
 0.64591072235E+01 0.52151293734E+01 0.42198140490E+01 0.34505159014E+01 0.28739972814E+01
 0.24576443082E+01 0.21758046870E+01 0.20112847088E+01 0.19544019241E+01 0.20018647240E+01
 0.21563849109E+01 0.24270569670E+01 0.28303816376E+01 0.33912320774E+01 0.41417349835E+01
 0.51155151330E+01 0.63367739576E+01 0.78078477522E+01 0.95021896066E+01 0.11368205634E+02
 0.13339321013E+02 0.15288017318E+02 0.17053185962E+02 0.18526756365E+02 0.19641012410E+02
 0.20345081737E+02 0.20599316584E+02 0.20587162845E+02 0.19736945316E+02 0.18501912371E+02
 0.16926324619E+02 0.15078242810E+02 0.13079418720E+02 0.11102310417E+02 0.92552013363E+01
 0.75999731137E+01 0.61820461005E+01 0.50194409117E+01 0.41022575792E+01 0.34021027642E+01
 0.28848723181E+01 0.25204909416E+01 0.22871068489E+01 0.21711739115E+01 0.21662147584E+01
 0.22719796087E+01 0.24943760870E+01 0.28462200236E+01 0.33485398759E+01 0.40307899000E+01
 0.49271058319E+01 0.60669345989E+01 0.74622521149E+01 0.90975968869E+01 0.10929660966E+02
 0.12897756277E+02 0.14901840420E+02 0.16769565310E+02 0.18373235779E+02 0.19641012410E+02
 0.20527522359E+02 0.20994337063E+02 0.21014647912E+02 0.20420053195E+02 0.19415109786E+02
 0.18048421986E+02 0.16362536206E+02 0.14441901555E+02 0.12438048715E+02 0.10511842272E+02
 0.87405437343E+01 0.71810773824E+01 0.58684646986E+01 0.48088146861E+01 0.39835717195E+01
 0.33611767868E+01 0.29091918484E+01 0.26017748614E+01 0.24216829234E+01 0.23592879023E+01
 0.24113388038E+01 0.25805341923E+01 0.28759078228E+01 0.33139665407E+01 0.39197545852E+01
 0.47253170141E+01 0.57628090282E+01 0.70525404025E+01 0.85908592376E+01 0.10345083828E+02
 0.12259760747E+02 0.14261795553E+02 0.16197312761E+02 0.17908888957E+02 0.19306439134E+02
 0.20345081737E+02 0.20994337063E+02 0.21227736072E+02 0.21032882752E+02 0.19887334706E+02
 0.18753170375E+02 0.17275309604E+02 0.15508667444E+02 0.13569419359E+02 0.11630094371E+02
 0.98016228245E+01 0.81485315874E+01 0.67196285757E+01 0.55372452343E+01 0.45960690113E+01
 0.38715020080E+01 0.33319554182E+01 0.29489872945E+01 0.27021034377E+01 0.25789427466E+01
 0.25737082140E+01 0.26861041591E+01 0.29213966821E+01 0.32914070184E+01 0.38158779450E+01
 0.45225082854E+01 0.54428910696E+01 0.66029130056E+01 0.80101773459E+01 0.96448023708E+01
 0.11459841223E+02 0.13391950288E+02 0.15338582180E+02 0.17126868975E+02 0.18633790669E+02
 0.19799882709E+02 0.20599316584E+02 0.21014647912E+02 0.21032882752E+02 0.20653098561E+02
 0.17475370513E+02 0.16711405029E+02 0.15547231776E+02 0.14036467184E+02 0.12352686597E+02
 0.10676728499E+02 0.90983028388E+01 0.76874596835E+01 0.64879537081E+01 0.55121070279E+01
 0.47475002337E+01 0.41698737459E+01 0.37549907240E+01 0.34849993058E+01 0.33494078825E+01
 0.33435721653E+01 0.34673307875E+01 0.37249115081E+01 0.41261807133E+01 0.46882637789E+01
 0.54349747844E+01 0.63910085304E+01 0.75704218796E+01 0.89635303981E+01 0.10529398626E+02
 0.12199840481E+02 0.13888622859E+02 0.15423743951E+02 0.16623311109E+02 0.17422333187E+02
 0.17868850299E+02 0.18072438478E+02 0.18142574303E+02 0.18145059140E+02 0.18082819461E+02
 0.17895218125E+02 0.16711405029E+02 0.15755680499E+02 0.14446513597E+02 0.12911572820E+02
 0.11326789545E+02 0.97899644125E+01 0.83768709001E+01 0.71426752330E+01 0.61132194354E+01
 0.52873369060E+01 0.46471958570E+01 0.41704963178E+01 0.38389980851E+01 0.36413981053E+01
 0.35722489119E+01 0.36299356316E+01 0.38157756587E+01 0.41348320871E+01 0.45978560012E+01
 0.52224819543E+01 0.60308164241E+01 0.70415121869E+01 0.82577921759E+01 0.96566022573E+01
 0.11185247790E+02 0.12769117009E+02 0.14314904854E+02 0.15651268043E+02 0.16641098723E+02
 0.17260876338E+02 0.17580620767E+02 0.17710230346E+02 0.17742750610E+02 0.17715838756E+02
 0.17598049545E+02 0.17300127943E+02 0.15547231776E+02 0.14446513597E+02 0.13104764669E+02
 0.11669454788E+02 0.10235013118E+02 0.88785093369E+01 0.76619248558E+01 0.66216000335E+01
 0.57671426051E+01 0.50886865234E+01 0.45679022359E+01 0.41875416284E+01 0.39362765008E+01
 0.38087653444E+01 0.38032894442E+01 0.39197463021E+01 0.41596324310E+01 0.45279637653E+01
 0.50355622765E+01 0.56991847763E+01 0.65372363972E+01 0.75607660475E+01 0.87624449552E+01
 0.10108578734E+02 0.11539155568E+02 0.12977688756E+02 0.14333557574E+02 0.15460980537E+02
 0.16264396694E+02 0.16747806249E+02 0.16986600880E+02 0.17075587363E+02 0.17078738358E+02
 0.16999169529E+02 0.16777666521E+02 0.16320225801E+02 0.14036467184E+02 0.12911572820E+02
 0.11669454788E+02 0.10388701601E+02 0.91429311582E+01 0.79961164548E+01 0.69912527131E+01
 0.61466810865E+01 0.54604240061E+01 0.49193347985E+01 0.45085113004E+01 0.42173743782E+01
 0.40411548575E+01 0.39789486009E+01 0.40308783509E+01 0.41967699622E+01 0.44773452146E+01
 0.48770123114E+01 0.54058988426E+01 0.60786346889E+01 0.69087127038E+01 0.78994537735E+01
 0.90347604658E+01 0.10274019098E+02 0.11554750666E+02 0.12803395573E+02 0.13942952874E+02
 0.14866305951E+02 0.15510491534E+02 0.15892259334E+02 0.16076943184E+02 0.16131805489E+02
 0.16086314149E+02 0.15915817220E+02 0.15555002222E+02 0.14936166633E+02 0.12352686597E+02
 0.11326789545E+02 0.10235013118E+02 0.91429311582E+01 0.81115196329E+01 0.71860251160E+01
 0.63906056294E+01 0.57299950138E+01 0.51963809878E+01 0.47779224013E+01 0.44653758640E+01
 0.42548088345E+01 0.41464912153E+01 0.41418251265E+01 0.42408521705E+01 0.44421688115E+01
 0.47453197549E+01 0.51539000857E+01 0.56767999079E+01 0.63257471264E+01 0.71090610846E+01
 0.80234119327E+01 0.90467236389E+01 0.10135714127E+02 0.11230379375E+02 0.12264810764E+02
 0.13179280538E+02 0.13909509262E+02 0.14415331719E+02 0.14712871004E+02 0.14846515890E+02
 0.14851954106E+02 0.14730982873E+02 0.14450225401E+02 0.13964483139E+02 0.13253571831E+02
 0.10676728499E+02 0.97899644125E+01 0.88785093369E+01 0.79961164548E+01 0.71860251160E+01
 0.64747838606E+01 0.58718363438E+01 0.53740877310E+01 0.49729142993E+01 0.46606046348E+01
 0.44339491949E+01 0.42942062177E+01 0.42443883711E+01 0.42860420599E+01 0.44177777960E+01
 0.46365739096E+01 0.49409654515E+01 0.53338521167E+01 0.58226888167E+01 0.64161252178E+01
 0.71178564411E+01 0.79197616455E+01 0.87970579650E+01 0.97080159341E+01 0.10599443430E+02
 0.11416702787E+02 0.12114574700E+02 0.12662423807E+02 0.13039933546E+02 0.13254017499E+02
 0.13325717670E+02 0.13266095674E+02 0.13065693134E+02 0.12703470487E+02 0.12170252500E+02
 0.11484763282E+02 0.90983028388E+01 0.83768709001E+01 0.76619248558E+01 0.69912527131E+01
 0.63906056294E+01 0.58718363438E+01 0.54353636494E+01 0.50754208582E+01 0.47857476574E+01
 0.45635341234E+01 0.44103748093E+01 0.43303828935E+01 0.43269365376E+01 0.44001754348E+01
 0.45468780103E+01 0.47628424880E+01 0.50462291300E+01 0.53996015225E+01 0.58290836532E+01
 0.63405583536E+01 0.69341946167E+01 0.75992902153E+01 0.83115082493E+01 0.90341185457E+01
 0.97236193425E+01 0.10338207188E+02 0.10845898264E+02 0.11228918173E+02 0.11482669837E+02
 0.11610021719E+02 0.11615467223E+02 0.11499257851E+02 0.11256989238E+02 0.10885491208E+02
 0.10388503340E+02 0.97825350977E+01 0.76874596835E+01 0.71426752330E+01 0.66216000335E+01
 0.61466810865E+01 0.57299950138E+01 0.53740877310E+01 0.50754208582E+01 0.48288929245E+01
 0.46316504716E+01 0.44847833564E+01 0.43924513537E+01 0.43591890691E+01 0.43870381016E+01
 0.44742402538E+01 0.46163262963E+01 0.48089710413E+01 0.50508427211E+01 0.53446163618E+01
 0.56953485653E+01 0.61067617525E+01 0.65768560978E+01 0.70944626420E+01 0.76381280164E+01
 0.81781741711E+01 0.86817344518E+01 0.91191732673E+01 0.94693460545E+01 0.97215066100E+01
 0.98733209207E+01 0.99264185245E+01 0.98820481109E+01 0.97391849699E+01 0.94960939516E+01
 0.91545340439E+01 0.87243221247E+01 0.82256297887E+01 0.64879537081E+01 0.61132194354E+01
 0.57671426051E+01 0.54604240061E+01 0.51963809878E+01 0.49729142993E+01 0.47857476574E+01
 0.46316504716E+01 0.45104319634E+01 0.44250153537E+01 0.43797245864E+01 0.43777580055E+01
 0.44192808270E+01 0.45012878304E+01 0.46193780745E+01 0.47703979109E+01 0.49543455689E+01
 0.51743739511E+01 0.54347929413E+01 0.57378991358E+01 0.60808277748E+01 0.64535501562E+01
 0.68388559082E+01 0.72146225948E+01 0.75578086201E+01 0.78487291521E+01 0.80739123674E+01
 0.82265068717E+01 0.83044625973E+01 0.83077883481E+01 0.82365360977E+01 0.80906701881E+01
 0.78719148245E+01 0.75865283456E+01 0.72473166339E+01 0.68734776873E+01 0.55121070279E+01
 0.52873369060E+01 0.50886865234E+01 0.49193347985E+01 0.47779224013E+01 0.46606046348E+01
 0.45635341234E+01 0.44847833564E+01 0.44250153537E+01 0.43867732420E+01 0.43728331627E+01
 0.43844830213E+01 0.44206858499E+01 0.44786785089E+01 0.45557192249E+01 0.46509421006E+01
 0.47661848010E+01 0.49052823837E+01 0.50721335667E+01 0.52683127636E+01 0.54910614124E+01
 0.57323626220E+01 0.59795368483E+01 0.62172894473E+01 0.64305062802E+01 0.66067330993E+01
 0.67374771459E+01 0.68180950830E+01 0.68466876251E+01 0.68228157731E+01 0.67468715101E+01
 0.66205416673E+01 0.64481063520E+01 0.62376899336E+01 0.60014849980E+01 0.57544948654E+01
 0.47475002337E+01 0.46471958570E+01 0.45679022359E+01 0.45085113004E+01 0.44653758640E+01
 0.44339491949E+01 0.44103748093E+01 0.43924513537E+01 0.43797245864E+01 0.43728331627E+01
 0.43725184952E+01 0.43788497378E+01 0.43911335884E+01 0.44086125649E+01 0.44315520264E+01
 0.44620243010E+01 0.45038488556E+01 0.45616060305E+01 0.46390691729E+01 0.47375998680E+01
 0.48550536117E+01 0.49856048324E+01 0.51206015878E+01 0.52501536523E+01 0.53648603017E+01
 0.54570974644E+01 0.55215733646E+01 0.55552123636E+01 0.55566737951E+01 0.55259153030E+01
 0.54641416664E+01 0.53742089758E+01 0.52611831320E+01 0.51325395588E+01 0.49976206100E+01
 0.48663424160E+01 0.41698737459E+01 0.41704963178E+01 0.41875416284E+01 0.42173743782E+01
 0.42548088345E+01 0.42942062177E+01 0.43303828935E+01 0.43591890691E+01 0.43777580055E+01
 0.43844830213E+01 0.43788497378E+01 0.43613150831E+01 0.43333658480E+01 0.42977040362E+01
 0.42583494445E+01 0.42204460750E+01 0.41896738065E+01 0.41713106002E+01 0.41691395967E+01
 0.41845316457E+01 0.42160548900E+01 0.42597797093E+01 0.43101459723E+01 0.43610530207E+01
 0.44068344048E+01 0.44429132503E+01 0.44660822264E+01 0.44744837889E+01 0.44674736735E+01
 0.44455629704E+01 0.44105055248E+01 0.43654235438E+01 0.43147953807E+01 0.42641824661E+01
 0.42196415650E+01 0.41868219849E+01 0.37549907240E+01 0.38389980851E+01 0.39362765008E+01
 0.40411548575E+01 0.41464912153E+01 0.42443883711E+01 0.43269365376E+01 0.43870381016E+01
 0.44192808270E+01 0.44206858499E+01 0.43911335884E+01 0.43333658480E+01 0.42525820678E+01
 0.41557398438E+01 0.40507184985E+01 0.39454800312E+01 0.38472763065E+01 0.37619064205E+01
 0.36931006867E+01 0.36422105528E+01 0.36083496759E+01 0.35889421287E+01 0.35804619794E+01
 0.35791386110E+01 0.35815062122E+01 0.35847650224E+01 0.35869669809E+01 0.35870841565E+01
 0.35850462227E+01 0.35817824147E+01 0.35792118130E+01 0.35801125961E+01 0.35878775351E+01
 0.36061926503E+01 0.36385942011E+01 0.36878160319E+01 0.34849993058E+01 0.36413981053E+01
 0.38087653444E+01 0.39789486009E+01 0.41418251265E+01 0.42860420599E+01 0.44001754348E+01
 0.44742402538E+01 0.45012878304E+01 0.44786785089E+01 0.44086125649E+01 0.42977040362E+01
 0.41557398438E+01 0.39940677202E+01 0.38240862948E+01 0.36560857854E+01 0.34984512362E+01
 0.33571834851E+01 0.32357563416E+01 0.31353327879E+01 0.30552637134E+01 0.29937054266E+01
 0.29482044014E+01 0.29161695514E+01 0.28952145457E+01 0.28833968845E+01 0.28794082538E+01
 0.28827451642E+01 0.28938112232E+01 0.29138685337E+01 0.29448375944E+01 0.29890517540E+01
 0.30490446587E+01 0.31272967594E+01 0.32257912535E+01 0.33453595498E+01 0.33494078825E+01
 0.35722489119E+01 0.38032894442E+01 0.40308783509E+01 0.42408521705E+01 0.44177777960E+01
 0.45468780103E+01 0.46163262963E+01 0.46193780745E+01 0.45557192249E+01 0.44315520264E+01
 0.42583494445E+01 0.40507184985E+01 0.38240862948E+01 0.35927892922E+01 0.33687969083E+01
 0.31610507160E+01 0.29753413704E+01 0.28146324535E+01 0.26796722312E+01 0.25696832141E+01
 0.24829695234E+01 0.24173861290E+01 0.23706838740E+01 0.23407764753E+01 0.23259957583E+01
 0.23253693710E+01 0.23388475101E+01 0.23673327202E+01 0.24124618457E+01 0.24762778747E+01
 0.25609733337E+01 0.26687062096E+01 0.28013052357E+01 0.29597313598E+01 0.31433780120E+01
 0.33435721653E+01 0.36299356316E+01 0.39197463021E+01 0.41967699622E+01 0.44421688115E+01
 0.46365739096E+01 0.47628424880E+01 0.48089710413E+01 0.47703979109E+01 0.46509421006E+01
 0.44620243010E+01 0.42204460750E+01 0.39454800312E+01 0.36560857854E+01 0.33687969083E+01
 0.30964918573E+01 0.28480267062E+01 0.26285560933E+01 0.24402685234E+01 0.22832435067E+01
 0.21562163075E+01 0.20571560162E+01 0.19836647401E+01 0.19332788619E+01 0.19037831689E+01
 0.18935883974E+01 0.19020839833E+01 0.19297906053E+01 0.19782196884E+01 0.20495316071E+01
 0.21461719197E+01 0.22705698533E+01 0.24248331011E+01 0.26103283496E+01 0.28270987251E+01
 0.30731361278E+01 0.34673307875E+01 0.38157756587E+01 0.41596324310E+01 0.44773452146E+01
 0.47453197549E+01 0.49409654515E+01 0.50462291300E+01 0.50508427211E+01 0.49543455689E+01
 0.47661848010E+01 0.45038488556E+01 0.41896738065E+01 0.38472763065E+01 0.34984512362E+01
 0.31610507160E+01 0.28480267062E+01 0.25675186016E+01 0.23236356041E+01 0.21175077395E+01
 0.19482784667E+01 0.18138813913E+01 0.17115809422E+01 0.16383556285E+01 0.15912656873E+01
 0.15679085758E+01 0.15669040580E+01 0.15882071561E+01 0.16330930723E+01 0.17038550086E+01
 0.18033845911E+01 0.19347518748E+01 0.21007863491E+01 0.23036224274E+01 0.25441760797E+01
 0.28214748911E+01 0.31317463989E+01 0.37249115081E+01 0.41348320871E+01 0.45279637653E+01
 0.48770123114E+01 0.51539000857E+01 0.53338521167E+01 0.53996015225E+01 0.53446163618E+01
 0.51743739511E+01 0.49052823837E+01 0.45616060305E+01 0.41713106002E+01 0.37619064205E+01
 0.33571834851E+01 0.29753413704E+01 0.26285560933E+01 0.23236356041E+01 0.20632291862E+01
 0.18471064958E+01 0.16732132521E+01 0.15384187685E+01 0.14390338904E+01 0.13712660686E+01
 0.13317462808E+01 0.13181117787E+01 0.13294750104E+01 0.13665957223E+01 0.14317068193E+01
 0.15280885255E+01 0.16595297294E+01 0.18297795957E+01 0.20420349906E+01 0.22984261490E+01
 0.25993549022E+01 0.29425122201E+01 0.33215760817E+01 0.41261807133E+01 0.45978560012E+01
 0.50355622765E+01 0.54058988426E+01 0.56767999079E+01 0.58226888167E+01 0.58290836532E+01
 0.56953485653E+01 0.54347929413E+01 0.50721335667E+01 0.46390691729E+01 0.41691395967E+01
 0.36931006867E+01 0.32357563416E+01 0.28146324535E+01 0.24402685234E+01 0.21175077395E+01
 0.18471064958E+01 0.16271722417E+01 0.14542144774E+01 0.13238493327E+01 0.12313572015E+01
 0.11722842223E+01 0.11431155622E+01 0.11418761951E+01 0.11684796011E+01 0.12247371656E+01
 0.13140427386E+01 0.14408061290E+01 0.16097645926E+01 0.18253332308E+01 0.20910572349E+01
 0.24090012841E+01 0.27787723124E+01 0.31960405129E+01 0.36508293884E+01 0.46882637789E+01
 0.52224819543E+01 0.56991847763E+01 0.60786346889E+01 0.63257471264E+01 0.64161252178E+01
 0.63405583536E+01 0.61067617525E+01 0.57378991358E+01 0.52683127636E+01 0.47375998680E+01
 0.41845316457E+01 0.36422105528E+01 0.31353327879E+01 0.26796722312E+01 0.22832435067E+01
 0.19482784667E+01 0.16732132521E+01 0.14542144774E+01 0.12861788391E+01 0.11634265091E+01
 0.10803566441E+01 0.10321754735E+01 0.10156092126E+01 0.10294289621E+01 0.10746560108E+01
 0.11543990942E+01 0.12733542129E+01 0.14370870762E+01 0.16512854029E+01 0.19211072639E+01
 0.22505333541E+01 0.26414219061E+01 0.30919994805E+01 0.35948519760E+01 0.41349163014E+01
 0.54349747844E+01 0.60308164241E+01 0.65372363972E+01 0.69087127038E+01 0.71090610846E+01
 0.71178564411E+01 0.69341946167E+01 0.65768560978E+01 0.60808277748E+01 0.54910614124E+01
 0.48550536117E+01 0.42160548900E+01 0.36083496759E+01 0.30552637134E+01 0.25696832141E+01
 0.21562163075E+01 0.18138813913E+01 0.15384187685E+01 0.13238493327E+01 0.11634265091E+01
 0.10503482319E+01 0.97848076766E+00 0.94311304390E+00 0.94161737798E+00 0.97386465566E+00
 0.10422665894E+01 0.11513973159E+01 0.13073004831E+01 0.15167162586E+01 0.17864037269E+01
 0.21224817023E+01 0.25294731091E+01 0.30087319387E+01 0.35561879526E+01 0.41597465615E+01
 0.47970983176E+01 0.63910085304E+01 0.70415121869E+01 0.75607660475E+01 0.78994537735E+01
 0.80234119327E+01 0.79197616455E+01 0.75992902153E+01 0.70944626420E+01 0.64535501562E+01
 0.57323626220E+01 0.49856048324E+01 0.42597797093E+01 0.35889421287E+01 0.29937054266E+01
 0.24829695234E+01 0.20571560162E+01 0.17115809422E+01 0.14390338904E+01 0.12313572015E+01
 0.10803566441E+01 0.97848076766E+00 0.91950962013E+00 0.89925797199E+00 0.91615280588E+00
 0.97149396253E+00 0.10692672119E+01 0.12155604621E+01 0.14178195635E+01 0.16841760351E+01
 0.20228325964E+01 0.24411859779E+01 0.29442508183E+01 0.35321387804E+01 0.41967980361E+01
 0.49187910037E+01 0.56653512631E+01 0.75704218796E+01 0.82577921759E+01 0.87624449552E+01
 0.90347604658E+01 0.90467236389E+01 0.87970579650E+01 0.83115082493E+01 0.76381280164E+01
 0.68388559082E+01 0.59795368483E+01 0.51206015878E+01 0.43101459723E+01 0.35804619794E+01
 0.29482044014E+01 0.24173861290E+01 0.19836647401E+01 0.16383556285E+01 0.13712660686E+01
 0.11722842223E+01 0.10321754735E+01 0.94311304390E+00 0.89925797199E+00 0.89739357229E+00
 0.93737852265E+00 0.10221689502E+01 0.11573917981E+01 0.13507119235E+01 0.16112555771E+01
 0.19490966996E+01 0.23744851726E+01 0.28963166530E+01 0.35194294352E+01 0.42407376771E+01
 0.50449430034E+01 0.59012881129E+01 0.67629972025E+01 0.89635303981E+01 0.96566022573E+01
 0.10108578734E+02 0.10274019098E+02 0.10135714127E+02 0.97080159341E+01 0.90341185457E+01
 0.81781741711E+01 0.72146225948E+01 0.62172894473E+01 0.52501536523E+01 0.43610530207E+01
 0.35791386110E+01 0.29161695514E+01 0.23706838740E+01 0.19332788619E+01 0.15912656873E+01
 0.13317462808E+01 0.11431155622E+01 0.10156092126E+01 0.94161737798E+00 0.91615280588E+00
 0.93737852265E+00 0.10068469485E+01 0.11292723070E+01 0.13120272479E+01 0.15646959560E+01
 0.18987599647E+01 0.23270580999E+01 0.28623705399E+01 0.35145264548E+01 0.42859267636E+01
 0.51662647722E+01 0.61281099107E+01 0.71252326739E+01 0.80948159344E+01 0.10529398626E+02
 0.11185247790E+02 0.11539155568E+02 0.11554750666E+02 0.11230379375E+02 0.10599443430E+02
 0.97236193425E+01 0.86817344518E+01 0.75578086201E+01 0.64305062802E+01 0.53648603017E+01
 0.44068344048E+01 0.35815062122E+01 0.28952145457E+01 0.23407764753E+01 0.19037831689E+01
 0.15679085758E+01 0.13181117787E+01 0.11418761951E+01 0.10294289621E+01 0.97386465566E+00
 0.97149396253E+00 0.10221689502E+01 0.11292723070E+01 0.12994059586E+01 0.15420877351E+01
 0.18696261781E+01 0.22968753752E+01 0.28400965487E+01 0.35140290930E+01 0.43268193352E+01
 0.52736756182E+01 0.63313329507E+01 0.74555669069E+01 0.85827991759E+01 0.96353465676E+01
 0.12199840481E+02 0.12769117009E+02 0.12977688756E+02 0.12803395573E+02 0.12264810764E+02
 0.11416702787E+02 0.10338207188E+02 0.91191732673E+01 0.78487291521E+01 0.66067330993E+01
 0.54570974644E+01 0.44429132503E+01 0.35847650224E+01 0.28833968845E+01 0.23259957583E+01
 0.18935883974E+01 0.15669040580E+01 0.13294750104E+01 0.11684796011E+01 0.10746560108E+01
 0.10422665894E+01 0.10692672119E+01 0.11573917981E+01 0.13120272479E+01 0.15420877351E+01
 0.18600962684E+01 0.22822462924E+01 0.28276084760E+01 0.35153186788E+01 0.43590723216E+01
 0.53597576943E+01 0.64987722369E+01 0.77348871814E+01 0.90057490698E+01 0.10232745110E+02
 0.11327475202E+02 0.13888622859E+02 0.14314904854E+02 0.14333557574E+02 0.13942952874E+02
 0.13179280538E+02 0.12114574700E+02 0.10845898264E+02 0.94693460545E+01 0.80739123674E+01
 0.67374771459E+01 0.55215733646E+01 0.44660822264E+01 0.35869669809E+01 0.28794082538E+01
 0.23253693710E+01 0.19020839833E+01 0.15882071561E+01 0.13665957223E+01 0.12247371656E+01
 0.11543990942E+01 0.11513973159E+01 0.12155604621E+01 0.13507119235E+01 0.15646959560E+01
 0.18696261781E+01 0.22822462924E+01 0.28235826232E+01 0.35164412382E+01 0.43796292817E+01
 0.54195775118E+01 0.66224146443E+01 0.79502701030E+01 0.93432453338E+01 0.10724779640E+02
 0.12006908476E+02 0.13094205007E+02 0.15423743951E+02 0.15651268043E+02 0.15460980537E+02
 0.14866305951E+02 0.13909509262E+02 0.12662423807E+02 0.11228918173E+02 0.97215066100E+01
 0.82265068717E+01 0.68180950830E+01 0.55552123636E+01 0.44744837889E+01 0.35870841565E+01
 0.28827451642E+01 0.23388475101E+01 0.19297906053E+01 0.16330930723E+01 0.14317068193E+01
 0.13140427386E+01 0.12733542129E+01 0.13073004831E+01 0.14178195635E+01 0.16112555771E+01
 0.18987599647E+01 0.22968753752E+01 0.28276084760E+01 0.35164412382E+01 0.43866521445E+01
 0.54501092041E+01 0.66978306793E+01 0.80953164517E+01 0.95852347124E+01 0.11094582972E+02
 0.12538828618E+02 0.13807594747E+02 0.14794206464E+02 0.16623311109E+02 0.16641098723E+02
 0.16264396694E+02 0.15510491534E+02 0.14415331719E+02 0.13039933546E+02 0.11482669837E+02
 0.98733209207E+01 0.83044625973E+01 0.68466876251E+01 0.55566737951E+01 0.44674736735E+01
 0.35850462227E+01 0.28938112232E+01 0.23673327202E+01 0.19782196884E+01 0.17038550086E+01
 0.15280885255E+01 0.14408061290E+01 0.14370870762E+01 0.15167162586E+01 0.16841760351E+01
 0.19490966996E+01 0.23270580999E+01 0.28400965487E+01 0.35153186788E+01 0.43796292817E+01
 0.54501092041E+01 0.67230898639E+01 0.81678570492E+01 0.97293880503E+01 0.11337961134E+02
 0.12905069496E+02 0.14301575451E+02 0.15425153685E+02 0.16211729054E+02 0.17422333187E+02
 0.17260876338E+02 0.16747806249E+02 0.15892259334E+02 0.14712871004E+02 0.13254017499E+02
 0.11610021719E+02 0.99264185245E+01 0.83077883481E+01 0.68228157731E+01 0.55259153030E+01
 0.44455629704E+01 0.35817824147E+01 0.29138685337E+01 0.24124618457E+01 0.20495316071E+01
 0.18033845911E+01 0.16595297294E+01 0.16097645926E+01 0.16512854029E+01 0.17864037269E+01
 0.20228325964E+01 0.23744851726E+01 0.28623705399E+01 0.35140290930E+01 0.43590723216E+01
 0.54195775118E+01 0.66978306793E+01 0.81678570492E+01 0.97770514737E+01 0.11457662000E+02
 0.13111387508E+02 0.14591703202E+02 0.15798812875E+02 0.16684661643E+02 0.17229064461E+02
 0.17868850299E+02 0.17580620767E+02 0.16986600880E+02 0.16076943184E+02 0.14846515890E+02
 0.13325717670E+02 0.11615467223E+02 0.98820481109E+01 0.82365360977E+01 0.67468715101E+01
 0.54641416664E+01 0.44105055248E+01 0.35792118130E+01 0.29448375944E+01 0.24762778747E+01
 0.21461719197E+01 0.19347518748E+01 0.18297795957E+01 0.18253332308E+01 0.19211072639E+01
 0.21224817023E+01 0.24411859779E+01 0.28963166530E+01 0.35145264548E+01 0.43268193352E+01
 0.53597576943E+01 0.66224146443E+01 0.80953164517E+01 0.97293880503E+01 0.11457662000E+02
 0.13176920361E+02 0.14720137532E+02 0.15979000629E+02 0.16917784656E+02 0.17539818195E+02
 0.17855305730E+02 0.18072438478E+02 0.17710230346E+02 0.17075587363E+02 0.16131805489E+02
 0.14851954106E+02 0.13266095674E+02 0.11499257851E+02 0.97391849699E+01 0.80906701881E+01
 0.66205416673E+01 0.53742089758E+01 0.43654235438E+01 0.35801125961E+01 0.29890517540E+01
 0.25609733337E+01 0.22705698533E+01 0.21007863491E+01 0.20420349906E+01 0.20910572349E+01
 0.22505333541E+01 0.25294731091E+01 0.29442508183E+01 0.35194294352E+01 0.42859267636E+01
 0.52736756182E+01 0.64987722369E+01 0.79502701030E+01 0.95852347124E+01 0.11337961134E+02
 0.13111387508E+02 0.14720137532E+02 0.16030212113E+02 0.17003884985E+02 0.17664858664E+02
 0.18050397866E+02 0.18183911778E+02 0.18142574303E+02 0.17742750610E+02 0.17078738358E+02
 0.16086314149E+02 0.14730982873E+02 0.13065693134E+02 0.11256989238E+02 0.94960939516E+01
 0.78719148245E+01 0.64481063520E+01 0.52611831320E+01 0.43147953807E+01 0.35878775351E+01
 0.30490446587E+01 0.26687062096E+01 0.24248331011E+01 0.23036224274E+01 0.22984261490E+01
 0.24090012841E+01 0.26414219061E+01 0.30087319387E+01 0.35321387804E+01 0.42407376771E+01
 0.51662647722E+01 0.63313329507E+01 0.77348871814E+01 0.93432453338E+01 0.11094582972E+02
 0.12905069496E+02 0.14591703202E+02 0.15979000629E+02 0.17003884985E+02 0.17695042141E+02
 0.18116217114E+02 0.18318955305E+02 0.18327405429E+02 0.18145059140E+02 0.17715838756E+02
 0.16999169529E+02 0.15915817220E+02 0.14450225401E+02 0.12703470487E+02 0.10885491208E+02
 0.91545340439E+01 0.75865283456E+01 0.62376899336E+01 0.51325395588E+01 0.42641824661E+01
 0.36061926503E+01 0.31272967594E+01 0.28013052357E+01 0.26103283496E+01 0.25441760797E+01
 0.25993549022E+01 0.27787723124E+01 0.30919994805E+01 0.35561879526E+01 0.41967980361E+01
 0.50449430034E+01 0.61281099107E+01 0.74555669069E+01 0.90057490698E+01 0.10724779640E+02
 0.12538828618E+02 0.14301575451E+02 0.15798812875E+02 0.16917784656E+02 0.17664858664E+02
 0.18116217114E+02 0.18354661375E+02 0.18432739091E+02 0.18367656963E+02 0.18082819461E+02
 0.17598049545E+02 0.16777666521E+02 0.15555002222E+02 0.13964483139E+02 0.12170252500E+02
 0.10388503340E+02 0.87243221247E+01 0.72473166339E+01 0.60014849980E+01 0.49976206100E+01
 0.42196415650E+01 0.36385942011E+01 0.32257912535E+01 0.29597313598E+01 0.28270987251E+01
 0.28214748911E+01 0.29425122201E+01 0.31960405129E+01 0.35948519760E+01 0.41597465615E+01
 0.49187910037E+01 0.59012881129E+01 0.71252326739E+01 0.85827991759E+01 0.10232745110E+02
 0.12006908476E+02 0.13807594747E+02 0.15425153685E+02 0.16684661643E+02 0.17539818195E+02
 0.18050397866E+02 0.18318955305E+02 0.18432739091E+02 0.18437440324E+02 0.18334738526E+02
 0.17895218125E+02 0.17300127943E+02 0.16320225801E+02 0.14936166633E+02 0.13253571831E+02
 0.11484763282E+02 0.97825350977E+01 0.82256297887E+01 0.68734776873E+01 0.57544948654E+01
 0.48663424160E+01 0.41868219849E+01 0.36878160319E+01 0.33453595498E+01 0.31433780120E+01
 0.30731361278E+01 0.31317463989E+01 0.33215760817E+01 0.36508293884E+01 0.41349163014E+01
 0.47970983176E+01 0.56653512631E+01 0.67629972025E+01 0.80948159344E+01 0.96353465676E+01
 0.11327475202E+02 0.13094205007E+02 0.14794206464E+02 0.16211729054E+02 0.17229064461E+02
 0.17855305730E+02 0.18183911778E+02 0.18327405429E+02 0.18367656963E+02 0.18334738526E+02
 0.18203123734E+02 0.16278218336E+02 0.16066637530E+02 0.15284203092E+02 0.14005785151E+02
 0.12466961692E+02 0.10894056056E+02 0.93954463955E+01 0.80518797269E+01 0.69110648449E+01
 0.59860271298E+01 0.52654309515E+01 0.47283009901E+01 0.43553315987E+01 0.41335316013E+01
 0.40560540696E+01 0.41207147205E+01 0.43292981155E+01 0.46881705144E+01 0.52097650736E+01
 0.59129686377E+01 0.68189614282E+01 0.79404539959E+01 0.92671123912E+01 0.10754583119E+02
 0.12324775046E+02 0.13873673740E+02 0.15187108842E+02 0.16020069059E+02 0.16281046331E+02
 0.16064450997E+02 0.15603426419E+02 0.15173710842E+02 0.14992158185E+02 0.15144643515E+02
 0.15559288633E+02 0.16028651801E+02 0.16066637530E+02 0.15482452463E+02 0.14413913674E+02
 0.13034526666E+02 0.11563445957E+02 0.10116150192E+02 0.87791991642E+01 0.76118102312E+01
 0.66400869553E+01 0.58630340512E+01 0.52651954315E+01 0.48289066358E+01 0.45413267675E+01
 0.43956976681E+01 0.43894823008E+01 0.45225284034E+01 0.47970422410E+01 0.52193802994E+01
 0.58019487277E+01 0.65622071213E+01 0.75161479065E+01 0.86665103580E+01 0.99900567818E+01
 0.11430649851E+02 0.12903662254E+02 0.14298955910E+02 0.15404610547E+02 0.16035459496E+02
 0.16163815795E+02 0.15923685857E+02 0.15549666857E+02 0.15280608343E+02 0.15267473507E+02
 0.15517452159E+02 0.15891177536E+02 0.16154069544E+02 0.15284203092E+02 0.14413913674E+02
 0.13230801230E+02 0.11916620483E+02 0.10580473087E+02 0.93092253017E+01 0.81685488677E+01
 0.71943936684E+01 0.63954182837E+01 0.57629396398E+01 0.52825918313E+01 0.49427095706E+01
 0.47373494827E+01 0.46649471453E+01 0.47254498318E+01 0.49188318989E+01 0.52463500561E+01
 0.57134833748E+01 0.63315783123E+01 0.71151311516E+01 0.80736856136E+01 0.92004258518E+01
 0.10462102836E+02 0.11795728528E+02 0.13115791406E+02 0.14317566108E+02 0.15222644774E+02
 0.15705027840E+02 0.15782426198E+02 0.15600948640E+02 0.15367373353E+02 0.15259307499E+02
 0.15350208641E+02 0.15578646555E+02 0.15773735375E+02 0.15727270583E+02 0.14005785151E+02
 0.13034526666E+02 0.11916620483E+02 0.10740930194E+02 0.95889041085E+01 0.85273393989E+01
 0.75980621774E+01 0.68173049088E+01 0.61828590512E+01 0.56843862488E+01 0.53121925519E+01
 0.50616304055E+01 0.49327785046E+01 0.49272387979E+01 0.50451194277E+01 0.52848015480E+01
 0.56458030778E+01 0.61323217590E+01 0.67539441368E+01 0.75213814720E+01 0.84378135411E+01
 0.94888013529E+01 0.10634989503E+02 0.11811790930E+02 0.12938465014E+02 0.13927883999E+02
 0.14652606267E+02 0.15035568413E+02 0.15117993974E+02 0.15031891699E+02 0.14933496770E+02
 0.14928361405E+02 0.15021519610E+02 0.15115010194E+02 0.15054059346E+02 0.14701335312E+02
 0.12466961692E+02 0.11563445957E+02 0.10580473087E+02 0.95889041085E+01 0.86513218719E+01
 0.78109716931E+01 0.70887957867E+01 0.64878065304E+01 0.60014850760E+01 0.56222050289E+01
 0.53465841433E+01 0.51763832645E+01 0.51156184657E+01 0.51664457967E+01 0.53270533588E+01
 0.55933155832E+01 0.59630011371E+01 0.64391281347E+01 0.70293661555E+01 0.77407157919E+01
 0.85711687316E+01 0.95014589002E+01 0.10490428401E+02 0.11477096057E+02 0.12390731172E+02
 0.13165870657E+02 0.13730989310E+02 0.14044650612E+02 0.14150548099E+02 0.14147331998E+02
 0.14131665231E+02 0.14145453409E+02 0.14153330981E+02 0.14061626355E+02 0.13769426243E+02
 0.13226388325E+02 0.10894056056E+02 0.10116150192E+02 0.93092253017E+01 0.85273393989E+01
 0.78109716931E+01 0.71825421225E+01 0.66483981631E+01 0.62050428412E+01 0.58465221470E+01
 0.55701529912E+01 0.53786464318E+01 0.52781536119E+01 0.52737995882E+01 0.53658805048E+01
 0.55495702883E+01 0.58184550158E+01 0.61693019666E+01 0.66045034862E+01 0.71301682633E+01
 0.77503484512E+01 0.84596499703E+01 0.92370566762E+01 0.10043695176E+02 0.10826591077E+02
 0.11528757182E+02 0.12103176505E+02 0.12521934934E+02 0.12772404065E+02 0.12885823102E+02
 0.12920695699E+02 0.12921853417E+02 0.12891385142E+02 0.12787368302E+02 0.12551015914E+02
 0.12147316170E+02 0.11586193301E+02 0.93954463955E+01 0.87791991642E+01 0.81685488677E+01
 0.75980621774E+01 0.70887957867E+01 0.66483981631E+01 0.62752477329E+01 0.59644109352E+01
 0.57131295483E+01 0.55238472010E+01 0.54035584979E+01 0.53598996125E+01 0.53964077670E+01
 0.55101874837E+01 0.56937128140E+01 0.59395475430E+01 0.62447085682E+01 0.66117615827E+01
 0.70458884474E+01 0.75492712410E+01 0.81150812925E+01 0.87233568689E+01 0.93406790021E+01
 0.99247862808E+01 0.10433694788E+02 0.10836635744E+02 0.11122300635E+02 0.11299740334E+02
 0.11389725397E+02 0.11417157991E+02 0.11394418176E+02 0.11310950611E+02 0.11142235069E+02
 0.10866968385E+02 0.10474628477E+02 0.99744155677E+01 0.80518797269E+01 0.76118102312E+01
 0.71943936684E+01 0.68173049088E+01 0.64878065304E+01 0.62050428412E+01 0.59644109352E+01
 0.57623482003E+01 0.55997860437E+01 0.54827578015E+01 0.54197117141E+01 0.54169095397E+01
 0.54747347039E+01 0.55873966771E+01 0.57463001189E+01 0.59448540686E+01 0.61816459650E+01
 0.64601553977E+01 0.67852875033E+01 0.71584262340E+01 0.75729777562E+01 0.80120354027E+01
 0.84493355018E+01 0.88539181771E+01 0.91975297202E+01 0.94621439867E+01 0.96441385142E+01
 0.97526536032E+01 0.98024160247E+01 0.98044026524E+01 0.97591977504E+01 0.96566357755E+01
 0.94819269320E+01 0.92249584125E+01 0.88879276966E+01 0.84876528957E+01 0.69110648449E+01
 0.66400869553E+01 0.63954182837E+01 0.61828590512E+01 0.60014850760E+01 0.58465221470E+01
 0.57131295483E+01 0.55997860437E+01 0.55098377188E+01 0.54502689888E+01 0.54281295998E+01
 0.54465938321E+01 0.55030970905E+01 0.55907796788E+01 0.57023322491E+01 0.58338489985E+01
 0.59864632085E+01 0.61650216178E+01 0.63746374324E+01 0.66167172387E+01 0.68859632768E+01
 0.71694161860E+01 0.74481052042E+01 0.77011530395E+01 0.79111302129E+01 0.80685074230E+01
 0.81730211334E+01 0.82310618720E+01 0.82502798799E+01 0.82342344183E+01 0.81800090172E+01
 0.80801279878E+01 0.79277361748E+01 0.77222200681E+01 0.74722750151E+01 0.71949094196E+01
 0.59860271298E+01 0.58630340512E+01 0.57629396398E+01 0.56843862488E+01 0.56222050289E+01
 0.55701529912E+01 0.55238472010E+01 0.54827578015E+01 0.54502689888E+01 0.54316178130E+01
 0.54307412278E+01 0.54478745647E+01 0.54793971336E+01 0.55200240560E+01 0.55659853367E+01
 0.56173317763E+01 0.56781689350E+01 0.57548128124E+01 0.58527899952E+01 0.59739197345E+01
 0.61145393792E+01 0.62655163753E+01 0.64141472983E+01 0.65474051902E+01 0.66553854861E+01
 0.67335204274E+01 0.67825063784E+01 0.68059445082E+01 0.68069533842E+01 0.67856800933E+01
 0.67391766402E+01 0.66637234604E+01 0.65582395977E+01 0.64268264437E+01 0.62790513461E+01
 0.61278417789E+01 0.52654309515E+01 0.52651954315E+01 0.52825918313E+01 0.53121925519E+01
 0.53465841433E+01 0.53786464318E+01 0.54035584979E+01 0.54197117141E+01 0.54281295998E+01
 0.54307412278E+01 0.54285315444E+01 0.54207028136E+01 0.54053643909E+01 0.53813108120E+01
 0.53498032808E+01 0.53153186594E+01 0.52848308339E+01 0.52659030594E+01 0.52643446930E+01
 0.52823101099E+01 0.53175302339E+01 0.53639563212E+01 0.54135903913E+01 0.54588406642E+01
 0.54945219731E+01 0.55187199179E+01 0.55321884363E+01 0.55366491899E+01 0.55329821085E+01
 0.55204089378E+01 0.54971920914E+01 0.54624221682E+01 0.54177909911E+01 0.53682830867E+01
 0.53213644597E+01 0.52850173547E+01 0.47283009901E+01 0.48289066358E+01 0.49427095706E+01
 0.50616304055E+01 0.51763832645E+01 0.52781536119E+01 0.53598996125E+01 0.54169095397E+01
 0.54465938321E+01 0.54478745647E+01 0.54207028136E+01 0.53660572702E+01 0.52863980219E+01
 0.51862338118E+01 0.50723591244E+01 0.49534206158E+01 0.48387296243E+01 0.47365852671E+01
 0.46526636084E+01 0.45890709089E+01 0.45444004389E+01 0.45147349997E+01 0.44952143117E+01
 0.44816229658E+01 0.44714480619E+01 0.44640426782E+01 0.44599331314E+01 0.44597597123E+01
 0.44635299864E+01 0.44706271947E+01 0.44805284500E+01 0.44937873267E+01 0.45127166171E+01
 0.45413420732E+01 0.45844902144E+01 0.46462420920E+01 0.43553315987E+01 0.45413267675E+01
 0.47373494827E+01 0.49327785046E+01 0.51156184657E+01 0.52737995882E+01 0.53964077670E+01
 0.54747347039E+01 0.55030970905E+01 0.54793971336E+01 0.54053643909E+01 0.52863980219E+01
 0.51310040669E+01 0.49499393876E+01 0.47551856273E+01 0.45587806619E+01 0.43715203285E+01
 0.42017160144E+01 0.40543772288E+01 0.39311284946E+01 0.38308728610E+01 0.37509295648E+01
 0.36882703509E+01 0.36405060844E+01 0.36063567927E+01 0.35855204168E+01 0.35781457558E+01
 0.35843228261E+01 0.36039243909E+01 0.36368372884E+01 0.36833909212E+01 0.37447547323E+01
 0.38231071203E+01 0.39213665538E+01 0.40423411905E+01 0.41874286853E+01 0.41335316013E+01
 0.43956976681E+01 0.46649471453E+01 0.49272387979E+01 0.51664457967E+01 0.53658805048E+01
 0.55101874837E+01 0.55873966771E+01 0.55907796788E+01 0.55200240560E+01 0.53813108120E+01
 0.51862338118E+01 0.49499393876E+01 0.46890544887E+01 0.44198123319E+01 0.41565207032E+01
 0.39104254640E+01 0.36890865386E+01 0.34963891657E+01 0.33331619598E+01 0.31981851583E+01
 0.30892874942E+01 0.30042576516E+01 0.29413883160E+01 0.28996164095E+01 0.28783906034E+01
 0.28774806627E+01 0.28968759137E+01 0.29367922112E+01 0.29977572915E+01 0.30807610070E+01
 0.31874063019E+01 0.33198644163E+01 0.34804014783E+01 0.36704338637E+01 0.38893576421E+01
 0.40560540696E+01 0.43894823008E+01 0.47254498318E+01 0.50451194277E+01 0.53270533588E+01
 0.55495702883E+01 0.56937128140E+01 0.57463001189E+01 0.57023322491E+01 0.55659853367E+01
 0.53498032808E+01 0.50723591244E+01 0.47551856273E+01 0.44198123319E+01 0.40854157870E+01
 0.37672706854E+01 0.34760528937E+01 0.32179610526E+01 0.29954768056E+01 0.28084574255E+01
 0.26552550094E+01 0.25336441515E+01 0.24414343294E+01 0.23767563526E+01 0.23381525960E+01
 0.23246544005E+01 0.23359062659E+01 0.23722307964E+01 0.24345465813E+01 0.25242288630E+01
 0.26430594394E+01 0.27932145567E+01 0.29770266878E+01 0.31963203476E+01 0.34514005189E+01
 0.37399505852E+01 0.41207147205E+01 0.45225284034E+01 0.49188318989E+01 0.52848015480E+01
 0.55933155832E+01 0.58184550158E+01 0.59395475430E+01 0.59448540686E+01 0.58338489985E+01
 0.56173317763E+01 0.53153186594E+01 0.49534206158E+01 0.45587806619E+01 0.41565207032E+01
 0.37672706854E+01 0.34059795190E+01 0.30819152252E+01 0.27995381620E+01 0.25598081708E+01
 0.23615087672E+01 0.22023093288E+01 0.20794625946E+01 0.19901985583E+01 0.19319859654E+01
 0.19028226416E+01 0.19015696027E+01 0.19281860798E+01 0.19837231314E+01 0.20700951657E+01
 0.21897813943E+01 0.23455630801E+01 0.25402476738E+01 0.27762408795E+01 0.30548555527E+01
 0.33753185293E+01 0.37335219158E+01 0.43292981155E+01 0.47970422410E+01 0.52463500561E+01
 0.56458030778E+01 0.59630011371E+01 0.61693019666E+01 0.62447085682E+01 0.61816459650E+01
 0.59864632085E+01 0.56781689350E+01 0.52848308339E+01 0.48387296243E+01 0.43715203285E+01
 0.39104254640E+01 0.34760528937E+01 0.30819152252E+01 0.27352636567E+01 0.24386083179E+01
 0.21913373320E+01 0.19910511835E+01 0.18344583164E+01 0.17178913883E+01 0.16376687096E+01
 0.15905323949E+01 0.15741970173E+01 0.15878117292E+01 0.16321147136E+01 0.17092473112E+01
 0.18223635166E+01 0.19751667007E+01 0.21714243654E+01 0.24144779578E+01 0.27067194690E+01
 0.30488680230E+01 0.34387972930E+01 0.38698820258E+01 0.46881705144E+01 0.52193802994E+01
 0.57134833748E+01 0.61323217590E+01 0.64391281347E+01 0.66045034862E+01 0.66117615827E+01
 0.64601553977E+01 0.61650216178E+01 0.57548128124E+01 0.52659030594E+01 0.47365852671E+01
 0.42017160144E+01 0.36890865386E+01 0.32179610526E+01 0.27995381620E+01 0.24386083179E+01
 0.21355633660E+01 0.18881277615E+01 0.16925438067E+01 0.15442768866E+01 0.14385030534E+01
 0.13706442141E+01 0.13370388510E+01 0.13356064639E+01 0.13662603776E+01 0.14309127750E+01
 0.15330938953E+01 0.16773334112E+01 0.18684842095E+01 0.21111265749E+01 0.24090612890E+01
 0.27646919924E+01 0.31779592104E+01 0.36446329583E+01 0.41542149254E+01 0.52097650736E+01
 0.58019487277E+01 0.63315783123E+01 0.67539441368E+01 0.70293661555E+01 0.71301682633E+01
 0.70458884474E+01 0.67852875033E+01 0.63746374324E+01 0.58527899952E+01 0.52643446930E+01
 0.46526636084E+01 0.40543772288E+01 0.34963891657E+01 0.29954768056E+01 0.25598081708E+01
 0.21913373320E+01 0.18881277615E+01 0.16460434781E+01 0.14597442150E+01 0.13232961789E+01
 0.12307802028E+01 0.11770582496E+01 0.11585801085E+01 0.11739993912E+01 0.12244263581E+01
 0.13132438520E+01 0.14455099416E+01 0.16271134617E+01 0.18639681265E+01 0.21614320972E+01
 0.25237896364E+01 0.29533264341E+01 0.34486200875E+01 0.40021527530E+01 0.45978913674E+01
 0.59129686377E+01 0.65622071213E+01 0.71151311516E+01 0.75213814720E+01 0.77407157919E+01
 0.77503484512E+01 0.75492712410E+01 0.71584262340E+01 0.66167172387E+01 0.59739197345E+01
 0.52823101099E+01 0.45890709089E+01 0.39311284946E+01 0.33331619598E+01 0.28084574255E+01
 0.23615087672E+01 0.19910511835E+01 0.16925438067E+01 0.14597442150E+01 0.12855917460E+01
 0.11628607211E+01 0.10849137524E+01 0.10465793797E+01 0.10449558738E+01 0.10799066310E+01
 0.11540956113E+01 0.12725360254E+01 0.14417797374E+01 0.16690133053E+01 0.19613087701E+01
 0.23250162886E+01 0.27649331582E+01 0.32827572887E+01 0.38746200853E+01 0.45280734558E+01
 0.52194713950E+01 0.68189614282E+01 0.75161479065E+01 0.80736856136E+01 0.84378135411E+01
 0.85711687316E+01 0.84596499703E+01 0.81150812925E+01 0.75729777562E+01 0.68859632768E+01
 0.61145393792E+01 0.53175302339E+01 0.45444004389E+01 0.38308728610E+01 0.31981851583E+01
 0.26552550094E+01 0.22023093288E+01 0.18344583164E+01 0.15442768866E+01 0.13232961789E+01
 0.11628607211E+01 0.10548443617E+01 0.99244953329E+00 0.97105154114E+00 0.98890142275E+00
 0.10474455128E+01 0.11510938320E+01 0.13065041171E+01 0.15216893808E+01 0.18052513269E+01
 0.21657429835E+01 0.26108159066E+01 0.31456830627E+01 0.37706002653E+01 0.44774804310E+01
 0.52463461875E+01 0.60429304283E+01 0.79404539959E+01 0.86665103580E+01 0.92004258518E+01
 0.94888013529E+01 0.95014589002E+01 0.92370566762E+01 0.87233568689E+01 0.80120354027E+01
 0.71694161860E+01 0.62655163753E+01 0.53639563212E+01 0.45147349997E+01 0.37509295648E+01
 0.30892874942E+01 0.25336441515E+01 0.20794625946E+01 0.17178913883E+01 0.14385030534E+01
 0.12307802028E+01 0.10849137524E+01 0.99244953329E+00 0.94702001580E+00 0.94509638489E+00
 0.98651286934E+00 0.10745106111E+01 0.12152504608E+01 0.14170287018E+01 0.16895328756E+01
 0.20432460949E+01 0.24886991761E+01 0.30350009339E+01 0.36871646410E+01 0.44422090713E+01
 0.52847217360E+01 0.61832759290E+01 0.70894068574E+01 0.92671123912E+01 0.99900567818E+01
 0.10462102836E+02 0.10634989503E+02 0.10490428401E+02 0.10043695176E+02 0.93406790021E+01
 0.84493355018E+01 0.74481052042E+01 0.64141472983E+01 0.54135903913E+01 0.44952143117E+01
 0.36882703509E+01 0.30042576516E+01 0.24414343294E+01 0.19901985583E+01 0.16376687096E+01
 0.13706442141E+01 0.11770582496E+01 0.10465793797E+01 0.97105154114E+00 0.94509638489E+00
 0.96673001019E+00 0.10376292911E+01 0.11628767965E+01 0.13503800348E+01 0.16103012445E+01
 0.19546067096E+01 0.23964473766E+01 0.29487809378E+01 0.36216131242E+01 0.44176248376E+01
 0.53268088959E+01 0.63217111879E+01 0.73552604802E+01 0.83625915745E+01 0.10754583119E+02
 0.11430649851E+02 0.11795728528E+02 0.11811790930E+02 0.11477096057E+02 0.10826591077E+02
 0.99247862808E+01 0.88539181771E+01 0.77011530395E+01 0.65474051902E+01 0.54588406642E+01
 0.44816229658E+01 0.36405060844E+01 0.29413883160E+01 0.23767563526E+01 0.19319859654E+01
 0.15905323949E+01 0.13370388510E+01 0.11585801085E+01 0.10449558738E+01 0.98890142275E+00
 0.98651286934E+00 0.10376292911E+01 0.11458319355E+01 0.13180783737E+01 0.15643083774E+01
 0.18972372412E+01 0.23320547135E+01 0.28852625644E+01 0.35717901112E+01 0.44000482821E+01
 0.53656724563E+01 0.64458287685E+01 0.75962571815E+01 0.87523350757E+01 0.98341088063E+01
 0.12324775046E+02 0.12903662254E+02 0.13115791406E+02 0.12938465014E+02 0.12390731172E+02
 0.11528757182E+02 0.10433694788E+02 0.91975297202E+01 0.79111302129E+01 0.66553854861E+01
 0.54945219731E+01 0.44714480619E+01 0.36063567927E+01 0.28996164095E+01 0.23381525960E+01
 0.19028226416E+01 0.15741970173E+01 0.13356064639E+01 0.11739993912E+01 0.10799066310E+01
 0.10474455128E+01 0.10745106111E+01 0.11628767965E+01 0.13180783737E+01 0.15492464079E+01
 0.18691253553E+01 0.22940953461E+01 0.28433942675E+01 0.35363501120E+01 0.43869135641E+01
 0.53963079438E+01 0.65463038615E+01 0.77959109148E+01 0.90825658625E+01 0.10326702948E+02
 0.11438194617E+02 0.13873673740E+02 0.14298955910E+02 0.14317566108E+02 0.13927883999E+02
 0.13165870657E+02 0.12103176505E+02 0.10836635744E+02 0.94621439867E+01 0.80685074230E+01
 0.67335204274E+01 0.55187199179E+01 0.44640426782E+01 0.35855204168E+01 0.28783906034E+01
 0.23246544005E+01 0.19015696027E+01 0.15878117292E+01 0.13662603776E+01 0.12244263581E+01
 0.11540956113E+01 0.11510938320E+01 0.12152504608E+01 0.13503800348E+01 0.15643083774E+01
 0.18691253553E+01 0.22815525227E+01 0.28225973078E+01 0.35150421160E+01 0.43776546060E+01
 0.54168074349E+01 0.66185631952E+01 0.79449994046E+01 0.93362108564E+01 0.10715709316E+02
 0.11995702086E+02 0.13080967530E+02 0.15187108842E+02 0.15404610547E+02 0.15222644774E+02
 0.14652606267E+02 0.13730989310E+02 0.12521934934E+02 0.11122300635E+02 0.96441385142E+01
 0.81730211334E+01 0.67825063784E+01 0.55321884363E+01 0.44599331314E+01 0.35781457558E+01
 0.28774806627E+01 0.23359062659E+01 0.19281860798E+01 0.16321147136E+01 0.14309127750E+01
 0.13132438520E+01 0.12725360254E+01 0.13065041171E+01 0.14170287018E+01 0.16103012445E+01
 0.18972372412E+01 0.22940953461E+01 0.28225973078E+01 0.35079009376E+01 0.43727427129E+01
 0.54280468887E+01 0.66635426558E+01 0.80434961801E+01 0.95099900680E+01 0.10990609800E+02
 0.12401690905E+02 0.13632689440E+02 0.14583526736E+02 0.16020069059E+02 0.16035459496E+02
 0.15705027840E+02 0.15035568413E+02 0.14044650612E+02 0.12772404065E+02 0.11299740334E+02
 0.97526536032E+01 0.82310618720E+01 0.68059445082E+01 0.55366491899E+01 0.44597597123E+01
 0.35843228261E+01 0.28968759137E+01 0.23722307964E+01 0.19837231314E+01 0.17092473112E+01
 0.15330938953E+01 0.14455099416E+01 0.14417797374E+01 0.15216893808E+01 0.16895328756E+01
 0.19546067096E+01 0.23320547135E+01 0.28433942675E+01 0.35150421160E+01 0.43727427129E+01
 0.54315239014E+01 0.66846242303E+01 0.80977711549E+01 0.96132549967E+01 0.11161046402E+02
 0.12646110939E+02 0.13940834107E+02 0.14959566887E+02 0.15658996036E+02 0.16281046331E+02
 0.16163815795E+02 0.15782426198E+02 0.15117993974E+02 0.14150548099E+02 0.12885823102E+02
 0.11389725397E+02 0.98024160247E+01 0.82502798799E+01 0.68069533842E+01 0.55329821085E+01
 0.44635299864E+01 0.36039243909E+01 0.29367922112E+01 0.24345465813E+01 0.20700951657E+01
 0.18223635166E+01 0.16773334112E+01 0.16271134617E+01 0.16690133053E+01 0.18052513269E+01
 0.20432460949E+01 0.23964473766E+01 0.28852625644E+01 0.35363501120E+01 0.43776546060E+01
 0.54280468887E+01 0.66846242303E+01 0.81148112138E+01 0.96598567792E+01 0.11247723585E+02
 0.12758893483E+02 0.14048583028E+02 0.15043882210E+02 0.15734887935E+02 0.16140685089E+02
 0.16064450997E+02 0.15923685857E+02 0.15600948640E+02 0.15031891699E+02 0.14147331998E+02
 0.12920695699E+02 0.11417157991E+02 0.98044026524E+01 0.82342344183E+01 0.67856800933E+01
 0.55204089378E+01 0.44706271947E+01 0.36368372884E+01 0.29977572915E+01 0.25242288630E+01
 0.21897813943E+01 0.19751667007E+01 0.18684842095E+01 0.18639681265E+01 0.19613087701E+01
 0.21657429835E+01 0.24886991761E+01 0.29487809378E+01 0.35717901112E+01 0.43869135641E+01
 0.54168074349E+01 0.66635426558E+01 0.80977711549E+01 0.96598567792E+01 0.11273037416E+02
 0.12794670996E+02 0.14050923645E+02 0.14966460425E+02 0.15561121581E+02 0.15902759172E+02
 0.16057954734E+02 0.15603426419E+02 0.15549666857E+02 0.15367373353E+02 0.14933496770E+02
 0.14131665231E+02 0.12921853417E+02 0.11394418176E+02 0.97591977504E+01 0.81800090172E+01
 0.67391766402E+01 0.54971920914E+01 0.44805284500E+01 0.36833909212E+01 0.30807610070E+01
 0.26430594394E+01 0.23455630801E+01 0.21714243654E+01 0.21111265749E+01 0.21614320972E+01
 0.23250162886E+01 0.26108159066E+01 0.30350009339E+01 0.36216131242E+01 0.44000482821E+01
 0.53963079438E+01 0.66185631952E+01 0.80434961801E+01 0.96132549967E+01 0.11247723585E+02
 0.12794670996E+02 0.14039162218E+02 0.14878005561E+02 0.15340844939E+02 0.15540202089E+02
 0.15601218201E+02 0.15611705682E+02 0.15173710842E+02 0.15280608343E+02 0.15259307499E+02
 0.14928361405E+02 0.14145453409E+02 0.12891385142E+02 0.11310950611E+02 0.96566357755E+01
 0.80801279878E+01 0.66637234604E+01 0.54624221682E+01 0.44937873267E+01 0.37447547323E+01
 0.31874063019E+01 0.27932145567E+01 0.25402476738E+01 0.24144779578E+01 0.24090612890E+01
 0.25237896364E+01 0.27649331582E+01 0.31456830627E+01 0.36871646410E+01 0.44176248376E+01
 0.53656724563E+01 0.65463038615E+01 0.79449994046E+01 0.95099900680E+01 0.11161046402E+02
 0.12758893483E+02 0.14050923645E+02 0.14878005561E+02 0.15245155360E+02 0.15286860714E+02
 0.15184561096E+02 0.15089866132E+02 0.15085043540E+02 0.14992158185E+02 0.15267473507E+02
 0.15350208641E+02 0.15021519610E+02 0.14153330981E+02 0.12787368302E+02 0.11142235069E+02
 0.94819269320E+01 0.79277361748E+01 0.65582395977E+01 0.54177909911E+01 0.45127166171E+01
 0.38231071203E+01 0.33198644163E+01 0.29770266878E+01 0.27762408795E+01 0.27067194690E+01
 0.27646919924E+01 0.29533264341E+01 0.32827572887E+01 0.37706002653E+01 0.44422090713E+01
 0.53268088959E+01 0.64458287685E+01 0.77959109148E+01 0.93362108564E+01 0.10990609800E+02
 0.12646110939E+02 0.14048583028E+02 0.14966460425E+02 0.15340844939E+02 0.15286860714E+02
 0.15019331732E+02 0.14754967497E+02 0.14642804586E+02 0.14736934946E+02 0.15144643515E+02
 0.15517452159E+02 0.15578646555E+02 0.15115010194E+02 0.14061626355E+02 0.12551015914E+02
 0.10866968385E+02 0.92249584125E+01 0.77222200681E+01 0.64268264437E+01 0.53682830867E+01
 0.45413420732E+01 0.39213665538E+01 0.34804014783E+01 0.31963203476E+01 0.30548555527E+01
 0.30488680230E+01 0.31779592104E+01 0.34486200875E+01 0.38746200853E+01 0.44774804310E+01
 0.52847217360E+01 0.63217111879E+01 0.75962571815E+01 0.90825658625E+01 0.10715709316E+02
 0.12401690905E+02 0.13940834107E+02 0.15043882210E+02 0.15561121581E+02 0.15540202089E+02
 0.15184561096E+02 0.14754967497E+02 0.14472157128E+02 0.14458986746E+02 0.14720720018E+02
 0.15559288633E+02 0.15891177536E+02 0.15773735375E+02 0.15054059346E+02 0.13769426243E+02
 0.12147316170E+02 0.10474628477E+02 0.88879276966E+01 0.74722750151E+01 0.62790513461E+01
 0.53213644597E+01 0.45844902144E+01 0.40423411905E+01 0.36704338637E+01 0.34514005189E+01
 0.33753185293E+01 0.34387972930E+01 0.36446329583E+01 0.40021527530E+01 0.45280734558E+01
 0.52463461875E+01 0.61832759290E+01 0.73552604802E+01 0.87523350757E+01 0.10326702948E+02
 0.11995702086E+02 0.13632689440E+02 0.14959566887E+02 0.15734887935E+02 0.15902759172E+02
 0.15601218201E+02 0.15089866132E+02 0.14642804586E+02 0.14458986746E+02 0.14613473959E+02
 0.15043294842E+02 0.16028651801E+02 0.16154069544E+02 0.15727270583E+02 0.14701335312E+02
 0.13226388325E+02 0.11586193301E+02 0.99744155677E+01 0.84876528957E+01 0.71949094196E+01
 0.61278417789E+01 0.52850173547E+01 0.46462420920E+01 0.41874286853E+01 0.38893576421E+01
 0.37399505852E+01 0.37335219158E+01 0.38698820258E+01 0.41542149254E+01 0.45978913674E+01
 0.52194713950E+01 0.60429304283E+01 0.70894068574E+01 0.83625915745E+01 0.98341088063E+01
 0.11438194617E+02 0.13080967530E+02 0.14583526736E+02 0.15658996036E+02 0.16140685089E+02
 0.16057954734E+02 0.15611705682E+02 0.15085043540E+02 0.14736934946E+02 0.14720720018E+02
 0.15043294842E+02 0.15563370982E+02 0.15772925204E+02 0.16010039419E+02 0.15468673194E+02
 0.14306470559E+02 0.12845805672E+02 0.11335853954E+02 0.98948117009E+01 0.86073131394E+01
 0.75193083349E+01 0.66419117684E+01 0.59648004193E+01 0.54709623602E+01 0.51462324441E+01
 0.49821904642E+01 0.49752010358E+01 0.51250469948E+01 0.54349550241E+01 0.59129564181E+01
 0.65728623513E+01 0.74316928069E+01 0.85007979543E+01 0.97715633716E+01 0.11201624793E+02
 0.12709746396E+02 0.14181864414E+02 0.15385517095E+02 0.15992496853E+02 0.15825604187E+02
 0.14951270860E+02 0.13672782708E+02 0.12432707091E+02 0.11660965123E+02 0.11625324430E+02
 0.12338227430E+02 0.13552375762E+02 0.14846693472E+02 0.16010039419E+02 0.15674126438E+02
 0.14734067018E+02 0.13441892274E+02 0.12044467797E+02 0.10664514552E+02 0.93929974953E+01
 0.82870394061E+01 0.73696881451E+01 0.66396750923E+01 0.60848360693E+01 0.56929396520E+01
 0.54567012651E+01 0.53735281830E+01 0.54430057546E+01 0.56654401869E+01 0.60430563784E+01
 0.65826435239E+01 0.72962328414E+01 0.81964705140E+01 0.92860568147E+01 0.10544459354E+02
 0.11917818557E+02 0.13318057432E+02 0.14627425537E+02 0.15611432233E+02 0.16007773803E+02
 0.15725860159E+02 0.14900338603E+02 0.13855239739E+02 0.12991569630E+02 0.12639761999E+02
 0.12934643121E+02 0.13763536991E+02 0.14809218674E+02 0.15670316835E+02 0.15468673194E+02
 0.14734067018E+02 0.13648182783E+02 0.12418866221E+02 0.11161348519E+02 0.99667498798E+01
 0.88982576045E+01 0.79876918925E+01 0.72419182839E+01 0.66543104447E+01 0.62157014553E+01
 0.59208739795E+01 0.57694512604E+01 0.57629273758E+01 0.59014326805E+01 0.61834534848E+01
 0.66088986017E+01 0.71825241516E+01 0.79135618202E+01 0.88094017725E+01 0.98647018081E+01
 0.11050030575E+02 0.12305126520E+02 0.13541178827E+02 0.14646948187E+02 0.15422484133E+02
 0.15679462388E+02 0.15396787986E+02 0.14742843593E+02 0.14018550256E+02 0.13541816044E+02
 0.13519351280E+02 0.13961022028E+02 0.14675509664E+02 0.15349588273E+02 0.15675185533E+02
 0.14306470559E+02 0.13441892274E+02 0.12418866221E+02 0.11333187766E+02 0.10269905868E+02
 0.92927747140E+01 0.84384137350E+01 0.77197003943E+01 0.71348757860E+01 0.66778211444E+01
 0.63455110588E+01 0.61402674735E+01 0.60669742404E+01 0.61282598044E+01 0.63219303147E+01
 0.66430016960E+01 0.70886266118E+01 0.76614593888E+01 0.83678224027E+01 0.92103294182E+01
 0.10177637613E+02 0.11235349760E+02 0.12322167901E+02 0.13354640798E+02 0.14238575115E+02
 0.14831774270E+02 0.15013871979E+02 0.14808314059E+02 0.14381203538E+02 0.13974049527E+02
 0.13799533930E+02 0.13946682744E+02 0.14340513172E+02 0.14776025113E+02 0.15009860708E+02
 0.14865770876E+02 0.12845805672E+02 0.12044467797E+02 0.11161348519E+02 0.10269905868E+02
 0.94292055637E+01 0.86763773822E+01 0.80274294240E+01 0.74839073933E+01 0.70418907092E+01
 0.66997825134E+01 0.64619345950E+01 0.63368114751E+01 0.63313714804E+01 0.64460180809E+01
 0.66742232225E+01 0.70072307867E+01 0.74400657045E+01 0.79740126055E+01 0.86133006557E+01
 0.93572813485E+01 0.10191380354E+02 0.11080361112E+02 0.11967045254E+02 0.12778900242E+02
 0.13442904550E+02 0.13880639417E+02 0.14027731184E+02 0.13925197065E+02 0.13707732759E+02
 0.13538855941E+02 0.13530761685E+02 0.13688637922E+02 0.13908138370E+02 0.14027275894E+02
 0.13905865044E+02 0.13492985934E+02 0.11335853954E+02 0.10664514552E+02 0.99667498798E+01
 0.92927747140E+01 0.86763773822E+01 0.81337335084E+01 0.76677396300E+01 0.72753270041E+01
 0.69549791000E+01 0.67114909804E+01 0.65556342871E+01 0.64988321736E+01 0.65463269271E+01
 0.66937995689E+01 0.69300550072E+01 0.72437934132E+01 0.76295072092E+01 0.80884493817E+01
 0.86240815390E+01 0.92343964550E+01 0.99044358151E+01 0.10601860679E+02 0.11277794133E+02
 0.11874433609E+02 0.12339203899E+02 0.12639670358E+02 0.12760220498E+02 0.12738048040E+02
 0.12662072196E+02 0.12621659500E+02 0.12655941588E+02 0.12731812668E+02 0.12762698243E+02
 0.12657560384E+02 0.12373230518E+02 0.11922526878E+02 0.98948117009E+01 0.93929974953E+01
 0.88982576045E+01 0.84384137350E+01 0.80274294240E+01 0.76677396300E+01 0.73557843856E+01
 0.70887207808E+01 0.68697964316E+01 0.67096805930E+01 0.66225112926E+01 0.66186193507E+01
 0.66985972564E+01 0.68528872789E+01 0.70672345753E+01 0.73302034352E+01 0.76378178023E+01
 0.79927580381E+01 0.83990246490E+01 0.88549750156E+01 0.93476169033E+01 0.98501995450E+01
 0.10324508498E+02 0.10728557937E+02 0.11028615608E+02 0.11211618189E+02 0.11291458011E+02
 0.11301679770E+02 0.11288245265E+02 0.11287287771E+02 0.11300571079E+02 0.11294355336E+02
 0.11222416397E+02 0.11049882601E+02 0.10760435170E+02 0.10364622983E+02 0.86073131394E+01
 0.82870394061E+01 0.79876918925E+01 0.77197003943E+01 0.74839073933E+01 0.72753270041E+01
 0.70887207808E+01 0.69240531005E+01 0.67892054919E+01 0.66979469462E+01 0.66636524042E+01
 0.66922542939E+01 0.67789115303E+01 0.69106503848E+01 0.70732488892E+01 0.72579539194E+01
 0.74641472702E+01 0.76969967140E+01 0.79619481819E+01 0.82588846438E+01 0.85781450048E+01
 0.88996873266E+01 0.91961442769E+01 0.94397675825E+01 0.96115763637E+01 0.97089475564E+01
 0.97472021544E+01 0.97529113815E+01 0.97511085096E+01 0.97526403245E+01 0.97485296212E+01
 0.97145671777E+01 0.96235770643E+01 0.94586561048E+01 0.92207535663E+01 0.89277992740E+01
 0.75193083349E+01 0.73696881451E+01 0.72419182839E+01 0.71348757860E+01 0.70418907092E+01
 0.69549791000E+01 0.68697964316E+01 0.67892054919E+01 0.67232330373E+01 0.66847586247E+01
 0.66829582810E+01 0.67183310680E+01 0.67824155208E+01 0.68623651352E+01 0.69475232626E+01
 0.70341642065E+01 0.71260835243E+01 0.72313119844E+01 0.73570328245E+01 0.75050132398E+01
 0.76690969132E+01 0.78355075732E+01 0.79861498274E+01 0.81042985790E+01 0.81807944212E+01
 0.82178203357E+01 0.82277469077E+01 0.82268384851E+01 0.82266740280E+01 0.82278732179E+01
 0.82197103135E+01 0.81858858206E+01 0.81131987287E+01 0.79983911015E+01 0.78498590855E+01
 0.76840825407E+01 0.66419117684E+01 0.66396750923E+01 0.66543104447E+01 0.66778211444E+01
 0.66997825134E+01 0.67114909804E+01 0.67096805930E+01 0.66979469462E+01 0.66847586247E+01
 0.66787380843E+01 0.66837251865E+01 0.66965491083E+01 0.67088742894E+01 0.67119676667E+01
 0.67015600771E+01 0.66802069051E+01 0.66562417028E+01 0.66402212965E+01 0.66406588067E+01
 0.66607273630E+01 0.66969871486E+01 0.67404963761E+01 0.67800150419E+01 0.68063076512E+01
 0.68158815487E+01 0.68123095822E+01 0.68041071602E+01 0.67999203994E+01 0.68035524986E+01
 0.68117424387E+01 0.68160641305E+01 0.68077903758E+01 0.67828474917E+01 0.67441960691E+01
 0.67007161458E+01 0.66635676931E+01 0.59648004193E+01 0.60848360693E+01 0.62157014553E+01
 0.63455110588E+01 0.64619345950E+01 0.65556342871E+01 0.66225112926E+01 0.66636524042E+01
 0.66829582810E+01 0.66837251865E+01 0.66661330568E+01 0.66271215626E+01 0.65627216733E+01
 0.64714547574E+01 0.63568533067E+01 0.62277648607E+01 0.60963465599E+01 0.59747326442E+01
 0.58717724726E+01 0.57910106263E+01 0.57305121957E+01 0.56845040550E+01 0.56462387847E+01
 0.56110437618E+01 0.55783125085E+01 0.55514612283E+01 0.55357516789E+01 0.55350809283E+01
 0.55495953671E+01 0.55756063520E+01 0.56078657019E+01 0.56427798782E+01 0.56806651332E+01
 0.57258921532E+01 0.57850189835E+01 0.58638816521E+01 0.54709623602E+01 0.56929396520E+01
 0.59208739795E+01 0.61402674735E+01 0.63368114751E+01 0.64988321736E+01 0.66186193507E+01
 0.66922542939E+01 0.67183310680E+01 0.66965491083E+01 0.66271215626E+01 0.65113386770E+01
 0.63528914234E+01 0.61591130473E+01 0.59412816765E+01 0.57135109229E+01 0.54904082966E+01
 0.52843163886E+01 0.51031905841E+01 0.49498561683E+01 0.48227802177E+01 0.47179769905E+01
 0.46313728462E+01 0.45608030280E+01 0.45068428781E+01 0.44721037021E+01 0.44594211117E+01
 0.44700348323E+01 0.45028495945E+01 0.45551588736E+01 0.46243458614E+01 0.47095981839E+01
 0.48127282351E+01 0.49376156126E+01 0.50883785758E+01 0.52669419689E+01 0.51462324441E+01
 0.54567012651E+01 0.57694512604E+01 0.60669742404E+01 0.63313714804E+01 0.65463269271E+01
 0.66985972564E+01 0.67789115303E+01 0.67824155208E+01 0.67088742894E+01 0.65627216733E+01
 0.63528914234E+01 0.60923294762E+01 0.57971066444E+01 0.54850361628E+01 0.51737632837E+01
 0.48785805064E+01 0.46105772940E+01 0.43757830957E+01 0.41755786451E+01 0.40081312085E+01
 0.38703053099E+01 0.37594456939E+01 0.36744886761E+01 0.36160552625E+01 0.35856138407E+01
 0.35842996034E+01 0.36121376920E+01 0.36680795096E+01 0.37507390069E+01 0.38594034887E+01
 0.39948387068E+01 0.41594383759E+01 0.43563892069E+01 0.45878955499E+01 0.48530495866E+01
 0.49821904642E+01 0.53735281830E+01 0.57629273758E+01 0.61282598044E+01 0.64460180809E+01
 0.66937995689E+01 0.68528872789E+01 0.69106503848E+01 0.68623651352E+01 0.67119676667E+01
 0.64714547574E+01 0.61591130473E+01 0.57971066444E+01 0.54089202395E+01 0.50169156365E+01
 0.46401717923E+01 0.42928994802E+01 0.39837778720E+01 0.37163581492E+01 0.34903426577E+01
 0.33033080950E+01 0.31523722419E+01 0.30353672743E+01 0.29512783404E+01 0.29000173717E+01
 0.28818726878E+01 0.28970212127E+01 0.29453315375E+01 0.30265129429E+01 0.31405641349E+01
 0.32883468052E+01 0.34719189633E+01 0.36942032711E+01 0.39578188908E+01 0.42633429955E+01
 0.46075549577E+01 0.49752010358E+01 0.54430057546E+01 0.59014326805E+01 0.63219303147E+01
 0.66742232225E+01 0.69300550072E+01 0.70672345753E+01 0.70732488892E+01 0.69475232626E+01
 0.67015600771E+01 0.63568533067E+01 0.59412816765E+01 0.54850361628E+01 0.50169156365E+01
 0.45614404018E+01 0.41370377089E+01 0.37554594993E+01 0.34223781056E+01 0.31388152293E+01
 0.29029093051E+01 0.27115713986E+01 0.25617076980E+01 0.24508534482E+01 0.23772968921E+01
 0.23399694531E+01 0.23383543202E+01 0.23724562848E+01 0.24427625910E+01 0.25502328157E+01
 0.26964381884E+01 0.28837799667E+01 0.31154297204E+01 0.33946432250E+01 0.37234452882E+01
 0.41009941823E+01 0.45219629778E+01 0.51250469948E+01 0.56654401869E+01 0.61834534848E+01
 0.66430016960E+01 0.70072307867E+01 0.72437934132E+01 0.73302034352E+01 0.72579539194E+01
 0.70341642065E+01 0.66802069051E+01 0.62277648607E+01 0.57135109229E+01 0.51737632837E+01
 0.46401717923E+01 0.41370377089E+01 0.36804262202E+01 0.32788319139E+01 0.29348597171E+01
 0.26472738973E+01 0.24128574648E+01 0.22277445593E+01 0.20881630379E+01 0.19907714570E+01
 0.19328733428E+01 0.19126728660E+01 0.19295165416E+01 0.19839737906E+01 0.20777222497E+01
 0.22133491805E+01 0.23941661036E+01 0.26239891704E+01 0.29067317593E+01 0.32456523837E+01
 0.36421384774E+01 0.40939883703E+01 0.45933786001E+01 0.54349550241E+01 0.60430563784E+01
 0.66088986017E+01 0.70886266118E+01 0.74400657045E+01 0.76295072092E+01 0.76378178023E+01
 0.74641472702E+01 0.71260835243E+01 0.66562417028E+01 0.60963465599E+01 0.54904082966E+01
 0.48785805064E+01 0.42928994802E+01 0.37554594993E+01 0.32788319139E+01 0.28679655181E+01
 0.25226326663E+01 0.22396673010E+01 0.20145752397E+01 0.18424508341E+01 0.17184422419E+01
 0.16381384286E+01 0.15980921387E+01 0.15963774956E+01 0.16329232731E+01 0.17094906824E+01
 0.18293707751E+01 0.19969324013E+01 0.22170989901E+01 0.24948135706E+01 0.28345051954E+01
 0.32393580022E+01 0.37099670686E+01 0.42421365648E+01 0.48242115692E+01 0.59129564181E+01
 0.65826435239E+01 0.71825241516E+01 0.76614593888E+01 0.79740126055E+01 0.80884493817E+01
 0.79927580381E+01 0.76969967140E+01 0.72313119844E+01 0.66402212965E+01 0.59747326442E+01
 0.52843163886E+01 0.46105772940E+01 0.39837778720E+01 0.34223781056E+01 0.29348597171E+01
 0.25226326663E+01 0.21828807064E+01 0.19106463426E+01 0.17000252517E+01 0.15447850741E+01
 0.14388667612E+01 0.13770469895E+01 0.13557156908E+01 0.13735106971E+01 0.14315695534E+01
 0.15333179314E+01 0.16838762816E+01 0.18892820953E+01 0.21557706300E+01 0.24892411216E+01
 0.28947190404E+01 0.33753120601E+01 0.39302011700E+01 0.45517355704E+01 0.52224124220E+01
 0.65728623513E+01 0.72962328414E+01 0.79135618202E+01 0.83678224027E+01 0.86133006557E+01
 0.86240815390E+01 0.83990246490E+01 0.79619481819E+01 0.73570328245E+01 0.66406588067E+01
 0.58717724726E+01 0.51031905841E+01 0.43757830957E+01 0.37163581492E+01 0.31388152293E+01
 0.26472738973E+01 0.22396673010E+01 0.19106463426E+01 0.16533403420E+01 0.14602230486E+01
 0.13236785602E+01 0.12367144849E+01 0.11938664399E+01 0.11920544808E+01 0.12311249188E+01
 0.13139059330E+01 0.14457199131E+01 0.16334811668E+01 0.18847285483E+01 0.22069389433E+01
 0.26070725157E+01 0.30907914007E+01 0.36606865165E+01 0.43133277317E+01 0.50356913903E+01
 0.58020796089E+01 0.74316928069E+01 0.81964705140E+01 0.88094017725E+01 0.92103294182E+01
 0.93572813485E+01 0.92343964550E+01 0.88549750156E+01 0.82588846438E+01 0.75050132398E+01
 0.66607273630E+01 0.57910106263E+01 0.49498561683E+01 0.41755786451E+01 0.34903426577E+01
 0.29029093051E+01 0.24128574648E+01 0.20145752397E+01 0.17000252517E+01 0.14602230486E+01
 0.12859975283E+01 0.11686619758E+01 0.11008799986E+01 0.10776346888E+01 0.10970266586E+01
 0.11606254220E+01 0.12732141015E+01 0.14419897497E+01 0.16755362758E+01 0.19829571463E+01
 0.23732776731E+01 0.28547452199E+01 0.34333575957E+01 0.41101241678E+01 0.48771759773E+01
 0.57136205653E+01 0.65826642384E+01 0.85007979543E+01 0.92860568147E+01 0.98647018081E+01
 0.10177637613E+02 0.10191380354E+02 0.99044358151E+01 0.93476169033E+01 0.85781450048E+01
 0.76690969132E+01 0.66969871486E+01 0.57305121957E+01 0.48227802177E+01 0.40081312085E+01
 0.33033080950E+01 0.27115713986E+01 0.22277445593E+01 0.18424508341E+01 0.15447850741E+01
 0.13236785602E+01 0.11686619758E+01 0.10705837616E+01 0.10224738809E+01 0.10204393681E+01
 0.10642948213E+01 0.11576186188E+01 0.13071635456E+01 0.15219124355E+01 0.18122085696E+01
 0.21891153457E+01 0.26636890475E+01 0.32455644245E+01 0.39403235803E+01 0.47455050689E+01
 0.56457806377E+01 0.66086829652E+01 0.75828837173E+01 0.97715633716E+01 0.10544459354E+02
 0.11050030575E+02 0.11235349760E+02 0.11080361112E+02 0.10601860679E+02 0.98501995450E+01
 0.88996873266E+01 0.78355075732E+01 0.67404963761E+01 0.56845040550E+01 0.47179769905E+01
 0.38703053099E+01 0.31523722419E+01 0.25617076980E+01 0.20881630379E+01 0.17184422419E+01
 0.14388667612E+01 0.12367144849E+01 0.11008799986E+01 0.10224738809E+01 0.99558230800E+00
 0.10180027618E+01 0.10915797561E+01 0.12219238769E+01 0.14176830002E+01 0.16897739034E+01
 0.20508061501E+01 0.25144583007E+01 0.30941688656E+01 0.38004622209E+01 0.46366217068E+01
 0.55931949008E+01 0.66427409826E+01 0.77368353246E+01 0.88071658413E+01 0.11201624793E+02
 0.11917818557E+02 0.12305126520E+02 0.12322167901E+02 0.11967045254E+02 0.11277794133E+02
 0.10324508498E+02 0.91961442769E+01 0.79861498274E+01 0.67800150419E+01 0.56462387847E+01
 0.46313728462E+01 0.37594456939E+01 0.30353672743E+01 0.24508534482E+01 0.19907714570E+01
 0.16381384286E+01 0.13770469895E+01 0.11938664399E+01 0.10776346888E+01 0.10204393681E+01
 0.10180027618E+01 0.10701513027E+01 0.11808103100E+01 0.13575570836E+01 0.16110904386E+01
 0.19548570011E+01 0.24046171722E+01 0.29772902296E+01 0.36882650490E+01 0.45466990799E+01
 0.55492575166E+01 0.66739363532E+01 0.78762267860E+01 0.90893259564E+01 0.10228850863E+02
 0.12709746396E+02 0.13318057432E+02 0.13541178827E+02 0.13354640798E+02 0.12778900242E+02
 0.11874433609E+02 0.10728557937E+02 0.94397675825E+01 0.81042985790E+01 0.68063076512E+01
 0.56110437618E+01 0.45608030280E+01 0.36744886761E+01 0.29512783404E+01 0.23772968921E+01
 0.19328733428E+01 0.15980921387E+01 0.13557156908E+01 0.11920544808E+01 0.10970266586E+01
 0.10642948213E+01 0.10915797561E+01 0.11808103100E+01 0.13379475487E+01 0.15727134989E+01
 0.18984991182E+01 0.23322852929E+01 0.28938027945E+01 0.36028498394E+01 0.44740946467E+01
 0.55099460429E+01 0.66935932523E+01 0.79848512011E+01 0.93202691494E+01 0.10617061848E+02
 0.11779780388E+02 0.14181864414E+02 0.14627425537E+02 0.14646948187E+02 0.14238575115E+02
 0.13442904550E+02 0.12339203899E+02 0.11028615608E+02 0.96115763637E+01 0.81807944212E+01
 0.68158815487E+01 0.55783125085E+01 0.45068428781E+01 0.36160552625E+01 0.29000173717E+01
 0.23399694531E+01 0.19126728660E+01 0.15963774956E+01 0.13735106971E+01 0.12311249188E+01
 0.11606254220E+01 0.11576186188E+01 0.12219238769E+01 0.13575570836E+01 0.15727134989E+01
 0.18799387381E+01 0.22964079257E+01 0.28435502640E+01 0.35446303031E+01 0.44191551562E+01
 0.54746481483E+01 0.66986195500E+01 0.80543681234E+01 0.94821561430E+01 0.10903846171E+02
 0.12227925558E+02 0.13354542697E+02 0.15385517095E+02 0.15611432233E+02 0.15422484133E+02
 0.14831774270E+02 0.13880639417E+02 0.12639670358E+02 0.11211618189E+02 0.97089475564E+01
 0.82178203357E+01 0.68123095822E+01 0.55514612283E+01 0.44721037021E+01 0.35856138407E+01
 0.28818726878E+01 0.23383543202E+01 0.19295165416E+01 0.16329232731E+01 0.14315695534E+01
 0.13139059330E+01 0.12732141015E+01 0.13071635456E+01 0.14176830002E+01 0.16110904386E+01
 0.18984991182E+01 0.22964079257E+01 0.28267782179E+01 0.35150370382E+01 0.43843738567E+01
 0.54465081060E+01 0.66922543837E+01 0.80869095482E+01 0.95730358770E+01 0.11077719998E+02
 0.12516607344E+02 0.13779292089E+02 0.14760149750E+02 0.15992496853E+02 0.16007773803E+02
 0.15679462388E+02 0.15013871979E+02 0.14027731184E+02 0.12760220498E+02 0.11291458011E+02
 0.97472021544E+01 0.82277469077E+01 0.68041071602E+01 0.55357516789E+01 0.44594211117E+01
 0.35842996034E+01 0.28970212127E+01 0.23724562848E+01 0.19839737906E+01 0.17094906824E+01
 0.15333179314E+01 0.14457199131E+01 0.14419897497E+01 0.15219124355E+01 0.16897739034E+01
 0.19548570011E+01 0.23322852929E+01 0.28435502640E+01 0.35150370382E+01 0.43724400584E+01
 0.54306947497E+01 0.66828953114E+01 0.80946048407E+01 0.96079970767E+01 0.11153029936E+02
 0.12634320080E+02 0.13924382647E+02 0.14938314812E+02 0.15633746059E+02 0.15825604187E+02
 0.15725860159E+02 0.15396787986E+02 0.14808314059E+02 0.13925197065E+02 0.12738048040E+02
 0.11301679770E+02 0.97529113815E+01 0.82268384851E+01 0.67999203994E+01 0.55350809283E+01
 0.44700348323E+01 0.36121376920E+01 0.29453315375E+01 0.24427625910E+01 0.20777222497E+01
 0.18293707751E+01 0.16838762816E+01 0.16334811668E+01 0.16755362758E+01 0.18122085696E+01
 0.20508061501E+01 0.24046171722E+01 0.28938027945E+01 0.35446303031E+01 0.43843738567E+01
 0.54306947497E+01 0.66787058218E+01 0.80932245582E+01 0.96130405510E+01 0.11163784948E+02
 0.12617239253E+02 0.13830822385E+02 0.14742047601E+02 0.15355752403E+02 0.15706416063E+02
 0.14951270860E+02 0.14900338603E+02 0.14742843593E+02 0.14381203538E+02 0.13707732759E+02
 0.12662072196E+02 0.11288245265E+02 0.97511085096E+01 0.82266740280E+01 0.68035524986E+01
 0.55495953671E+01 0.45028495945E+01 0.36680795096E+01 0.30265129429E+01 0.25502328157E+01
 0.22133491805E+01 0.19969324013E+01 0.18892820953E+01 0.18847285483E+01 0.19829571463E+01
 0.21891153457E+01 0.25144583007E+01 0.29772902296E+01 0.36028498394E+01 0.44191551562E+01
 0.54465081060E+01 0.66828953114E+01 0.80932245582E+01 0.96116258964E+01 0.11153008559E+02
 0.12550145423E+02 0.13629550896E+02 0.14335543900E+02 0.14720827677E+02 0.14891784392E+02
 0.14949200934E+02 0.13672782708E+02 0.13855239739E+02 0.14018550256E+02 0.13974049527E+02
 0.13538855941E+02 0.12621659500E+02 0.11287287771E+02 0.97526403245E+01 0.82278732179E+01
 0.68117424387E+01 0.55756063520E+01 0.45551588736E+01 0.37507390069E+01 0.31405641349E+01
 0.26964381884E+01 0.23941661036E+01 0.22170989901E+01 0.21557706300E+01 0.22069389433E+01
 0.23732776731E+01 0.26636890475E+01 0.30941688656E+01 0.36882650490E+01 0.44740946467E+01
 0.54746481483E+01 0.66922543837E+01 0.80946048407E+01 0.96130405510E+01 0.11153008559E+02
 0.12516343377E+02 0.13476788195E+02 0.13953866323E+02 0.14026430366E+02 0.13873020443E+02
 0.13685580890E+02 0.13601816142E+02 0.12432707091E+02 0.12991569630E+02 0.13541816044E+02
 0.13799533930E+02 0.13530761685E+02 0.12655941588E+02 0.11300571079E+02 0.97485296212E+01
 0.82197103135E+01 0.68160641305E+01 0.56078657019E+01 0.46243458614E+01 0.38594034887E+01
 0.32883468052E+01 0.28837799667E+01 0.26239891704E+01 0.24948135706E+01 0.24892411216E+01
 0.26070725157E+01 0.28547452199E+01 0.32455644245E+01 0.38004622209E+01 0.45466990799E+01
 0.55099460429E+01 0.66986195500E+01 0.80869095482E+01 0.96079970767E+01 0.11163784948E+02
 0.12550145423E+02 0.13476788195E+02 0.13799963284E+02 0.13581512116E+02 0.13045614031E+02
 0.12476478164E+02 0.12115781055E+02 0.12099223279E+02 0.11660965123E+02 0.12639761999E+02
 0.13519351280E+02 0.13946682744E+02 0.13688637922E+02 0.12731812668E+02 0.11294355336E+02
 0.97145671777E+01 0.81858858206E+01 0.68077903758E+01 0.56427798782E+01 0.47095981839E+01
 0.39948387068E+01 0.34719189633E+01 0.31154297204E+01 0.29067317593E+01 0.28345051954E+01
 0.28947190404E+01 0.30907914007E+01 0.34333575957E+01 0.39403235803E+01 0.46366217068E+01
 0.55492575166E+01 0.66935932523E+01 0.80543681234E+01 0.95730358770E+01 0.11153029936E+02
 0.12617239253E+02 0.13629550896E+02 0.13953866323E+02 0.13581512116E+02 0.12728967986E+02
 0.11743913740E+02 0.10975901824E+02 0.10672702769E+02 0.10926856833E+02 0.11625324430E+02
 0.12934643121E+02 0.13961022028E+02 0.14340513172E+02 0.13908138370E+02 0.12762698243E+02
 0.11222416397E+02 0.96235770643E+01 0.81131987287E+01 0.67828474917E+01 0.56806651332E+01
 0.48127282351E+01 0.41594383759E+01 0.36942032711E+01 0.33946432250E+01 0.32456523837E+01
 0.32393580022E+01 0.33753120601E+01 0.36606865165E+01 0.41101241678E+01 0.47455050689E+01
 0.55931949008E+01 0.66739363532E+01 0.79848512011E+01 0.94821561430E+01 0.11077719998E+02
 0.12634320080E+02 0.13830822385E+02 0.14335543900E+02 0.14026430366E+02 0.13045614031E+02
 0.11743913740E+02 0.10550178579E+02 0.98320300909E+01 0.97993999214E+01 0.10461490959E+02
 0.12338227430E+02 0.13763536991E+02 0.14675509664E+02 0.14776025113E+02 0.14027275894E+02
 0.12657560384E+02 0.11049882601E+02 0.94586561048E+01 0.79983911015E+01 0.67441960691E+01
 0.57258921532E+01 0.49376156126E+01 0.43563892069E+01 0.39578188908E+01 0.37234452882E+01
 0.36421384774E+01 0.37099670686E+01 0.39302011700E+01 0.43133277317E+01 0.48771759773E+01
 0.56457806377E+01 0.66427409826E+01 0.78762267860E+01 0.93202691494E+01 0.10903846171E+02
 0.12516607344E+02 0.13924382647E+02 0.14742047601E+02 0.14720827677E+02 0.13873020443E+02
 0.12476478164E+02 0.10975901824E+02 0.98320300909E+01 0.93834024627E+01 0.97596123952E+01
 0.10852021675E+02 0.13552375762E+02 0.14809218674E+02 0.15349588273E+02 0.15009860708E+02
 0.13905865044E+02 0.12373230518E+02 0.10760435170E+02 0.92207535663E+01 0.78498590855E+01
 0.67007161458E+01 0.57850189835E+01 0.50883785758E+01 0.45878955499E+01 0.42633429955E+01
 0.41009941823E+01 0.40939883703E+01 0.42421365648E+01 0.45517355704E+01 0.50356913903E+01
 0.57136205653E+01 0.66086829652E+01 0.77368353246E+01 0.90893259564E+01 0.10617061848E+02
 0.12227925558E+02 0.13779292089E+02 0.14938314812E+02 0.15355752403E+02 0.14891784392E+02
 0.13685580890E+02 0.12115781055E+02 0.10672702769E+02 0.97993999214E+01 0.97596123952E+01
 0.10565353898E+02 0.11973556676E+02 0.14846693472E+02 0.15670316835E+02 0.15675185533E+02
 0.14865770876E+02 0.13492985934E+02 0.11922526878E+02 0.10364622983E+02 0.89277992740E+01
 0.76840825407E+01 0.66635676931E+01 0.58638816521E+01 0.52669419689E+01 0.48530495866E+01
 0.46075549577E+01 0.45219629778E+01 0.45933786001E+01 0.48242115692E+01 0.52224124220E+01
 0.58020796089E+01 0.65826642384E+01 0.75828837173E+01 0.88071658413E+01 0.10228850863E+02
 0.11779780388E+02 0.13354542697E+02 0.14760149750E+02 0.15633746059E+02 0.15706416063E+02
 0.14949200934E+02 0.13601816142E+02 0.12099223279E+02 0.10926856833E+02 0.10461490959E+02
 0.10852021675E+02 0.11973556676E+02 0.13465780410E+02 0.16128069979E+02 0.16559359234E+02
 0.16050773491E+02 0.14883209408E+02 0.13450304413E+02 0.11980220001E+02 0.10589771990E+02
 0.93579960534E+01 0.83241149901E+01 0.74963887012E+01 0.68664581337E+01 0.64222476303E+01
 0.61551392921E+01 0.60612399622E+01 0.61396241666E+01 0.63910810803E+01 0.68190989511E+01
 0.74317816234E+01 0.82411278158E+01 0.92564024342E+01 0.10471475246E+02 0.11850308680E+02
 0.13317467149E+02 0.14759529336E+02 0.15966779496E+02 0.16549269231E+02 0.16207856659E+02
 0.14900074415E+02 0.12900079277E+02 0.10745653591E+02 0.90762589614E+01 0.84134301448E+01
 0.89692329900E+01 0.10565824336E+02 0.12702833460E+02 0.14741948549E+02 0.16559359234E+02
 0.16278583084E+02 0.15346150140E+02 0.14091113347E+02 0.12745398342E+02 0.11427220477E+02
 0.10222037875E+02 0.91792336656E+01 0.83173420070E+01 0.76357246418E+01 0.71270138094E+01
 0.67856770996E+01 0.66106239233E+01 0.66030104230E+01 0.67630409446E+01 0.70895833403E+01
 0.75831440056E+01 0.82487264164E+01 0.90939956974E+01 0.10120909536E+02 0.11313111959E+02
 0.12624106732E+02 0.13971607071E+02 0.15241030149E+02 0.16216815556E+02 0.16566770836E+02
 0.16093446211E+02 0.14853254929E+02 0.13176236787E+02 0.11578573512E+02 0.10587235873E+02
 0.10541303466E+02 0.11456893990E+02 0.13020365490E+02 0.14713478243E+02 0.16010481586E+02
 0.16050773491E+02 0.15346150140E+02 0.14313064061E+02 0.13150285786E+02 0.11968870408E+02
 0.10854340128E+02 0.98611824035E+01 0.90150665542E+01 0.83217803515E+01 0.77785828038E+01
 0.73835823942E+01 0.71397204049E+01 0.70526010942E+01 0.71252882899E+01 0.73553428578E+01
 0.77370980795E+01 0.82669818372E+01 0.89464592901E+01 0.97786936742E+01 0.10759284643E+02
 0.11864731284E+02 0.13043213897E+02 0.14211815209E+02 0.15262233637E+02 0.16007775874E+02
 0.16195741381E+02 0.15720474666E+02 0.14703332517E+02 0.13476560468E+02 0.12474557702E+02
 0.12067653104E+02 0.12409347408E+02 0.13370721821E+02 0.14595508704E+02 0.15647768262E+02
 0.16180319802E+02 0.14883209408E+02 0.14091113347E+02 0.13150285786E+02 0.12156363258E+02
 0.11188829455E+02 0.10301888798E+02 0.95242819992E+01 0.88657267971E+01 0.83266930366E+01
 0.79079694550E+01 0.76161395967E+01 0.74623212254E+01 0.74555310307E+01 0.75963222643E+01
 0.78763371750E+01 0.82842039057E+01 0.88125624933E+01 0.94601812604E+01 0.10227077130E+02
 0.11104962232E+02 0.12067132273E+02 0.13061640710E+02 0.14010982189E+02 0.14820756755E+02
 0.15357549713E+02 0.15452185998E+02 0.15068261708E+02 0.14351195894E+02 0.13586326691E+02
 0.13088017355E+02 0.13065053001E+02 0.13527006089E+02 0.14280023348E+02 0.15014094367E+02
 0.15436342614E+02 0.15385962476E+02 0.13450304413E+02 0.12745398342E+02 0.11968870408E+02
 0.11188829455E+02 0.10454375292E+02 0.97932462453E+01 0.92159497521E+01 0.87238312868E+01
 0.83183588334E+01 0.80078813301E+01 0.78080073990E+01 0.77348715065E+01 0.77958448178E+01
 0.79848873322E+01 0.82863205071E+01 0.86839486426E+01 0.91684467793E+01 0.97378979171E+01
 0.10391508343E+02 0.11120151992E+02 0.11897854894E+02 0.12677298233E+02 0.13391737823E+02
 0.13965423713E+02 0.14321452060E+02 0.14369795819E+02 0.14114378980E+02 0.13687399543E+02
 0.13296549907E+02 0.13130887623E+02 0.13270579183E+02 0.13647846003E+02 0.14080246856E+02
 0.14357957139E+02 0.14339171894E+02 0.14007727878E+02 0.11980220001E+02 0.11427220477E+02
 0.10854340128E+02 0.10301888798E+02 0.97932462453E+01 0.93369173812E+01 0.89327135384E+01
 0.85802784084E+01 0.82868153031E+01 0.80695638712E+01 0.79503752738E+01 0.79449911801E+01
 0.80542397888E+01 0.82635765941E+01 0.85512471542E+01 0.88990822854E+01 0.92987237347E+01
 0.97500886444E+01 0.10253982062E+02 0.10803181027E+02 0.11375706526E+02 0.11932505442E+02
 0.12421105690E+02 0.12786558627E+02 0.12988877521E+02 0.13007010452E+02 0.12862119505E+02
 0.12650051664E+02 0.12496050130E+02 0.12488586000E+02 0.12631843630E+02 0.12843568534E+02
 0.12999332031E+02 0.12998210235E+02 0.12812022428E+02 0.12460029524E+02 0.10589771990E+02
 0.10222037875E+02 0.98611824035E+01 0.95242819992E+01 0.92159497521E+01 0.89327135384E+01
 0.86703510230E+01 0.84319378402E+01 0.82323709784E+01 0.80954270691E+01 0.80436466404E+01
 0.80868360285E+01 0.82167910668E+01 0.84118072988E+01 0.86477651583E+01 0.89085281122E+01
 0.91897970263E+01 0.94954502468E+01 0.98296177245E+01 0.10188809066E+02 0.10557023219E+02
 0.10905197515E+02 0.11195860041E+02 0.11393438187E+02 0.11478474357E+02 0.11460047918E+02
 0.11375596989E+02 0.11282218237E+02 0.11239804228E+02 0.11275392192E+02 0.11366261195E+02
 0.11454202875E+02 0.11480672909E+02 0.11406062415E+02 0.11218211156E+02 0.10934461350E+02
 0.93579960534E+01 0.91792336656E+01 0.90150665542E+01 0.88657267971E+01 0.87238312868E+01
 0.85802784084E+01 0.84319378402E+01 0.82876184930E+01 0.81680009735E+01 0.80979477625E+01
 0.80947229670E+01 0.81591272836E+01 0.82751558916E+01 0.84182870331E+01 0.85670824127E+01
 0.87113370227E+01 0.88530473835E+01 0.90011243013E+01 0.91636576293E+01 0.93414360133E+01
 0.95247128955E+01 0.96939192265E+01 0.98246426524E+01 0.98964554832E+01 0.99030158254E+01
 0.98583840293E+01 0.97944704234E+01 0.97485874517E+01 0.97463403854E+01 0.97890384903E+01
 0.98529740273E+01 0.99010532077E+01 0.99000271366E+01 0.98339149148E+01 0.97075733251E+01
 0.95407860797E+01 0.83241149901E+01 0.83173420070E+01 0.83217803515E+01 0.83266930366E+01
 0.83183588334E+01 0.82868153031E+01 0.82323709784E+01 0.81680009735E+01 0.81150229191E+01
 0.80933532704E+01 0.81115135898E+01 0.81622587784E+01 0.82264146629E+01 0.82825066236E+01
 0.83165417256E+01 0.83268758973E+01 0.83225841820E+01 0.83173986664E+01 0.83227936590E+01
 0.83430077339E+01 0.83732311317E+01 0.84012269786E+01 0.84121975239E+01 0.83957707244E+01
 0.83523814356E+01 0.82953796885E+01 0.82465380027E+01 0.82262424574E+01 0.82433331835E+01
 0.82904584855E+01 0.83478229942E+01 0.83931438232E+01 0.84119866739E+01 0.84029469891E+01
 0.83758691870E+01 0.83454345873E+01 0.74963887012E+01 0.76357246418E+01 0.77785828038E+01
 0.79079694550E+01 0.80078813301E+01 0.80695638712E+01 0.80954270691E+01 0.80979477625E+01
 0.80933532704E+01 0.80930671914E+01 0.80975801987E+01 0.80962310118E+01 0.80729779716E+01
 0.80148253392E+01 0.79183335835E+01 0.77911886991E+01 0.76488116775E+01 0.75083694601E+01
 0.73830849827E+01 0.72787914543E+01 0.71934284032E+01 0.71193746124E+01 0.70479438130E+01
 0.69745600259E+01 0.69023048078E+01 0.68416443646E+01 0.68058545722E+01 0.68042892208E+01
 0.68373478345E+01 0.68962569498E+01 0.69678225341E+01 0.70411999557E+01 0.71127124481E+01
 0.71863800138E+01 0.72705768873E+01 0.73730288592E+01 0.68664581337E+01 0.71270138094E+01
 0.73835823942E+01 0.76161395967E+01 0.78080073990E+01 0.79503752738E+01 0.80436466404E+01
 0.80947229670E+01 0.81115135898E+01 0.80975801987E+01 0.80498407024E+01 0.79605890971E+01
 0.78226905398E+01 0.76350946314E+01 0.74057648292E+01 0.71506773480E+01 0.68896361537E+01
 0.66410109082E+01 0.64175527733E+01 0.62245568622E+01 0.60606099772E+01 0.59204357920E+01
 0.57988328835E+01 0.56942314676E+01 0.56102352916E+01 0.55541871747E+01 0.55333494417E+01
 0.55508596260E+01 0.56039586336E+01 0.56856115594E+01 0.57884519500E+01 0.59085889405E+01
 0.60471459099E+01 0.62089462810E+01 0.63992340136E+01 0.66198897233E+01 0.64222476303E+01
 0.67856770996E+01 0.71397204049E+01 0.74623212254E+01 0.77348715065E+01 0.79449911801E+01
 0.80868360285E+01 0.81591272836E+01 0.81622587784E+01 0.80962310118E+01 0.79605890971E+01
 0.77563768225E+01 0.74889864825E+01 0.71702255024E+01 0.68182201549E+01 0.64548313534E+01
 0.61015189949E+01 0.57753204654E+01 0.54864194584E+01 0.52379481344E+01 0.50277983745E+01
 0.48516621037E+01 0.47062153124E+01 0.45912463452E+01 0.45098266872E+01 0.44665039101E+01
 0.44646012665E+01 0.45042628289E+01 0.45824081669E+01 0.46945657831E+01 0.48374619725E+01
 0.50108884138E+01 0.52178125580E+01 0.54625521230E+01 0.57476654839E+01 0.60707267721E+01
 0.61551392921E+01 0.66106239233E+01 0.70526010942E+01 0.74555310307E+01 0.77958448178E+01
 0.80542397888E+01 0.82167910668E+01 0.82751558916E+01 0.82264146629E+01 0.80729779716E+01
 0.78226905398E+01 0.74889864825E+01 0.70907271674E+01 0.66512110669E+01 0.61959810123E+01
 0.57496067465E+01 0.53323179241E+01 0.49576508462E+01 0.46318863604E+01 0.43553038124E+01
 0.41246574678E+01 0.39359935545E+01 0.37868848249E+01 0.36773560987E+01 0.36093038638E+01
 0.35849404996E+01 0.36052676026E+01 0.36694546965E+01 0.37754023500E+01 0.39211380297E+01
 0.41063160001E+01 0.43329949205E+01 0.46050486637E+01 0.49260805290E+01 0.52964377084E+01
 0.57104665301E+01 0.60612399622E+01 0.66030104230E+01 0.71252882899E+01 0.75963222643E+01
 0.79848873322E+01 0.82635765941E+01 0.84118072988E+01 0.84182870331E+01 0.82825066236E+01
 0.80148253392E+01 0.76350946314E+01 0.71702255024E+01 0.66512110669E+01 0.61098974232E+01
 0.55756855738E+01 0.50725660116E+01 0.46171415911E+01 0.42181799258E+01 0.38777478096E+01
 0.35934574160E+01 0.33610696842E+01 0.31766885881E+01 0.30379956499E+01 0.29443782761E+01
 0.28962571687E+01 0.28941780376E+01 0.29381870337E+01 0.30277785214E+01 0.31624483854E+01
 0.33426204916E+01 0.35704326871E+01 0.38497409468E+01 0.41849378722E+01 0.45787228641E+01
 0.50294607125E+01 0.55289437149E+01 0.61396241666E+01 0.67630409446E+01 0.73553428578E+01
 0.78763371750E+01 0.82863205071E+01 0.85512471542E+01 0.86477651583E+01 0.85670824127E+01
 0.83165417256E+01 0.79183335835E+01 0.74057648292E+01 0.68182201549E+01 0.61959810123E+01
 0.55756855738E+01 0.49869226256E+01 0.44503425058E+01 0.39774825023E+01 0.35721300521E+01
 0.32326718163E+01 0.29547040417E+01 0.27332374613E+01 0.25640714855E+01 0.24442845858E+01
 0.23721341638E+01 0.23467607928E+01 0.23679315078E+01 0.24358885548E+01 0.25513762114E+01
 0.27159383050E+01 0.29323737351E+01 0.32049218971E+01 0.35386988826E+01 0.39382288305E+01
 0.44053012667E+01 0.49365529787E+01 0.55212197556E+01 0.63910810803E+01 0.70895833403E+01
 0.77370980795E+01 0.82842039057E+01 0.86839486426E+01 0.88990822854E+01 0.89085281122E+01
 0.87113370227E+01 0.83268758973E+01 0.77911886991E+01 0.71506773480E+01 0.64548313534E+01
 0.57496067465E+01 0.50725660116E+01 0.44503425058E+01 0.38984544246E+01 0.34229915736E+01
 0.30233546796E+01 0.26951556795E+01 0.24325812886E+01 0.22298867357E+01 0.20820923512E+01
 0.19852309883E+01 0.19364944472E+01 0.19344004129E+01 0.19788981895E+01 0.20713410384E+01
 0.22143845608E+01 0.24118986525E+01 0.26688528211E+01 0.29909995300E+01 0.33841373491E+01
 0.38527416339E+01 0.43978129976E+01 0.50140580937E+01 0.56870070233E+01 0.68190989511E+01
 0.75831440056E+01 0.82669818372E+01 0.88125624933E+01 0.91684467793E+01 0.92987237347E+01
 0.91897970263E+01 0.88530473835E+01 0.83225841820E+01 0.76488116775E+01 0.68896361537E+01
 0.61015189949E+01 0.53323179241E+01 0.46171415911E+01 0.39774825023E+01 0.34229915736E+01
 0.29547195558E+01 0.25685915191E+01 0.22582024864E+01 0.20165521650E+01 0.18368824849E+01
 0.17131055635E+01 0.16402450435E+01 0.16149739806E+01 0.16360589872E+01 0.17045243221E+01
 0.18235090016E+01 0.19978872408E+01 0.22337426751E+01 0.25378156380E+01 0.29169917401E+01
 0.33776137287E+01 0.39240512973E+01 0.45560447851E+01 0.52650570454E+01 0.60307552763E+01
 0.74317816234E+01 0.82487264164E+01 0.89464592901E+01 0.94601812604E+01 0.97378979171E+01
 0.97500886444E+01 0.94954502468E+01 0.90011243013E+01 0.83173986664E+01 0.75083694601E+01
 0.66410109082E+01 0.57753204654E+01 0.49576508462E+01 0.42181799258E+01 0.35721300521E+01
 0.30233546796E+01 0.25685915191E+01 0.22010249005E+01 0.19125387572E+01 0.16948090556E+01
 0.15398381677E+01 0.14405047094E+01 0.13913238457E+01 0.13892325500E+01 0.14340918366E+01
 0.15287133883E+01 0.16784043844E+01 0.18901930962E+01 0.21720215552E+01 0.25321504817E+01
 0.29786848247E+01 0.35186468905E+01 0.41558581101E+01 0.48873723151E+01 0.56991279324E+01
 0.65622679427E+01 0.82411278158E+01 0.90939956974E+01 0.97786936742E+01 0.10227077130E+02
 0.10391508343E+02 0.10253982062E+02 0.98296177245E+01 0.91636576293E+01 0.83227936590E+01
 0.73830849827E+01 0.64175527733E+01 0.54864194584E+01 0.46318863604E+01 0.38777478096E+01
 0.32326718163E+01 0.26951556795E+01 0.22582024864E+01 0.19125387572E+01 0.16482600987E+01
 0.14555586024E+01 0.13252991719E+01 0.12498209909E+01 0.12238919615E+01 0.12455258405E+01
 0.13163594616E+01 0.14413946710E+01 0.16281561290E+01 0.18856379883E+01 0.22235097577E+01
 0.26516775517E+01 0.31796633884E+01 0.38149369331E+01 0.45596602399E+01 0.54061047736E+01
 0.63318397297E+01 0.72963780343E+01 0.92564024342E+01 0.10120909536E+02 0.10759284643E+02
 0.11104962232E+02 0.11120151992E+02 0.10803181027E+02 0.10188809066E+02 0.93414360133E+01
 0.83430077339E+01 0.72787914543E+01 0.62245568622E+01 0.52379481344E+01 0.43553038124E+01
 0.35934574160E+01 0.29547040417E+01 0.24325812886E+01 0.20165521650E+01 0.16948090556E+01
 0.14555586024E+01 0.12876696814E+01 0.11813746991E+01 0.11292119273E+01 0.11270092865E+01
 0.11745624325E+01 0.12757027928E+01 0.14376734912E+01 0.16700803996E+01 0.19839069140E+01
 0.23908838148E+01 0.29029344098E+01 0.35309043490E+01 0.42817735483E+01 0.51541202229E+01
 0.61325313501E+01 0.71825924165E+01 0.82486594227E+01 0.10471475246E+02 0.11313111959E+02
 0.11864731284E+02 0.12067132273E+02 0.11897854894E+02 0.11375706526E+02 0.10557023219E+02
 0.95247128955E+01 0.83732311317E+01 0.71934284032E+01 0.60606099772E+01 0.50277983745E+01
 0.41246574678E+01 0.33610696842E+01 0.27332374613E+01 0.22298867357E+01 0.18368824849E+01
 0.15398381677E+01 0.13252991719E+01 0.11813746991E+01 0.10984332714E+01 0.10700160397E+01
 0.10937085267E+01 0.11715333503E+01 0.13096186538E+01 0.15173364936E+01 0.18063886389E+01
 0.21901419977E+01 0.26830136410E+01 0.32992682644E+01 0.40504795193E+01 0.49411857317E+01
 0.59629827760E+01 0.70883740297E+01 0.82666717693E+01 0.94243835101E+01 0.11850308680E+02
 0.12624106732E+02 0.13043213897E+02 0.13061640710E+02 0.12677298233E+02 0.11932505442E+02
 0.10905197515E+02 0.96939192265E+01 0.84012269786E+01 0.71193746124E+01 0.59204357920E+01
 0.48516621037E+01 0.39359935545E+01 0.31766885881E+01 0.25640714855E+01 0.20820923512E+01
 0.17131055635E+01 0.14405047094E+01 0.12498209909E+01 0.11292119273E+01 0.10700160397E+01
 0.10675026051E+01 0.11214657195E+01 0.12362497190E+01 0.14201852200E+01 0.16848420437E+01
 0.20444817101E+01 0.25155907703E+01 0.31158198365E+01 0.38614587771E+01 0.47628961493E+01
 0.58183092452E+01 0.70069048390E+01 0.82838754345E+01 0.95792756856E+01 0.10802182891E+02
 0.13317467149E+02 0.13971607071E+02 0.14211815209E+02 0.14010982189E+02 0.13391737823E+02
 0.12421105690E+02 0.11195860041E+02 0.98246426524E+01 0.84121975239E+01 0.70479438130E+01
 0.57988328835E+01 0.47062153124E+01 0.37868848249E+01 0.30379956499E+01 0.24442845858E+01
 0.19852309883E+01 0.16402450435E+01 0.13913238457E+01 0.12238919615E+01 0.11270092865E+01
 0.10937085267E+01 0.11214657195E+01 0.12124128965E+01 0.13731132866E+01 0.16141395463E+01
 0.19497770921E+01 0.23977817135E+01 0.29785452195E+01 0.37126645798E+01 0.46161297199E+01
 0.56933539538E+01 0.69297250720E+01 0.82862053980E+01 0.96979018144E+01 0.11077017170E+02
 0.12319786408E+02 0.14759529336E+02 0.15241030149E+02 0.15262233637E+02 0.14820756755E+02
 0.13965423713E+02 0.12786558627E+02 0.11393438187E+02 0.98964554832E+01 0.83957707244E+01
 0.69745600259E+01 0.56942314676E+01 0.45912463452E+01 0.36773560987E+01 0.29443782761E+01
 0.23721341638E+01 0.19364944472E+01 0.16149739806E+01 0.13892325500E+01 0.12455258405E+01
 0.11745624325E+01 0.11715333503E+01 0.12362497190E+01 0.13731132866E+01 0.15909758100E+01
 0.19031689933E+01 0.23276684940E+01 0.28866564547E+01 0.36042174470E+01 0.45011415739E+01
 0.55871359379E+01 0.68526580802E+01 0.82635558920E+01 0.97603962247E+01 0.11261617108E+02
 0.12668375747E+02 0.13870972649E+02 0.15966779496E+02 0.16216815556E+02 0.16007775874E+02
 0.15357549713E+02 0.14321452060E+02 0.12988877521E+02 0.11478474357E+02 0.99030158254E+01
 0.83523814356E+01 0.69023048078E+01 0.56102352916E+01 0.45098266872E+01 0.36093038638E+01
 0.28962571687E+01 0.23467607928E+01 0.19344004129E+01 0.16360589872E+01 0.14340918366E+01
 0.13163594616E+01 0.12757027928E+01 0.13096186538E+01 0.14201852200E+01 0.16141395463E+01
 0.19031689933E+01 0.23044063797E+01 0.28404922360E+01 0.35377043005E+01 0.44205690428E+01
 0.55030105375E+01 0.67789540054E+01 0.82169439938E+01 0.97613386069E+01 0.11337841132E+02
 0.12858064478E+02 0.14211859520E+02 0.15278931689E+02 0.16549269231E+02 0.16566770836E+02
 0.16195741381E+02 0.15452185998E+02 0.14369795819E+02 0.13007010452E+02 0.11460047918E+02
 0.98583840293E+01 0.82953796885E+01 0.68416443646E+01 0.55541871747E+01 0.44665039101E+01
 0.35849404996E+01 0.28941780376E+01 0.23679315078E+01 0.19788981895E+01 0.17045243221E+01
 0.15287133883E+01 0.14413946710E+01 0.14376734912E+01 0.15173364936E+01 0.16848420437E+01
 0.19497770921E+01 0.23276684940E+01 0.28404922360E+01 0.35152708922E+01 0.43787629025E+01
 0.54477946801E+01 0.67183203767E+01 0.81591881071E+01 0.97150330195E+01 0.11316090854E+02
 0.12873196847E+02 0.14257237122E+02 0.15367963051E+02 0.16143864718E+02 0.16207856659E+02
 0.16093446211E+02 0.15720474666E+02 0.15068261708E+02 0.14114378980E+02 0.12862119505E+02
 0.11375596989E+02 0.97944704234E+01 0.82465380027E+01 0.68058545722E+01 0.55333494417E+01
 0.44646012665E+01 0.36052676026E+01 0.29381870337E+01 0.24358885548E+01 0.20713410384E+01
 0.18235090016E+01 0.16784043844E+01 0.16281561290E+01 0.16700803996E+01 0.18063886389E+01
 0.20444817101E+01 0.23977817135E+01 0.28866564547E+01 0.35377043005E+01 0.43787629025E+01
 0.54285039591E+01 0.66837003601E+01 0.81113589329E+01 0.96523393471E+01 0.11234258242E+02
 0.12736187790E+02 0.14013645512E+02 0.14995407600E+02 0.15673964834E+02 0.16070892638E+02
 0.14900074415E+02 0.14853254929E+02 0.14703332517E+02 0.14351195894E+02 0.13687399543E+02
 0.12650051664E+02 0.11282218237E+02 0.97485874517E+01 0.82262424574E+01 0.68042892208E+01
 0.55508596260E+01 0.45042628289E+01 0.36694546965E+01 0.30277785214E+01 0.25513762114E+01
 0.22143845608E+01 0.19978872408E+01 0.18901930962E+01 0.18856379883E+01 0.19839069140E+01
 0.21901419977E+01 0.25155907703E+01 0.29785452195E+01 0.36042174470E+01 0.44205690428E+01
 0.54477946801E+01 0.66837003601E+01 0.80929365182E+01 0.96093452513E+01 0.11147399071E+02
 0.12538766638E+02 0.13610038763E+02 0.14306434469E+02 0.14682142450E+02 0.14845287315E+02
 0.14898217328E+02 0.12900079277E+02 0.13176236787E+02 0.13476560468E+02 0.13586326691E+02
 0.13296549907E+02 0.12496050130E+02 0.11239804228E+02 0.97463403854E+01 0.82433331835E+01
 0.68373478345E+01 0.56039586336E+01 0.45824081669E+01 0.37754023500E+01 0.31624483854E+01
 0.27159383050E+01 0.24118986525E+01 0.22337426751E+01 0.21720215552E+01 0.22235097577E+01
 0.23908838148E+01 0.26830136410E+01 0.31158198365E+01 0.37126645798E+01 0.45011415739E+01
 0.55030105375E+01 0.67183203767E+01 0.81113589329E+01 0.96093452513E+01 0.11110837994E+02
 0.12399690126E+02 0.13246535989E+02 0.13579870478E+02 0.13497819091E+02 0.13204759843E+02
 0.12918891543E+02 0.12797712940E+02 0.10745653591E+02 0.11578573512E+02 0.12474557702E+02
 0.13088017355E+02 0.13130887623E+02 0.12488586000E+02 0.11275392192E+02 0.97890384903E+01
 0.82904584855E+01 0.68962569498E+01 0.56856115594E+01 0.46945657831E+01 0.39211380297E+01
 0.33426204916E+01 0.29323737351E+01 0.26688528211E+01 0.25378156380E+01 0.25321504817E+01
 0.26516775517E+01 0.29029344098E+01 0.32992682644E+01 0.38614587771E+01 0.46161297199E+01
 0.55871359379E+01 0.67789540054E+01 0.81591881071E+01 0.96523393471E+01 0.11147399071E+02
 0.12399690126E+02 0.13101810658E+02 0.13118993165E+02 0.12546265558E+02 0.11660919333E+02
 0.10808940751E+02 0.10286891287E+02 0.10263362872E+02 0.90762589614E+01 0.10587235873E+02
 0.12067653104E+02 0.13065053001E+02 0.13270579183E+02 0.12631843630E+02 0.11366261195E+02
 0.98529740273E+01 0.83478229942E+01 0.69678225341E+01 0.57884519500E+01 0.48374619725E+01
 0.41063160001E+01 0.35704326871E+01 0.32049218971E+01 0.29909995300E+01 0.29169917401E+01
 0.29786848247E+01 0.31796633884E+01 0.35309043490E+01 0.40504795193E+01 0.47628961493E+01
 0.56933539538E+01 0.68526580802E+01 0.82169439938E+01 0.97150330195E+01 0.11234258242E+02
 0.12538766638E+02 0.13246535989E+02 0.13118993165E+02 0.12183123122E+02 0.10728481392E+02
 0.92009332333E+01 0.80508034327E+01 0.76024078982E+01 0.79784684884E+01 0.84134301448E+01
 0.10541303466E+02 0.12409347408E+02 0.13527006089E+02 0.13647846003E+02 0.12843568534E+02
 0.11454202875E+02 0.99010532077E+01 0.83931438232E+01 0.70411999557E+01 0.59085889405E+01
 0.50108884138E+01 0.43329949205E+01 0.38497409468E+01 0.35386988826E+01 0.33841373491E+01
 0.33776137287E+01 0.35186468905E+01 0.38149369331E+01 0.42817735483E+01 0.49411857317E+01
 0.58183092452E+01 0.69297250720E+01 0.82635558920E+01 0.97613386069E+01 0.11316090854E+02
 0.12736187790E+02 0.13610038763E+02 0.13579870478E+02 0.12546265558E+02 0.10728481392E+02
 0.86007007674E+01 0.67368883341E+01 0.56353563246E+01 0.55853873064E+01 0.66000813879E+01
 0.89692329900E+01 0.11456893990E+02 0.13370721821E+02 0.14280023348E+02 0.14080246856E+02
 0.12999332031E+02 0.11480672909E+02 0.99000271366E+01 0.84119866739E+01 0.71127124481E+01
 0.60471459099E+01 0.52178125580E+01 0.46050486637E+01 0.41849378722E+01 0.39382288305E+01
 0.38527416339E+01 0.39240512973E+01 0.41558581101E+01 0.45596602399E+01 0.51541202229E+01
 0.59629827760E+01 0.70069048390E+01 0.82862053980E+01 0.97603962247E+01 0.11337841132E+02
 0.12873196847E+02 0.14013645512E+02 0.14306434469E+02 0.13497819091E+02 0.11660919333E+02
 0.92009332333E+01 0.67368883341E+01 0.49113808531E+01 0.42028212679E+01 0.47964631851E+01
 0.65373384214E+01 0.10565824336E+02 0.13020365490E+02 0.14595508704E+02 0.15014094367E+02
 0.14357957139E+02 0.12998210235E+02 0.11406062415E+02 0.98339149148E+01 0.84029469891E+01
 0.71863800138E+01 0.62089462810E+01 0.54625521230E+01 0.49260805290E+01 0.45787228641E+01
 0.44053012667E+01 0.43978129976E+01 0.45560447851E+01 0.48873723151E+01 0.54061047736E+01
 0.61325313501E+01 0.70883740297E+01 0.82838754345E+01 0.96979018144E+01 0.11261617108E+02
 0.12858064478E+02 0.14257237122E+02 0.14995407600E+02 0.14682142450E+02 0.13204759843E+02
 0.10808940751E+02 0.80508034327E+01 0.56353563246E+01 0.42028212679E+01 0.41378812987E+01
 0.54581730848E+01 0.78089969717E+01 0.12702833460E+02 0.14713478243E+02 0.15647768262E+02
 0.15436342614E+02 0.14339171894E+02 0.12812022428E+02 0.11218211156E+02 0.97075733251E+01
 0.83758691870E+01 0.72705768873E+01 0.63992340136E+01 0.57476654839E+01 0.52964377084E+01
 0.50294607125E+01 0.49365529787E+01 0.50140580937E+01 0.52650570454E+01 0.56991279324E+01
 0.63318397297E+01 0.71825924165E+01 0.82666717693E+01 0.95792756856E+01 0.11077017170E+02
 0.12668375747E+02 0.14211859520E+02 0.15367963051E+02 0.15673964834E+02 0.14845287315E+02
 0.12918891543E+02 0.10286891287E+02 0.76024078982E+01 0.55853873064E+01 0.47964631851E+01
 0.54581730848E+01 0.73837800338E+01 0.10036925848E+02 0.14741948549E+02 0.16010481586E+02
 0.16180319802E+02 0.15385962476E+02 0.14007727878E+02 0.12460029524E+02 0.10934461350E+02
 0.95407860797E+01 0.83454345873E+01 0.73730288592E+01 0.66198897233E+01 0.60707267721E+01
 0.57104665301E+01 0.55289437149E+01 0.55212197556E+01 0.56870070233E+01 0.60307552763E+01
 0.65622679427E+01 0.72963780343E+01 0.82486594227E+01 0.94243835101E+01 0.10802182891E+02
 0.12319786408E+02 0.13870972649E+02 0.15278931689E+02 0.16143864718E+02 0.16070892638E+02
 0.14898217328E+02 0.12797712940E+02 0.10263362872E+02 0.79784684884E+01 0.66000813879E+01
 0.65373384214E+01 0.78089969717E+01 0.10036925848E+02 0.12578037507E+02 0.17224304584E+02
 0.17546087045E+02 0.16889138455E+02 0.15653946360E+02 0.14235236710E+02 0.12807340579E+02
 0.11476241899E+02 0.10308325495E+02 0.93343536065E+01 0.85607847959E+01 0.79831046546E+01
 0.75960645093E+01 0.73979312469E+01 0.73893203363E+01 0.75704011334E+01 0.79405487430E+01
 0.85009625463E+01 0.92565135605E+01 0.10212293252E+02 0.11363586673E+02 0.12682295645E+02
 0.14105304961E+02 0.15530021103E+02 0.16794536319E+02 0.17522033367E+02 0.17299993515E+02
 0.15928491897E+02 0.13548636292E+02 0.10668130099E+02 0.80461360018E+01 0.64513255927E+01
 0.63780962729E+01 0.78497172629E+01 0.10408667632E+02 0.13299475455E+02 0.15750462517E+02
 0.17546087045E+02 0.17148007122E+02 0.16159458385E+02 0.14932414449E+02 0.13643100189E+02
 0.12397625066E+02 0.11267946712E+02 0.10293270013E+02 0.94884598692E+01 0.88557719146E+01
 0.83955266462E+01 0.81116292310E+01 0.80102829697E+01 0.80948187845E+01 0.83625745788E+01
 0.88073149483E+01 0.94245668282E+01 0.10213753122E+02 0.11173343547E+02 0.12290252218E+02
 0.13527837320E+02 0.14817129226E+02 0.16054858505E+02 0.17077477489E+02 0.17543228370E+02
 0.17143297886E+02 0.15798744452E+02 0.13746179952E+02 0.11513586004E+02 0.97670642200E+01
 0.90696924321E+01 0.96545718132E+01 0.11326088399E+02 0.13542764939E+02 0.15636983304E+02
 0.17060015911E+02 0.16889138455E+02 0.16159458385E+02 0.15174099624E+02 0.14085918622E+02
 0.12994515866E+02 0.11971210512E+02 0.11058448605E+02 0.10275918412E+02 0.96305963061E+01
 0.91274255140E+01 0.87762101520E+01 0.85909960121E+01 0.85828133563E+01 0.87523166015E+01
 0.90892785394E+01 0.95794459027E+01 0.10212275216E+02 0.10982516352E+02 0.11883940380E+02
 0.12898623607E+02 0.13986490980E+02 0.15078755767E+02 0.16077995757E+02 0.16840955050E+02
 0.17097952698E+02 0.16644393232E+02 0.15496264703E+02 0.13931550214E+02 0.12425376224E+02
 0.11484082244E+02 0.11440773723E+02 0.12310995747E+02 0.13785901505E+02 0.15366621920E+02
 0.16567351520E+02 0.17087982080E+02 0.15653946360E+02 0.14932414449E+02 0.14085918622E+02
 0.13201275218E+02 0.12343513340E+02 0.11553128660E+02 0.10850198388E+02 0.10242892478E+02
 0.97379682326E+01 0.93491000349E+01 0.90978840600E+01 0.90058081494E+01 0.90825754687E+01
 0.93201821969E+01 0.96977883103E+01 0.10193200602E+02 0.10791696596E+02 0.11486108769E+02
 0.12269024284E+02 0.13122036023E+02 0.14006683911E+02 0.14859962897E+02 0.15596636585E+02
 0.16109506458E+02 0.16219029652E+02 0.15809401837E+02 0.14952637942E+02 0.13911889842E+02
 0.13055091585E+02 0.12705835622E+02 0.12999817565E+02 0.13822375003E+02 0.14861706386E+02
 0.15747807266E+02 0.16203642508E+02 0.16138650451E+02 0.14235236710E+02 0.13643100189E+02
 0.12994515866E+02 0.12343513340E+02 0.11724317417E+02 0.11153386829E+02 0.10636258390E+02
 0.10177615862E+02 0.97910440777E+01 0.95025270072E+01 0.93434882866E+01 0.93362969737E+01
 0.94821040698E+01 0.97602138027E+01 0.10139404348E+02 0.10592577153E+02 0.11104773026E+02
 0.11670817837E+02 0.12285934849E+02 0.12935198370E+02 0.13586063418E+02 0.14186008677E+02
 0.14666992739E+02 0.14957836310E+02 0.14969881746E+02 0.14652783125E+02 0.14093946758E+02
 0.13500107085E+02 0.13112210731E+02 0.13094253925E+02 0.13453782603E+02 0.14038359627E+02
 0.14609765049E+02 0.14954292110E+02 0.14971788302E+02 0.14701965557E+02 0.12807340579E+02
 0.12397625066E+02 0.11971210512E+02 0.11553128660E+02 0.11153386829E+02 0.10771984335E+02
 0.10407987114E+02 0.10070218151E+02 0.97836760038E+01 0.95855095800E+01 0.95103191022E+01
 0.95730792382E+01 0.97612200660E+01 0.10041412129E+02 0.10376089167E+02 0.10738603674E+02
 0.11118519169E+02 0.11516312002E+02 0.11932790173E+02 0.12359299945E+02 0.12772076431E+02
 0.13131836889E+02 0.13389753551E+02 0.13501366642E+02 0.13443002486E+02 0.13214713421E+02
 0.12889440311E+02 0.12601676294E+02 0.12480574759E+02 0.12582162664E+02 0.12859348140E+02
 0.13187244556E+02 0.13428816205E+02 0.13503442080E+02 0.13406571250E+02 0.13160072084E+02
 0.11476241899E+02 0.11267946712E+02 0.11058448605E+02 0.10850198388E+02 0.10636258390E+02
 0.10407987114E+02 0.10165724218E+02 0.99276117721E+01 0.97296259969E+01 0.96135903920E+01
 0.96082859244E+01 0.97150215780E+01 0.99070838184E+01 0.10143255980E+02 0.10386464541E+02
 0.10616527295E+02 0.10831480804E+02 0.11039663042E+02 0.11248841458E+02 0.11457730275E+02
 0.11652094662E+02 0.11805840492E+02 0.11887694723E+02 0.11873752478E+02 0.11762848175E+02
 0.11586425389E+02 0.11401674610E+02 0.11279828267E+02 0.11273961233E+02 0.11386750710E+02
 0.11568841025E+02 0.11748926332E+02 0.11867806746E+02 0.11890945320E+02 0.11816807041E+02
 0.11668120236E+02 0.10308325495E+02 0.10293270013E+02 0.10275918412E+02 0.10242892478E+02
 0.10177615862E+02 0.10070218151E+02 0.99276117721E+01 0.97773294160E+01 0.96601862202E+01
 0.96133494403E+01 0.96526228836E+01 0.97645840433E+01 0.99134381786E+01 0.10058151622E+02
 0.10169568262E+02 0.10238688411E+02 0.10273980444E+02 0.10291900548E+02 0.10306711088E+02
 0.10323607270E+02 0.10336341156E+02 0.10329385096E+02 0.10284671382E+02 0.10191891745E+02
 0.10058493906E+02 0.99131564289E+01 0.97980908019E+01 0.97517589417E+01 0.97906756557E+01
 0.99010685489E+01 0.10045701670E+02 0.10181671923E+02 0.10278512968E+02 0.10327070038E+02
 0.10336673615E+02 0.10325145659E+02 0.93343536065E+01 0.94884598692E+01 0.96305963061E+01
 0.97379682326E+01 0.97910440777E+01 0.97836760038E+01 0.97296259969E+01 0.96601862202E+01
 0.96118804105E+01 0.96096207608E+01 0.96544944149E+01 0.97232924947E+01 0.97799955641E+01
 0.97924339720E+01 0.97450397401E+01 0.96421126124E+01 0.95021607717E+01 0.93481310477E+01
 0.91985938396E+01 0.90625985207E+01 0.89387344078E+01 0.88181553735E+01 0.86909718334E+01
 0.85541439028E+01 0.84171950609E+01 0.83017401104E+01 0.82335338967E+01 0.82304877046E+01
 0.82934943335E+01 0.84058680937E+01 0.85418859094E+01 0.86790672436E+01 0.88068700578E+01
 0.89276430593E+01 0.90509863533E+01 0.91858713589E+01 0.85607847959E+01 0.88557719146E+01
 0.91274255140E+01 0.93491000349E+01 0.95025270072E+01 0.95855095800E+01 0.96135903920E+01
 0.96133494403E+01 0.96096207608E+01 0.96129863719E+01 0.96143776869E+01 0.95897978738E+01
 0.95124391924E+01 0.93655477261E+01 0.91496570195E+01 0.88816515116E+01 0.85876333169E+01
 0.82939333895E+01 0.80200850545E+01 0.77755508530E+01 0.75603011833E+01 0.73685913042E+01
 0.71947550513E+01 0.70388853931E+01 0.69095195360E+01 0.68212662589E+01 0.67880824882E+01
 0.68159773199E+01 0.68997471355E+01 0.70258751221E+01 0.71796529359E+01 0.73519965336E+01
 0.75421174177E+01 0.77552086785E+01 0.79970642035E+01 0.82683813856E+01 0.79831046546E+01
 0.83955266462E+01 0.87762101520E+01 0.90978840600E+01 0.93434882866E+01 0.95103191022E+01
 0.96082859244E+01 0.96526228836E+01 0.96544944149E+01 0.96143776869E+01 0.95217967988E+01
 0.93615441375E+01 0.91230020299E+01 0.88076891528E+01 0.84314525498E+01 0.80207763143E+01
 0.76055176801E+01 0.72115065219E+01 0.68556985800E+01 0.65449460294E+01 0.62780681882E+01
 0.60501440556E+01 0.58574698192E+01 0.57012196525E+01 0.55880005670E+01 0.55268242218E+01
 0.55241716694E+01 0.55802671315E+01 0.56890147203E+01 0.58415741201E+01 0.60311567967E+01
 0.62560823450E+01 0.65195183388E+01 0.68262473730E+01 0.71779665903E+01 0.75688663267E+01
 0.75960645093E+01 0.81116292310E+01 0.85909960121E+01 0.90058081494E+01 0.93362969737E+01
 0.95730792382E+01 0.97150215780E+01 0.97645840433E+01 0.97232924947E+01 0.95897978738E+01
 0.93615441375E+01 0.90391573162E+01 0.86311916521E+01 0.81565549407E+01 0.76430342393E+01
 0.71223268437E+01 0.66236898652E+01 0.61687593930E+01 0.57692156535E+01 0.54276031590E+01
 0.51405573705E+01 0.49031142075E+01 0.47125134181E+01 0.45700253009E+01 0.44801179892E+01
 0.44476280446E+01 0.44747350489E+01 0.45596266119E+01 0.46976469130E+01 0.48841805547E+01
 0.51175117861E+01 0.53999345183E+01 0.57363023449E+01 0.61304166289E+01 0.65805882390E+01
 0.70760941700E+01 0.73979312469E+01 0.80102829697E+01 0.85828133563E+01 0.90825754687E+01
 0.94821040698E+01 0.97612200660E+01 0.99070838184E+01 0.99134381786E+01 0.97799955641E+01
 0.95124391924E+01 0.91230020299E+01 0.86311916521E+01 0.80638533651E+01 0.74536165533E+01
 0.68352934115E+01 0.62409499044E+01 0.56953376691E+01 0.52133521334E+01 0.48002251812E+01
 0.44540422207E+01 0.41694908381E+01 0.39415258246E+01 0.37677455648E+01 0.36487912785E+01
 0.35869865657E+01 0.35842833390E+01 0.36408048640E+01 0.37547792543E+01 0.39238473482E+01
 0.41470358144E+01 0.44262860626E+01 0.47664343374E+01 0.51730933080E+01 0.56488840820E+01
 0.61893856859E+01 0.67804376801E+01 0.73893203363E+01 0.80948187845E+01 0.87523166015E+01
 0.93201821969E+01 0.97602138027E+01 0.10041412129E+02 0.10143255980E+02 0.10058151622E+02
 0.97924339720E+01 0.93655477261E+01 0.88076891528E+01 0.81565549407E+01 0.74536165533E+01
 0.67399968788E+01 0.60521672650E+01 0.54182202267E+01 0.48557574225E+01 0.43720480360E+01
 0.39662904029E+01 0.36330840035E+01 0.33659271618E+01 0.31597296766E+01 0.30118392847E+01
 0.29217071079E+01 0.28897910784E+01 0.29164461317E+01 0.30014065993E+01 0.31441497531E+01
 0.33449999133E+01 0.36063646386E+01 0.39332210923E+01 0.43321504040E+01 0.48088228245E+01
 0.53645190634E+01 0.59926966860E+01 0.66766828100E+01 0.75704011334E+01 0.83625745788E+01
 0.90892785394E+01 0.96977883103E+01 0.10139404348E+02 0.10376089167E+02 0.10386464541E+02
 0.10169568262E+02 0.97450397401E+01 0.91496570195E+01 0.84314525498E+01 0.76430342393E+01
 0.68352934115E+01 0.60521672650E+01 0.53269747170E+01 0.46808022184E+01 0.41231108300E+01
 0.36542013138E+01 0.32687032249E+01 0.29590582369E+01 0.27181209928E+01 0.25404781676E+01
 0.24226718920E+01 0.23628464808E+01 0.23602675889E+01 0.24149457115E+01 0.25275303856E+01
 0.26996342068E+01 0.29345022717E+01 0.32375245944E+01 0.36159333832E+01 0.40773386746E+01
 0.46272158460E+01 0.52657183452E+01 0.59843469301E+01 0.67632855342E+01 0.79405487430E+01
 0.88073149483E+01 0.95794459027E+01 0.10193200602E+02 0.10592577153E+02 0.10738603674E+02
 0.10616527295E+02 0.10238688411E+02 0.96421126124E+01 0.88816515116E+01 0.80207763143E+01
 0.71223268437E+01 0.62409499044E+01 0.54182202267E+01 0.46808022184E+01 0.40414328776E+01
 0.35019597820E+01 0.30573007662E+01 0.26991766455E+01 0.24188295517E+01 0.22085151169E+01
 0.20620659269E+01 0.19750180547E+01 0.19446454116E+01 0.19699884789E+01 0.20518498118E+01
 0.21927756770E+01 0.23970725685E+01 0.26708174294E+01 0.30216889721E+01 0.34583570781E+01
 0.39891032956E+01 0.46193581598E+01 0.53481315413E+01 0.61639481941E+01 0.70415278173E+01
 0.85009625463E+01 0.94245668282E+01 0.10212275216E+02 0.10791696596E+02 0.11104773026E+02
 0.11118519169E+02 0.10831480804E+02 0.10273980444E+02 0.95021607717E+01 0.85876333169E+01
 0.76055176801E+01 0.66236898652E+01 0.56953376691E+01 0.48557574225E+01 0.41231108300E+01
 0.35019597820E+01 0.29879928247E+01 0.25724499695E+01 0.22452736182E+01 0.19967935838E+01
 0.18184293980E+01 0.17030825493E+01 0.16455809019E+01 0.16431308174E+01 0.16955975000E+01
 0.18055303023E+01 0.19779347494E+01 0.22198274233E+01 0.25396980791E+01 0.29470285302E+01
 0.34517110812E+01 0.40626885877E+01 0.47850325809E+01 0.56154163073E+01 0.65370995146E+01
 0.75162172964E+01 0.92565135605E+01 0.10213753122E+02 0.10982516352E+02 0.11486108769E+02
 0.11670817837E+02 0.11516312002E+02 0.11039663042E+02 0.10291900548E+02 0.93481310477E+01
 0.82939333895E+01 0.72115065219E+01 0.61687593930E+01 0.52133521334E+01 0.43720480360E+01
 0.36542013138E+01 0.30573007662E+01 0.25724499695E+01 0.21883773104E+01 0.18936304387E+01
 0.16774880630E+01 0.15304269362E+01 0.14447079832E+01 0.14151474334E+01 0.14398065108E+01
 0.15202958791E+01 0.16615468208E+01 0.18711316090E+01 0.21584357043E+01 0.25340280302E+01
 0.30092549661E+01 0.35954911932E+01 0.43021007508E+01 0.51324822918E+01 0.60785640554E+01
 0.71152097818E+01 0.81965971812E+01 0.10212293252E+02 0.11173343547E+02 0.11883940380E+02
 0.12269024284E+02 0.12285934849E+02 0.11932790173E+02 0.11248841458E+02 0.10306711088E+02
 0.91985938396E+01 0.80200850545E+01 0.68556985800E+01 0.57692156535E+01 0.48002251812E+01
 0.39662904029E+01 0.32687032249E+01 0.26991766455E+01 0.22452736182E+01 0.18936304387E+01
 0.16313559712E+01 0.14466177046E+01 0.13292242846E+01 0.12714615293E+01 0.12690221570E+01
 0.13216889163E+01 0.14334232351E+01 0.16117314704E+01 0.18666107150E+01 0.22096564773E+01
 0.26536299447E+01 0.32120378179E+01 0.38977127779E+01 0.47195173345E+01 0.56770580909E+01
 0.67542858613E+01 0.79137710311E+01 0.90940481917E+01 0.11363586673E+02 0.12290252218E+02
 0.12898623607E+02 0.13122036023E+02 0.12935198370E+02 0.12359299945E+02 0.11457730275E+02
 0.10323607270E+02 0.90625985207E+01 0.77755508530E+01 0.65449460294E+01 0.54276031590E+01
 0.44540422207E+01 0.36330840035E+01 0.29590582369E+01 0.24188295517E+01 0.19967935838E+01
 0.16774880630E+01 0.14466177046E+01 0.12915790815E+01 0.12021622139E+01 0.11715183557E+01
 0.11970774365E+01 0.12809751270E+01 0.14297263580E+01 0.16532938249E+01 0.19640618989E+01
 0.23761634706E+01 0.29050459841E+01 0.35664888480E+01 0.43740231911E+01 0.53341091415E+01
 0.64393917689E+01 0.76615695816E+01 0.89464073142E+01 0.10213642869E+02 0.12682295645E+02
 0.13527837320E+02 0.13986490980E+02 0.14006683911E+02 0.13586063418E+02 0.12772076431E+02
 0.11652094662E+02 0.10336341156E+02 0.89387344078E+01 0.75603011833E+01 0.62780681882E+01
 0.51405573705E+01 0.41694908381E+01 0.33659271618E+01 0.27181209928E+01 0.22085151169E+01
 0.18184293980E+01 0.15304269362E+01 0.13292242846E+01 0.12021622139E+01 0.11398805631E+01
 0.11372359662E+01 0.11940087136E+01 0.13149227553E+01 0.15089728593E+01 0.17885350115E+01
 0.21687126586E+01 0.26668552634E+01 0.33016235107E+01 0.40907122012E+01 0.50464700090E+01
 0.61692819255E+01 0.74397719433E+01 0.88122103722E+01 0.10212072094E+02 0.11539942872E+02
 0.14105304961E+02 0.14817129226E+02 0.15078755767E+02 0.14859962897E+02 0.14186008677E+02
 0.13131836889E+02 0.11805840492E+02 0.10329385096E+02 0.88181553735E+01 0.73685913042E+01
 0.60501440556E+01 0.49031142075E+01 0.39415258246E+01 0.31597296766E+01 0.25404781676E+01
 0.20620659269E+01 0.17030825493E+01 0.14447079832E+01 0.12714615293E+01 0.11715183557E+01
 0.11372359662E+01 0.11658136077E+01 0.12596067066E+01 0.14258352926E+01 0.16759518882E+01
 0.20251346754E+01 0.24919698336E+01 0.30977162070E+01 0.38641347132E+01 0.48090229070E+01
 0.59393876664E+01 0.72434265217E+01 0.86835681520E+01 0.10193001836E+02 0.11677323887E+02
 0.13021943601E+02 0.15530021103E+02 0.16054858505E+02 0.16077995757E+02 0.15596636585E+02
 0.14666992739E+02 0.13389753551E+02 0.11887694723E+02 0.10284671382E+02 0.86909718334E+01
 0.71947550513E+01 0.58574698192E+01 0.47125134181E+01 0.37677455648E+01 0.30118392847E+01
 0.24226718920E+01 0.19750180547E+01 0.16455809019E+01 0.14151474334E+01 0.12690221570E+01
 0.11970774365E+01 0.11940087136E+01 0.12596067066E+01 0.13987300626E+01 0.16210422798E+01
 0.19408294011E+01 0.23769556246E+01 0.29523986286E+01 0.36922630129E+01 0.46191753951E+01
 0.57459178696E+01 0.70668749972E+01 0.85511402163E+01 0.10139574341E+02 0.11746065968E+02
 0.13262041957E+02 0.14564537607E+02 0.16794536319E+02 0.17077477489E+02 0.16840955050E+02
 0.16109506458E+02 0.14957836310E+02 0.13501366642E+02 0.11873752478E+02 0.10191891745E+02
 0.85541439028E+01 0.70388853931E+01 0.57012196525E+01 0.45700253009E+01 0.36487912785E+01
 0.29217071079E+01 0.23628464808E+01 0.19446454116E+01 0.16431308174E+01 0.14398065108E+01
 0.13216889163E+01 0.12809751270E+01 0.13149227553E+01 0.14258352926E+01 0.16210422798E+01
 0.19130355334E+01 0.23198265636E+01 0.28649443337E+01 0.35757336730E+01 0.44785286750E+01
 0.55905168922E+01 0.69104225173E+01 0.84118015919E+01 0.10041648231E+02 0.11723324322E+02
 0.13360156543E+02 0.14837211619E+02 0.16021487640E+02 0.17522033367E+02 0.17543228370E+02
 0.17097952698E+02 0.16219029652E+02 0.14969881746E+02 0.13443002486E+02 0.11762848175E+02
 0.10058493906E+02 0.84171950609E+01 0.69095195360E+01 0.55880005670E+01 0.44801179892E+01
 0.35869865657E+01 0.28897910784E+01 0.23602675889E+01 0.19699884789E+01 0.16955975000E+01
 0.15202958791E+01 0.14334232351E+01 0.14297263580E+01 0.15089728593E+01 0.16759518882E+01
 0.19408294011E+01 0.23198265636E+01 0.28356997878E+01 0.35165491064E+01 0.43910233242E+01
 0.54793084697E+01 0.67824539841E+01 0.82753096633E+01 0.99072139905E+01 0.11608910080E+02
 0.13295697625E+02 0.14841927198E+02 0.16120450322E+02 0.17035872709E+02 0.17299993515E+02
 0.17143297886E+02 0.16644393232E+02 0.15809401837E+02 0.14652783125E+02 0.13214713421E+02
 0.11586425389E+02 0.99131564289E+01 0.83017401104E+01 0.68212662589E+01 0.55268242218E+01
 0.44476280446E+01 0.35842833390E+01 0.29164461317E+01 0.24149457115E+01 0.20518498118E+01
 0.18055303023E+01 0.16615468208E+01 0.16117314704E+01 0.16532938249E+01 0.17885350115E+01
 0.20251346754E+01 0.23769556246E+01 0.28649443337E+01 0.35165491064E+01 0.43612025778E+01
 0.54206340522E+01 0.66965639133E+01 0.81622933614E+01 0.97645379481E+01 0.11435167750E+02
 0.13073760383E+02 0.14533661375E+02 0.15718009155E+02 0.16582903439E+02 0.17112405959E+02
 0.15928491897E+02 0.15798744452E+02 0.15496264703E+02 0.14952637942E+02 0.14093946758E+02
 0.12889440311E+02 0.11401674610E+02 0.97980908019E+01 0.82335338967E+01 0.67880824882E+01
 0.55241716694E+01 0.44747350489E+01 0.36408048640E+01 0.30014065993E+01 0.25275303856E+01
 0.21927756770E+01 0.19779347494E+01 0.18711316090E+01 0.18666107150E+01 0.19640618989E+01
 0.21687126586E+01 0.24919698336E+01 0.29523986286E+01 0.35757336730E+01 0.43910233242E+01
 0.54206340522E+01 0.66661245960E+01 0.80974302223E+01 0.96541502253E+01 0.11258617237E+02
 0.12765143807E+02 0.13999793129E+02 0.14889645781E+02 0.15458611471E+02 0.15779308694E+02
 0.15922524455E+02 0.13548636292E+02 0.13746179952E+02 0.13931550214E+02 0.13911889842E+02
 0.13500107085E+02 0.12601676294E+02 0.11279828267E+02 0.97517589417E+01 0.82304877046E+01
 0.68159773199E+01 0.55802671315E+01 0.45596266119E+01 0.37547792543E+01 0.31441497531E+01
 0.26996342068E+01 0.23970725685E+01 0.22198274233E+01 0.21584357043E+01 0.22096564773E+01
 0.23761634706E+01 0.26668552634E+01 0.30977162070E+01 0.36922630129E+01 0.44785286750E+01
 0.54793084697E+01 0.66965639133E+01 0.80974302223E+01 0.96125754682E+01 0.11146384660E+02
 0.12497783440E+02 0.13439977981E+02 0.13893933272E+02 0.13941604083E+02 0.13765698612E+02
 0.13562401895E+02 0.13472611885E+02 0.10668130099E+02 0.11513586004E+02 0.12425376224E+02
 0.13055091585E+02 0.13112210731E+02 0.12480574759E+02 0.11273961233E+02 0.97906756557E+01
 0.82934943335E+01 0.68997471355E+01 0.56890147203E+01 0.46976469130E+01 0.39238473482E+01
 0.33449999133E+01 0.29345022717E+01 0.26708174294E+01 0.25396980791E+01 0.25340280302E+01
 0.26536299447E+01 0.29050459841E+01 0.33016235107E+01 0.38641347132E+01 0.46191753951E+01
 0.55905168922E+01 0.67824539841E+01 0.81622933614E+01 0.96541502253E+01 0.11146384660E+02
 0.12392471217E+02 0.13084283663E+02 0.13087456173E+02 0.12498525352E+02 0.11597205140E+02
 0.10732299957E+02 0.10202876155E+02 0.10179030844E+02 0.80461360018E+01 0.97670642200E+01
 0.11484082244E+02 0.12705835622E+02 0.13094253925E+02 0.12582162664E+02 0.11386750710E+02
 0.99010685489E+01 0.84058680937E+01 0.70258751221E+01 0.58415741201E+01 0.48841805547E+01
 0.41470358144E+01 0.36063646386E+01 0.32375245944E+01 0.30216889721E+01 0.29470285302E+01
 0.30092549661E+01 0.32120378179E+01 0.35664888480E+01 0.40907122012E+01 0.48090229070E+01
 0.57459178696E+01 0.69104225173E+01 0.82753096633E+01 0.97645379481E+01 0.11258617237E+02
 0.12497783440E+02 0.13084283663E+02 0.12778382648E+02 0.11620488167E+02 0.99284391420E+01
 0.81867309123E+01 0.68856858116E+01 0.63800752631E+01 0.68045467372E+01 0.64513255927E+01
 0.90696924321E+01 0.11440773723E+02 0.12999817565E+02 0.13453782603E+02 0.12859348140E+02
 0.11568841025E+02 0.10045701670E+02 0.85418859094E+01 0.71796529359E+01 0.60311567967E+01
 0.51175117861E+01 0.44262860626E+01 0.39332210923E+01 0.36159333832E+01 0.34583570781E+01
 0.34517110812E+01 0.35954911932E+01 0.38977127779E+01 0.43740231911E+01 0.50464700090E+01
 0.59393876664E+01 0.70668749972E+01 0.84118015919E+01 0.99072139905E+01 0.11435167750E+02
 0.12765143807E+02 0.13439977981E+02 0.13087456173E+02 0.11620488167E+02 0.93022619274E+01
 0.66792608137E+01 0.44125147952E+01 0.30800516000E+01 0.30199147248E+01 0.42473853503E+01
 0.63780962729E+01 0.96545718132E+01 0.12310995747E+02 0.13822375003E+02 0.14038359627E+02
 0.13187244556E+02 0.11748926332E+02 0.10181671923E+02 0.86790672436E+01 0.73519965336E+01
 0.62560823450E+01 0.53999345183E+01 0.47664343374E+01 0.43321504040E+01 0.40773386746E+01
 0.39891032956E+01 0.40626885877E+01 0.43021007508E+01 0.47195173345E+01 0.53341091415E+01
 0.61692819255E+01 0.72434265217E+01 0.85511402163E+01 0.10041648231E+02 0.11608910080E+02
 0.13073760383E+02 0.13999793129E+02 0.13893933272E+02 0.12498525352E+02 0.99284391420E+01
 0.66792608137E+01 0.34974692315E+01 0.11620754078E+01 0.25848380562E+00 0.10150797325E+01
 0.32411948579E+01 0.78497172629E+01 0.11326088399E+02 0.13785901505E+02 0.14861706386E+02
 0.14609765049E+02 0.13428816205E+02 0.11867806746E+02 0.10278512968E+02 0.88068700578E+01
 0.75421174177E+01 0.65195183388E+01 0.57363023449E+01 0.51730933080E+01 0.48088228245E+01
 0.46272158460E+01 0.46193581598E+01 0.47850325809E+01 0.51324822918E+01 0.56770580909E+01
 0.64393917689E+01 0.74397719433E+01 0.86835681520E+01 0.10139574341E+02 0.11723324322E+02
 0.13295697625E+02 0.14533661375E+02 0.14889645781E+02 0.13941604083E+02 0.11597205140E+02
 0.81867309123E+01 0.44125147952E+01 0.11620754078E+01 -.75255445229E+00 -.83948718791E+00
 0.92417325646E+00 0.40849056332E+01 0.10408667632E+02 0.13542764939E+02 0.15366621920E+02
 0.15747807266E+02 0.14954292110E+02 0.13503442080E+02 0.11890945320E+02 0.10327070038E+02
 0.89276430593E+01 0.77552086785E+01 0.68262473730E+01 0.61304166289E+01 0.56488840820E+01
 0.53645190634E+01 0.52657183452E+01 0.53481315413E+01 0.56154163073E+01 0.60785640554E+01
 0.67542858613E+01 0.76615695816E+01 0.88122103722E+01 0.10193001836E+02 0.11746065968E+02
 0.13360156543E+02 0.14841927198E+02 0.15718009155E+02 0.15458611471E+02 0.13765698612E+02
 0.10732299957E+02 0.68856858116E+01 0.30800516000E+01 0.25848380562E+00 -.83948718791E+00
 0.81163741489E-01 0.27728018622E+01 0.65275608662E+01 0.13299475455E+02 0.15636983304E+02
 0.16567351520E+02 0.16203642508E+02 0.14971788302E+02 0.13406571250E+02 0.11816807041E+02
 0.10336673615E+02 0.90509863533E+01 0.79970642035E+01 0.71779665903E+01 0.65805882390E+01
 0.61893856859E+01 0.59926966860E+01 0.59843469301E+01 0.61639481941E+01 0.65370995146E+01
 0.71152097818E+01 0.79137710311E+01 0.89464073142E+01 0.10212072094E+02 0.11677323887E+02
 0.13262041957E+02 0.14837211619E+02 0.16120450322E+02 0.16582903439E+02 0.15779308694E+02
 0.13562401895E+02 0.10202876155E+02 0.63800752631E+01 0.30199147248E+01 0.10150797325E+01
 0.92417325646E+00 0.27728018622E+01 0.60444685429E+01 0.98651361416E+01 0.15750462517E+02
 0.17060015911E+02 0.17087982080E+02 0.16138650451E+02 0.14701965557E+02 0.13160072084E+02
 0.11668120236E+02 0.10325145659E+02 0.91858713589E+01 0.82683813856E+01 0.75688663267E+01
 0.70760941700E+01 0.67804376801E+01 0.66766828100E+01 0.67632855342E+01 0.70415278173E+01
 0.75162172964E+01 0.81965971812E+01 0.90940481917E+01 0.10213642869E+02 0.11539942872E+02
 0.13021943601E+02 0.14564537607E+02 0.16021487640E+02 0.17035872709E+02 0.17112405959E+02
 0.15922524455E+02 0.13472611885E+02 0.10179030844E+02 0.68045467372E+01 0.42473853503E+01
 0.32411948579E+01 0.40849056332E+01 0.65275608662E+01 0.98651361416E+01 0.13201328074E+02
 0.18715737124E+02 0.18703917342E+02 0.17827282913E+02 0.16547847142E+02 0.15163269730E+02
 0.13800719387E+02 0.12546887652E+02 0.11453352044E+02 0.10544056327E+02 0.98267624782E+01
 0.93045351534E+01 0.89825629314E+01 0.88677179368E+01 0.89635335383E+01 0.92670902736E+01
 0.97715929415E+01 0.10471501982E+02 0.11363669549E+02 0.12441203420E+02 0.13682198668E+02
 0.15038009757E+02 0.16425222848E+02 0.17721824380E+02 0.18653842264E+02 0.18760348162E+02
 0.17692113264E+02 0.15396911694E+02 0.12226424712E+02 0.89105661277E+01 0.63613978739E+01
 0.53505899125E+01 0.61981256452E+01 0.86353428700E+01 0.11920105370E+02 0.15138549529E+02
 0.17533548431E+02 0.18703917342E+02 0.18118177029E+02 0.17098864788E+02 0.15923930667E+02
 0.14716816409E+02 0.13563611174E+02 0.12519432019E+02 0.11614162561E+02 0.10862186580E+02
 0.10273569733E+02 0.98620390674E+01 0.96449396404E+01 0.96354048047E+01 0.98341050181E+01
 0.10228809758E+02 0.10802177189E+02 0.11539954021E+02 0.12431877177E+02 0.13464377004E+02
 0.14609515653E+02 0.15814869755E+02 0.16997208151E+02 0.18038297091E+02 0.18679242300E+02
 0.18546561306E+02 0.17418450731E+02 0.15368585368E+02 0.12818939333E+02 0.10455386835E+02
 0.90021128075E+01 0.89353152717E+01 0.10277406968E+02 0.12587028866E+02 0.15150688397E+02
 0.17267953962E+02 0.18487223146E+02 0.17827282913E+02 0.17098864788E+02 0.16187840578E+02
 0.15202695591E+02 0.14222879342E+02 0.13301033379E+02 0.12467235088E+02 0.11737649214E+02
 0.11125815318E+02 0.10652158268E+02 0.10345350200E+02 0.10232852235E+02 0.10326827633E+02
 0.10617025063E+02 0.11076867601E+02 0.11677309874E+02 0.12396997211E+02 0.13221954461E+02
 0.14136730424E+02 0.15113051034E+02 0.16100643579E+02 0.17022428024E+02 0.17773631823E+02
 0.18148940444E+02 0.17877719104E+02 0.16851250529E+02 0.15223532430E+02 0.13411667206E+02
 0.11973958694E+02 0.11396093381E+02 0.11881511888E+02 0.13258932023E+02 0.15060486428E+02
 0.16725031464E+02 0.17816071595E+02 0.18154199368E+02 0.16547847142E+02 0.15923930667E+02
 0.15202695591E+02 0.14451374875E+02 0.13714930538E+02 0.13018446455E+02 0.12374505361E+02
 0.11794599972E+02 0.11300778556E+02 0.10929956975E+02 0.10724997506E+02 0.10715909654E+02
 0.10904042469E+02 0.11261455792E+02 0.11745817560E+02 0.12319214854E+02 0.12958087419E+02
 0.13650226923E+02 0.14383738276E+02 0.15135233229E+02 0.15861722044E+02 0.16497775187E+02
 0.16959390224E+02 0.17115418644E+02 0.16796301156E+02 0.15975263769E+02 0.14831630665E+02
 0.13713112571E+02 0.13007543288E+02 0.12975229450E+02 0.13628131891E+02 0.14724419326E+02
 0.15881285974E+02 0.16741547967E+02 0.17107756255E+02 0.16988833930E+02 0.15163269730E+02
 0.14716816409E+02 0.14222879342E+02 0.13714930538E+02 0.13209173462E+02 0.12710275712E+02
 0.12222312728E+02 0.11762277847E+02 0.11368437815E+02 0.11094819751E+02 0.10990943378E+02
 0.11078033016E+02 0.11337994784E+02 0.11723073610E+02 0.12178958569E+02 0.12665536315E+02
 0.13163837269E+02 0.13669017536E+02 0.14177120369E+02 0.14673454261E+02 0.15126141632E+02
 0.15485464241E+02 0.15690470828E+02 0.15676964948E+02 0.15367403567E+02 0.14778958016E+02
 0.14069279189E+02 0.13482621000E+02 0.13242552786E+02 0.13444387575E+02 0.14007667051E+02
 0.14716562191E+02 0.15324141997E+02 0.15661802048E+02 0.15699278933E+02 0.15511213030E+02
 0.13800719387E+02 0.13563611174E+02 0.13301033379E+02 0.13018446455E+02 0.12710275712E+02
 0.12369572243E+02 0.12002319753E+02 0.11639694870E+02 0.11338058111E+02 0.11161360125E+02
 0.11153482831E+02 0.11316357656E+02 0.11609031117E+02 0.11968468164E+02 0.12336952174E+02
 0.12680744743E+02 0.12991732420E+02 0.13276235713E+02 0.13540589860E+02 0.13780666587E+02
 0.13977344788E+02 0.14097719177E+02 0.14103200758E+02 0.13966159490E+02 0.13682352491E+02
 0.13287004549E+02 0.12890839189E+02 0.12636273778E+02 0.12624194296E+02 0.12859584040E+02
 0.13248773635E+02 0.13650001318E+02 0.13946755374E+02 0.14097197675E+02 0.14103655441E+02
 0.13991986573E+02 0.12546887652E+02 0.12519432019E+02 0.12467235088E+02 0.12374505361E+02
 0.12222312728E+02 0.12002319753E+02 0.11731466904E+02 0.11457742149E+02 0.11247852617E+02
 0.11164191910E+02 0.11234659695E+02 0.11435444613E+02 0.11705959944E+02 0.11979188425E+02
 0.12204885847E+02 0.12363259351E+02 0.12460704819E+02 0.12515758827E+02 0.12545023959E+02
 0.12554417750E+02 0.12536349696E+02 0.12472300828E+02 0.12341403673E+02 0.12134687059E+02
 0.11869912784E+02 0.11596733684E+02 0.11383872524E+02 0.11298167778E+02 0.11369842299E+02
 0.11573700153E+02 0.11844716345E+02 0.12113021398E+02 0.12326254569E+02 0.12463785953E+02
 0.12532943074E+02 0.12554279543E+02 0.11453352044E+02 0.11614162561E+02 0.11737649214E+02
 0.11794599972E+02 0.11762277847E+02 0.11639694870E+02 0.11457742149E+02 0.11273169565E+02
 0.11153213057E+02 0.11147731305E+02 0.11259046826E+02 0.11440503611E+02 0.11624982323E+02
 0.11754406127E+02 0.11795217240E+02 0.11745751008E+02 0.11627164350E+02 0.11468550337E+02
 0.11294394762E+02 0.11117695788E+02 0.10938628632E+02 0.10748204447E+02 0.10536654449E+02
 0.10304555858E+02 0.10071414087E+02 0.98750856154E+01 0.97592546144E+01 0.97540406407E+01
 0.98609509518E+01 0.10051975884E+02 0.10283604740E+02 0.10516669112E+02 0.10730038868E+02
 0.10921991001E+02 0.11101809611E+02 0.11278683250E+02 0.10544056327E+02 0.10862186580E+02
 0.11125815318E+02 0.11300778556E+02 0.11368437815E+02 0.11338058111E+02 0.11247852617E+02
 0.11153213057E+02 0.11110953492E+02 0.11146763496E+02 0.11238881599E+02 0.11331869064E+02
 0.11369267962E+02 0.11311059341E+02 0.11145331026E+02 0.10888558317E+02 0.10573887968E+02
 0.10237141925E+02 0.99064040831E+01 0.95971230238E+01 0.93123729089E+01 0.90474997242E+01
 0.87979424766E+01 0.85674175635E+01 0.83720709405E+01 0.82370246971E+01 0.81858810057E+01
 0.82288886901E+01 0.83573804355E+01 0.85483819234E+01 0.87763344614E+01 0.90242014875E+01
 0.92875092828E+01 0.95704188870E+01 0.98776686401E+01 0.10206929885E+02 0.98267624782E+01
 0.10273569733E+02 0.10652158268E+02 0.10929956975E+02 0.11094819751E+02 0.11161360125E+02
 0.11164191910E+02 0.11147731305E+02 0.11146763496E+02 0.11163002129E+02 0.11163864645E+02
 0.11104577490E+02 0.10949334365E+02 0.10681388788E+02 0.10310758488E+02 0.98685894001E+01
 0.93951336850E+01 0.89277433141E+01 0.84929676690E+01 0.81039414909E+01 0.77624658835E+01
 0.74644936420E+01 0.72070990151E+01 0.69940778012E+01 0.68371225196E+01 0.67513674123E+01
 0.67476302113E+01 0.68263422932E+01 0.69773547495E+01 0.71857172750E+01 0.74393801205E+01
 0.77338591743E+01 0.80714812937E+01 0.84562551518E+01 0.88871480560E+01 0.93523876506E+01
 0.93045351534E+01 0.98620390674E+01 0.10345350200E+02 0.10724997506E+02 0.10990943378E+02
 0.11153482831E+02 0.11234659695E+02 0.11259046826E+02 0.11238881599E+02 0.11163864645E+02
 0.11009720191E+02 0.10753713405E+02 0.10384021230E+02 0.99089293943E+01 0.93565478908E+01
 0.87670456289E+01 0.81818507939E+01 0.76343810691E+01 0.71451050066E+01 0.67214915431E+01
 0.63618235732E+01 0.60610718094E+01 0.58166063535E+01 0.56314062990E+01 0.55132306054E+01
 0.54702802835E+01 0.55061868064E+01 0.56177806089E+01 0.57971631520E+01 0.60365321186E+01
 0.63324502320E+01 0.66869223753E+01 0.71047086575E+01 0.75880418944E+01 0.81307040925E+01
 0.87136746365E+01 0.89825629314E+01 0.96449396404E+01 0.10232852235E+02 0.10715909654E+02
 0.11078033016E+02 0.11316357656E+02 0.11435444613E+02 0.11440503611E+02 0.11331869064E+02
 0.11104577490E+02 0.10753713405E+02 0.10281090999E+02 0.97014483814E+01 0.90440896828E+01
 0.83489526890E+01 0.76586886976E+01 0.70101157546E+01 0.64282991590E+01 0.59249097645E+01
 0.55006223436E+01 0.51500582861E+01 0.48672557106E+01 0.46496565093E+01 0.44991968577E+01
 0.44203994287E+01 0.44169444225E+01 0.44890359629E+01 0.46332816668E+01 0.48451183020E+01
 0.51221893097E+01 0.54664922264E+01 0.58837372427E+01 0.63796887852E+01 0.69546412993E+01
 0.75981230052E+01 0.82861344096E+01 0.88677179368E+01 0.96354048047E+01 0.10326827633E+02
 0.10904042469E+02 0.11337994784E+02 0.11609031117E+02 0.11705959944E+02 0.11624982323E+02
 0.11369267962E+02 0.10949334365E+02 0.10384021230E+02 0.97014483814E+01 0.89387894496E+01
 0.81395977655E+01 0.73484236157E+01 0.66041507581E+01 0.59345360502E+01 0.53539773335E+01
 0.48649886359E+01 0.44623619295E+01 0.41382444719E+01 0.38863485704E+01 0.37040335696E+01
 0.35919498824E+01 0.35520344399E+01 0.35853393044E+01 0.36910516509E+01 0.38672558535E+01
 0.41129889117E+01 0.44303766324E+01 0.48253675692E+01 0.53059932728E+01 0.58781662866E+01
 0.65403303999E+01 0.72790664450E+01 0.80675554238E+01 0.89635335383E+01 0.98341050181E+01
 0.10617025063E+02 0.11261455792E+02 0.11723073610E+02 0.11968468164E+02 0.11979188425E+02
 0.11754406127E+02 0.11311059341E+02 0.10681388788E+02 0.99089293943E+01 0.90440896828E+01
 0.81395977655E+01 0.72455393611E+01 0.64041966269E+01 0.56458369587E+01 0.49868905690E+01
 0.44311957263E+01 0.39737459447E+01 0.36054680875E+01 0.33174119261E+01 0.31032578609E+01
 0.29598915668E+01 0.28865438211E+01 0.28833833890E+01 0.29504533902E+01 0.30875630156E+01
 0.32952535342E+01 0.35763229807E+01 0.39368782421E+01 0.43858561691E+01 0.49325277159E+01
 0.55823617262E+01 0.63323482952E+01 0.71672386408E+01 0.80580531263E+01 0.92670902736E+01
 0.10228809758E+02 0.11076867601E+02 0.11745817560E+02 0.12178958569E+02 0.12336952174E+02
 0.12204885847E+02 0.11795217240E+02 0.11145331026E+02 0.10310758488E+02 0.93565478908E+01
 0.83489526890E+01 0.73484236157E+01 0.64041966269E+01 0.55508555566E+01 0.48074105448E+01
 0.41790695636E+01 0.36611091986E+01 0.32435951787E+01 0.29155646316E+01 0.26677303912E+01
 0.24935420767E+01 0.23890779278E+01 0.23524237995E+01 0.23830303312E+01 0.24813706829E+01
 0.26491359400E+01 0.28899673972E+01 0.32102677088E+01 0.36193153481E+01 0.41280638095E+01
 0.47464799197E+01 0.54796908277E+01 0.63235379528E+01 0.72605625557E+01 0.82577585243E+01
 0.97715929415E+01 0.10802177189E+02 0.11677309874E+02 0.12319214854E+02 0.12665536315E+02
 0.12680744743E+02 0.12363259351E+02 0.11745751008E+02 0.10888558317E+02 0.98685894001E+01
 0.87670456289E+01 0.76586886976E+01 0.66041507581E+01 0.56458369587E+01 0.48074105448E+01
 0.40963617080E+01 0.35086036353E+01 0.30336453765E+01 0.26589764327E+01 0.23729012574E+01
 0.21658534108E+01 0.20307397612E+01 0.19628993625E+01 0.19599942052E+01 0.20219244545E+01
 0.21508132681E+01 0.23511017329E+01 0.26297031543E+01 0.29960313092E+01 0.34616073026E+01
 0.40388314046E+01 0.47384286217E+01 0.55653195232E+01 0.65134166650E+01 0.75607363324E+01
 0.86665271576E+01 0.10471501982E+02 0.11539954021E+02 0.12396997211E+02 0.12958087419E+02
 0.13163837269E+02 0.12991732420E+02 0.12460704819E+02 0.11627164350E+02 0.10573887968E+02
 0.93951336850E+01 0.81818507939E+01 0.70101157546E+01 0.59345360502E+01 0.49868905690E+01
 0.41790695636E+01 0.35086036353E+01 0.29648066870E+01 0.25338684164E+01 0.22020632231E+01
 0.19572368407E+01 0.17893426725E+01 0.16907486761E+01 0.16565890975E+01 0.16850856369E+01
 0.17777016294E+01 0.19390611383E+01 0.21766335065E+01 0.25002916499E+01 0.29219163490E+01
 0.34549560592E+01 0.41132560396E+01 0.49081409632E+01 0.58433208649E+01 0.69085064877E+01
 0.80736872175E+01 0.92861252223E+01 0.11363669549E+02 0.12431877177E+02 0.13221954461E+02
 0.13650226923E+02 0.13669017536E+02 0.13276235713E+02 0.12515758827E+02 0.11468550337E+02
 0.10237141925E+02 0.89277433141E+01 0.76343810691E+01 0.64282991590E+01 0.53539773335E+01
 0.44311957263E+01 0.36611091986E+01 0.30336453765E+01 0.25338684164E+01 0.21460738130E+01
 0.18557081369E+01 0.16500430225E+01 0.15185671512E+01 0.14535619910E+01 0.14508049111E+01
 0.15100928674E+01 0.16353019990E+01 0.18339100745E+01 0.21162197050E+01 0.24947085749E+01
 0.29836975861E+01 0.35988561965E+01 0.43554520552E+01 0.52643425833E+01 0.63256587291E+01
 0.75214462197E+01 0.88095118614E+01 0.10120991382E+02 0.12441203420E+02 0.13464377004E+02
 0.14136730424E+02 0.14383738276E+02 0.14177120369E+02 0.13540589860E+02 0.12545023959E+02
 0.11294394762E+02 0.99064040831E+01 0.84929676690E+01 0.71451050066E+01 0.59249097645E+01
 0.48649886359E+01 0.39737459447E+01 0.32435951787E+01 0.26589764327E+01 0.22020632231E+01
 0.18557081369E+01 0.16045061663E+01 0.14352050517E+01 0.13372493854E+01 0.13036172950E+01
 0.13316754651E+01 0.14236071667E+01 0.15861037354E+01 0.18294563175E+01 0.21666221734E+01
 0.26127548815E+01 0.31849717930E+01 0.39013389076E+01 0.47778725994E+01 0.58229679708E+01
 0.70297511607E+01 0.83680546711E+01 0.97787248330E+01 0.11173301499E+02 0.13682198668E+02
 0.14609515653E+02 0.15113051034E+02 0.15135233229E+02 0.14673454261E+02 0.13780666587E+02
 0.12554417750E+02 0.11117695788E+02 0.95971230238E+01 0.81039414909E+01 0.67214915431E+01
 0.55006223436E+01 0.44623619295E+01 0.36054680875E+01 0.29155646316E+01 0.23729012574E+01
 0.19572368407E+01 0.16500430225E+01 0.14352050517E+01 0.12994048608E+01 0.12328029902E+01
 0.12299838273E+01 0.12906986490E+01 0.14199211241E+01 0.16271459311E+01 0.19253941816E+01
 0.23305163763E+01 0.28608802168E+01 0.35367371645E+01 0.43780676503E+01 0.53998783255E+01
 0.66047935090E+01 0.79741407220E+01 0.94601210303E+01 0.10982378169E+02 0.12431749202E+02
 0.15038009757E+02 0.15814869755E+02 0.16100643579E+02 0.15861722044E+02 0.15126141632E+02
 0.13977344788E+02 0.12536349696E+02 0.10938628632E+02 0.93123729089E+01 0.77624658835E+01
 0.63618235732E+01 0.51500582861E+01 0.41382444719E+01 0.33174119261E+01 0.26677303912E+01
 0.21658534108E+01 0.17893426725E+01 0.15185671512E+01 0.13372493854E+01 0.12328029902E+01
 0.11970113370E+01 0.12268475554E+01 0.13248566683E+01 0.14988016302E+01 0.17608824424E+01
 0.21270868627E+01 0.26168354654E+01 0.32523976178E+01 0.40570727830E+01 0.50510883443E+01
 0.62446984879E+01 0.76291882367E+01 0.91680374539E+01 0.10791433193E+02 0.12396928213E+02
 0.13857662610E+02 0.16425222848E+02 0.16997208151E+02 0.17022428024E+02 0.16497775187E+02
 0.15485464241E+02 0.14097719177E+02 0.12472300828E+02 0.10748204447E+02 0.90474997242E+01
 0.74644936420E+01 0.60610718094E+01 0.48672557106E+01 0.38863485704E+01 0.31032578609E+01
 0.24935420767E+01 0.20307397612E+01 0.16907486761E+01 0.14535619910E+01 0.13036172950E+01
 0.12299838273E+01 0.12268475554E+01 0.12939732574E+01 0.14366926936E+01 0.16654578989E+01
 0.19954146888E+01 0.24462330935E+01 0.30417309778E+01 0.38082219679E+01 0.47704563336E+01
 0.59446978345E+01 0.73298172796E+01 0.88986601680E+01 0.10592338314E+02 0.12319195944E+02
 0.13959139967E+02 0.15374041984E+02 0.17721824380E+02 0.18038297091E+02 0.17773631823E+02
 0.16959390224E+02 0.15690470828E+02 0.14103200758E+02 0.12341403673E+02 0.10536654449E+02
 0.87979424766E+01 0.72070990151E+01 0.58166063535E+01 0.46496565093E+01 0.37040335696E+01
 0.29598915668E+01 0.23890779278E+01 0.19628993625E+01 0.16565890975E+01 0.14508049111E+01
 0.13316754651E+01 0.12906986490E+01 0.13248566683E+01 0.14366926936E+01 0.16342006794E+01
 0.19307463227E+01 0.23452006659E+01 0.29018842482E+01 0.36291939656E+01 0.45555350040E+01
 0.57019728809E+01 0.70728840274E+01 0.86476531382E+01 0.10376278270E+02 0.12179248682E+02
 0.13949866905E+02 0.15558483633E+02 0.16861907871E+02 0.18653842264E+02 0.18679242300E+02
 0.18148940444E+02 0.17115418644E+02 0.15676964948E+02 0.13966159490E+02 0.12134687059E+02
 0.10304555858E+02 0.85674175635E+01 0.69940778012E+01 0.56314062990E+01 0.44991968577E+01
 0.35919498824E+01 0.28865438211E+01 0.23524237995E+01 0.19599942052E+01 0.16850856369E+01
 0.15100928674E+01 0.14236071667E+01 0.14199211241E+01 0.14988016302E+01 0.16654578989E+01
 0.19307463227E+01 0.23116955535E+01 0.28319174585E+01 0.35206139129E+01 0.44084870864E+01
 0.55197859055E+01 0.68621394696E+01 0.84182796455E+01 0.10143521166E+02 0.11968777760E+02
 0.13804208888E+02 0.15531828817E+02 0.17000586851E+02 0.18075251922E+02 0.18760348162E+02
 0.18546561306E+02 0.17877719104E+02 0.16796301156E+02 0.15367403567E+02 0.13682352491E+02
 0.11869912784E+02 0.10071414087E+02 0.83720709405E+01 0.68371225196E+01 0.55132306054E+01
 0.44203994287E+01 0.35520344399E+01 0.28833833890E+01 0.23830303312E+01 0.20219244545E+01
 0.17777016294E+01 0.16353019990E+01 0.15861037354E+01 0.16271459311E+01 0.17608824424E+01
 0.19954146888E+01 0.23452006659E+01 0.28319174585E+01 0.34840904381E+01 0.43332488102E+01
 0.54052886429E+01 0.67089085509E+01 0.82265502572E+01 0.99135461961E+01 0.11705865278E+02
 0.13521891386E+02 0.15224195628E+02 0.16680478616E+02 0.17796378172E+02 0.18504570826E+02
 0.17692113264E+02 0.17418450731E+02 0.16851250529E+02 0.15975263769E+02 0.14778958016E+02
 0.13287004549E+02 0.11596733684E+02 0.98750856154E+01 0.82370246971E+01 0.67513674123E+01
 0.54702802835E+01 0.44169444225E+01 0.35853393044E+01 0.29504533902E+01 0.24813706829E+01
 0.21508132681E+01 0.19390611383E+01 0.18339100745E+01 0.18294563175E+01 0.19253941816E+01
 0.21270868627E+01 0.24462330935E+01 0.29018842482E+01 0.35206139129E+01 0.43332488102E+01
 0.53659637632E+01 0.66271307450E+01 0.80962753005E+01 0.97232401996E+01 0.11440235771E+02
 0.13140415400E+02 0.14655500835E+02 0.15880504527E+02 0.16785290340E+02 0.17379619308E+02
 0.17679270780E+02 0.15396911694E+02 0.15368585368E+02 0.15223532430E+02 0.14831630665E+02
 0.14069279189E+02 0.12890839189E+02 0.11383872524E+02 0.97592546144E+01 0.81858810057E+01
 0.67476302113E+01 0.55061868064E+01 0.44890359629E+01 0.36910516509E+01 0.30875630156E+01
 0.26491359400E+01 0.23511017329E+01 0.21766335065E+01 0.21162197050E+01 0.21666221734E+01
 0.23305163763E+01 0.26168354654E+01 0.30417309778E+01 0.36291939656E+01 0.44084870864E+01
 0.54052886429E+01 0.66271307450E+01 0.80497065483E+01 0.96139795299E+01 0.11238461792E+02
 0.12765982252E+02 0.13980055366E+02 0.14779962292E+02 0.15200727951E+02 0.15362059663E+02
 0.15396316593E+02 0.15396661532E+02 0.12226424712E+02 0.12818939333E+02 0.13411667206E+02
 0.13713112571E+02 0.13482621000E+02 0.12636273778E+02 0.11298167778E+02 0.97540406407E+01
 0.82288886901E+01 0.68263422932E+01 0.56177806089E+01 0.46332816668E+01 0.38672558535E+01
 0.32952535342E+01 0.28899673972E+01 0.26297031543E+01 0.25002916499E+01 0.24947085749E+01
 0.26127548815E+01 0.28608802168E+01 0.32523976178E+01 0.38082219679E+01 0.45555350040E+01
 0.55197859055E+01 0.67089085509E+01 0.80962753005E+01 0.96139795299E+01 0.11162429199E+02
 0.12532514528E+02 0.13431681375E+02 0.13717303887E+02 0.13455334528E+02 0.12876503475E+02
 0.12272620581E+02 0.11892102170E+02 0.11874679778E+02 0.89105661277E+01 0.10455386835E+02
 0.11973958694E+02 0.13007543288E+02 0.13242552786E+02 0.12624194296E+02 0.11369842299E+02
 0.98609509518E+01 0.83573804355E+01 0.69773547495E+01 0.57971631520E+01 0.48451183020E+01
 0.41129889117E+01 0.35763229807E+01 0.32102677088E+01 0.29960313092E+01 0.29219163490E+01
 0.29836975861E+01 0.31849717930E+01 0.35367371645E+01 0.40570727830E+01 0.47704563336E+01
 0.57019728809E+01 0.68621394696E+01 0.82265502572E+01 0.97232401996E+01 0.11238461792E+02
 0.12532514528E+02 0.13220764240E+02 0.13064465672E+02 0.12092798626E+02 0.10599895180E+02
 0.90378404732E+01 0.78633901425E+01 0.74057626210E+01 0.77896092042E+01 0.63613978739E+01
 0.90021128075E+01 0.11396093381E+02 0.12975229450E+02 0.13444387575E+02 0.12859584040E+02
 0.11573700153E+02 0.10051975884E+02 0.85483819234E+01 0.71857172750E+01 0.60365321186E+01
 0.51221893097E+01 0.44303766324E+01 0.39368782421E+01 0.36193153481E+01 0.34616073026E+01
 0.34549560592E+01 0.35988561965E+01 0.39013389076E+01 0.43780676503E+01 0.50510883443E+01
 0.59446978345E+01 0.70728840274E+01 0.84182796455E+01 0.99135461961E+01 0.11440235771E+02
 0.12765982252E+02 0.13431681375E+02 0.13064465672E+02 0.11577772342E+02 0.92367488928E+01
 0.65911594333E+01 0.43060214598E+01 0.29630236420E+01 0.29024404533E+01 0.41396377543E+01
 0.53505899125E+01 0.89353152717E+01 0.11881511888E+02 0.13628131891E+02 0.14007667051E+02
 0.13248773635E+02 0.11844716345E+02 0.10283604740E+02 0.87763344614E+01 0.74393801205E+01
 0.63324502320E+01 0.54664922264E+01 0.48253675692E+01 0.43858561691E+01 0.41280638095E+01
 0.40388314046E+01 0.41132560396E+01 0.43554520552E+01 0.47778725994E+01 0.53998783255E+01
 0.62446984879E+01 0.73298172796E+01 0.86476531382E+01 0.10143521166E+02 0.11705865278E+02
 0.13140415400E+02 0.13980055366E+02 0.13717303887E+02 0.12092798626E+02 0.92367488928E+01
 0.56790447696E+01 0.22157589179E+01 -.32006715126E+00 -.13002898366E+01 -.47939327759E+00
 0.19374426164E+01 0.61981256452E+01 0.10277406968E+02 0.13258932023E+02 0.14724419326E+02
 0.14716562191E+02 0.13650001318E+02 0.12113021398E+02 0.10516669112E+02 0.90242014875E+01
 0.77338591743E+01 0.66869223753E+01 0.58837372427E+01 0.53059932728E+01 0.49325277159E+01
 0.47464799197E+01 0.47384286217E+01 0.49081409632E+01 0.52643425833E+01 0.58229679708E+01
 0.66047935090E+01 0.76291882367E+01 0.88986601680E+01 0.10376278270E+02 0.11968777760E+02
 0.13521891386E+02 0.14655500835E+02 0.14779962292E+02 0.13455334528E+02 0.10599895180E+02
 0.65911594333E+01 0.22157589179E+01 -.15307838362E+01 -.37327880173E+01 -.38329586020E+01
 -.18052003244E+01 0.18366888811E+01 0.86353428700E+01 0.12587028866E+02 0.15060486428E+02
 0.15881285974E+02 0.15324141997E+02 0.13946755374E+02 0.12326254569E+02 0.10730038868E+02
 0.92875092828E+01 0.80714812937E+01 0.71047086575E+01 0.63796887852E+01 0.58781662866E+01
 0.55823617262E+01 0.54796908277E+01 0.55653195232E+01 0.58433208649E+01 0.63256587291E+01
 0.70297511607E+01 0.79741407220E+01 0.91680374539E+01 0.10592338314E+02 0.12179248682E+02
 0.13804208888E+02 0.15224195628E+02 0.15880504527E+02 0.15200727951E+02 0.12876503475E+02
 0.90378404732E+01 0.43060214598E+01 -.32006715126E+00 -.37327880173E+01 -.50585410896E+01
 -.39474782207E+01 -.69313219016E+00 0.38680733256E+01 0.11920105370E+02 0.15150688397E+02
 0.16725031464E+02 0.16741547967E+02 0.15661802048E+02 0.14097197675E+02 0.12463785953E+02
 0.10921991001E+02 0.95704188870E+01 0.84562551518E+01 0.75880418944E+01 0.69546412993E+01
 0.65403303999E+01 0.63323482952E+01 0.63235379528E+01 0.65134166650E+01 0.69085064877E+01
 0.75214462197E+01 0.83680546711E+01 0.94601210303E+01 0.10791433193E+02 0.12319195944E+02
 0.13949866905E+02 0.15531828817E+02 0.16680478616E+02 0.16785290340E+02 0.15362059663E+02
 0.12272620581E+02 0.78633901425E+01 0.29630236420E+01 -.13002898366E+01 -.38329586020E+01
 -.39474782207E+01 -.16125663581E+01 0.25356922738E+01 0.74264420285E+01 0.15138549529E+02
 0.17267953962E+02 0.17816071595E+02 0.17107756255E+02 0.15699278933E+02 0.14103655441E+02
 0.12532943074E+02 0.11101809611E+02 0.98776686401E+01 0.88871480560E+01 0.81307040925E+01
 0.75981230052E+01 0.72790664450E+01 0.71672386408E+01 0.72605625557E+01 0.75607363324E+01
 0.80736872175E+01 0.88095118614E+01 0.97787248330E+01 0.10982378169E+02 0.12396928213E+02
 0.13959139967E+02 0.15558483633E+02 0.17000586851E+02 0.17796378172E+02 0.17379619308E+02
 0.15396316593E+02 0.11892102170E+02 0.74057626210E+01 0.29024404533E+01 -.47939327759E+00
 -.18052003244E+01 -.69313219016E+00 0.25356922738E+01 0.69841721787E+01 0.11516303935E+02
 0.17533548431E+02 0.18487223146E+02 0.18154199368E+02 0.16988833930E+02 0.15511213030E+02
 0.13991986573E+02 0.12554279543E+02 0.11278683250E+02 0.10206929885E+02 0.93523876506E+01
 0.87136746365E+01 0.82861344096E+01 0.80675554238E+01 0.80580531263E+01 0.82577585243E+01
 0.86665271576E+01 0.92861252223E+01 0.10120991382E+02 0.11173301499E+02 0.12431749202E+02
 0.13857662610E+02 0.15374041984E+02 0.16861907871E+02 0.18075251922E+02 0.18504570826E+02
 0.17679270780E+02 0.15396661532E+02 0.11874679778E+02 0.77896092042E+01 0.41396377543E+01
 0.19374426164E+01 0.18366888811E+01 0.38680733256E+01 0.74264420285E+01 0.11516303935E+02
 0.15123274147E+02 0.20197569839E+02 0.19795463082E+02 0.18765818948E+02 0.17513200287E+02
 0.16205580527E+02 0.14939606091E+02 0.13780084522E+02 0.12765695545E+02 0.11917988923E+02
 0.11252295430E+02 0.10786253374E+02 0.10540304857E+02 0.10529535355E+02 0.10754683303E+02
 0.11201690271E+02 0.11850224816E+02 0.12682234013E+02 0.13682323141E+02 0.14829905756E+02
 0.16088384679E+02 0.17395744482E+02 0.18658312914E+02 0.19721224075E+02 0.20199134385E+02
 0.19653455997E+02 0.17846974003E+02 0.14904871233E+02 0.11383637519E+02 0.81729144745E+01
 0.62126131798E+01 0.61225759464E+01 0.79320649883E+01 0.11066546010E+02 0.14599768700E+02
 0.17623385641E+02 0.19543732938E+02 0.19795463082E+02 0.19083570794E+02 0.18110336017E+02
 0.17032519082E+02 0.15940524279E+02 0.14896365944E+02 0.13938828656E+02 0.13092095142E+02
 0.12377009362E+02 0.11821082977E+02 0.11460138656E+02 0.11327666154E+02 0.11438401952E+02
 0.11779900111E+02 0.12319756667E+02 0.13021820090E+02 0.13857669588E+02 0.14806073621E+02
 0.15843602299E+02 0.16933313936E+02 0.18015680760E+02 0.19002939062E+02 0.19750292506E+02
 0.19928362947E+02 0.19215941609E+02 0.17513374701E+02 0.15056589464E+02 0.12419977373E+02
 0.10361235418E+02 0.95388861267E+01 0.10229176180E+02 0.12199735310E+02 0.14816144404E+02
 0.17316937371E+02 0.19102462781E+02 0.19904298896E+02 0.18765818948E+02 0.18110336017E+02
 0.17319574586E+02 0.16471746857E+02 0.15620519377E+02 0.14798610653E+02 0.14025828714E+02
 0.13321328415E+02 0.12716539726E+02 0.12260108445E+02 0.12007133648E+02 0.11995953402E+02
 0.12228286556E+02 0.12668412088E+02 0.13261919849E+02 0.13959055910E+02 0.14726705613E+02
 0.15544863594E+02 0.16394355695E+02 0.17244245015E+02 0.18043064523E+02 0.18714696528E+02
 0.19143935357E+02 0.19090033579E+02 0.18346902681E+02 0.16920733606E+02 0.15092053313E+02
 0.13364617138E+02 0.12291324580E+02 0.12242138925E+02 0.13234333200E+02 0.14924450386E+02
 0.16766713138E+02 0.18244496679E+02 0.19053200569E+02 0.19163060431E+02 0.17513200287E+02
 0.17032519082E+02 0.16471746857E+02 0.15871608945E+02 0.15253972660E+02 0.14628533420E+02
 0.14005326815E+02 0.13410778001E+02 0.12898037292E+02 0.12539061519E+02 0.12401862580E+02
 0.12517040279E+02 0.12858457657E+02 0.13360110365E+02 0.13949722351E+02 0.14571900972E+02
 0.15197787972E+02 0.15816347985E+02 0.16418594016E+02 0.16984287876E+02 0.17474483282E+02
 0.17829895847E+02 0.17972824256E+02 0.17763696269E+02 0.17092310809E+02 0.16024278575E+02
 0.14819587835E+02 0.13853687336E+02 0.13463423802E+02 0.13791524529E+02 0.14717500413E+02
 0.15916399554E+02 0.17009703572E+02 0.17722563329E+02 0.17971037031E+02 0.17852934353E+02
 0.16205580527E+02 0.15940524279E+02 0.15620519377E+02 0.15253972660E+02 0.14837036812E+02
 0.14365215406E+02 0.13851356211E+02 0.13339581774E+02 0.12905175681E+02 0.12646217280E+02
 0.12634638706E+02 0.12873682742E+02 0.13296100907E+02 0.13804139759E+02 0.14319925287E+02
 0.14796560676E+02 0.15218453379E+02 0.15589210829E+02 0.15913445857E+02 0.16184245286E+02
 0.16377838854E+02 0.16454536381E+02 0.16367751101E+02 0.16066765302E+02 0.15513867372E+02
 0.14788623934E+02 0.14087620558E+02 0.13645742602E+02 0.13625276129E+02 0.14033895513E+02
 0.14720779110E+02 0.15453135847E+02 0.16026947547E+02 0.16350462278E+02 0.16454199353E+02
 0.16390400675E+02 0.14939606091E+02 0.14896365944E+02 0.14798610653E+02 0.14628533420E+02
 0.14365215406E+02 0.14002496822E+02 0.13563686593E+02 0.13111424433E+02 0.12758723702E+02
 0.12617412306E+02 0.12736479156E+02 0.13074255282E+02 0.13522292866E+02 0.13965374307E+02
 0.14336177807E+02 0.14608675391E+02 0.14786418405E+02 0.14889746605E+02 0.14937401539E+02
 0.14935924759E+02 0.14876447003E+02 0.14737585341E+02 0.14495799884E+02 0.14143887634E+02
 0.13702176538E+02 0.13237160790E+02 0.12870809223E+02 0.12723052986E+02 0.12846682194E+02
 0.13197596986E+02 0.13659526860E+02 0.14107492248E+02 0.14468818860E+02 0.14720554615E+02
 0.14867751899E+02 0.14933433858E+02 0.13780084522E+02 0.13938828656E+02 0.14025828714E+02
 0.14005326815E+02 0.13851356211E+02 0.13563686593E+02 0.13177009714E+02 0.12794434376E+02
 0.12550008731E+02 0.12538880283E+02 0.12765440163E+02 0.13140939653E+02 0.13532027031E+02
 0.13830592570E+02 0.13996841034E+02 0.14028702232E+02 0.13949991152E+02 0.13796271345E+02
 0.13598140091E+02 0.13372852253E+02 0.13122827807E+02 0.12839908672E+02 0.12515735773E+02
 0.12156563103E+02 0.11795444611E+02 0.11491647963E+02 0.11312003117E+02 0.11303687009E+02
 0.11469204781E+02 0.11764708993E+02 0.12123729879E+02 0.12484979294E+02 0.12812764221E+02
 0.13099051636E+02 0.13351637715E+02 0.13579087530E+02 0.12765695545E+02 0.13092095142E+02
 0.13321328415E+02 0.13410778001E+02 0.13339581774E+02 0.13111424433E+02 0.12794434376E+02
 0.12516068177E+02 0.12399373926E+02 0.12497805499E+02 0.12766226471E+02 0.13085343706E+02
 0.13325179427E+02 0.13410835007E+02 0.13335347649E+02 0.13117303008E+02 0.12797767354E+02
 0.12423178267E+02 0.12031245279E+02 0.11644689437E+02 0.11271342250E+02 0.10909530245E+02
 0.10557838041E+02 0.10226074353E+02 0.99412679569E+01 0.97428995260E+01 0.96674894850E+01
 0.97308435388E+01 0.99196415276E+01 0.10198415177E+02 0.10527100585E+02 0.10877347837E+02
 0.11238218803E+02 0.11610573902E+02 0.11996229246E+02 0.12388314201E+02 0.11917988923E+02
 0.12377009362E+02 0.12716539726E+02 0.12898037292E+02 0.12905175681E+02 0.12758723702E+02
 0.12550008731E+02 0.12399373926E+02 0.12392202578E+02 0.12532616830E+02 0.12741123205E+02
 0.12897728114E+02 0.12906063301E+02 0.12739493194E+02 0.12412958420E+02 0.11962729091E+02
 0.11441226812E+02 0.10899492391E+02 0.10375981787E+02 0.98925648148E+01 0.94564806268E+01
 0.90668082855E+01 0.87233947551E+01 0.84345833357E+01 0.82192292045E+01 0.81006781943E+01
 0.80955430258E+01 0.82045624873E+01 0.84121452479E+01 0.86950211819E+01 0.90337344622E+01
 0.94192333112E+01 0.98512355956E+01 0.10330737276E+02 0.10851323918E+02 0.11392675069E+02
 0.11252295430E+02 0.11821082977E+02 0.12260108445E+02 0.12539061519E+02 0.12646217280E+02
 0.12617412306E+02 0.12538880283E+02 0.12497805499E+02 0.12532616830E+02 0.12611066710E+02
 0.12648466366E+02 0.12555997037E+02 0.12292045948E+02 0.11866320924E+02 0.11307299266E+02
 0.10664901662E+02 0.99955308669E+01 0.93477342598E+01 0.87542294596E+01 0.82306331148E+01
 0.77795083201E+01 0.73976490903E+01 0.70838482152E+01 0.68437883071E+01 0.66894166829E+01
 0.66330606344E+01 0.66801978996E+01 0.68261018352E+01 0.70588399682E+01 0.73663199008E+01
 0.77422737339E+01 0.81872790449E+01 0.87044226390E+01 0.92919304646E+01 0.99357858074E+01
 0.10605045147E+02 0.10786253374E+02 0.11460138656E+02 0.12007133648E+02 0.12401862580E+02
 0.12634638706E+02 0.12736479156E+02 0.12765440163E+02 0.12766226471E+02 0.12741123205E+02
 0.12648466366E+02 0.12429593469E+02 0.12049381908E+02 0.11515117718E+02 0.10850848759E+02
 0.10100863845E+02 0.93207161313E+01 0.85631727848E+01 0.78677937727E+01 0.72567050690E+01
 0.67363703977E+01 0.63034522192E+01 0.59521402629E+01 0.56801290734E+01 0.54908581097E+01
 0.53912690526E+01 0.53869114187E+01 0.54780117514E+01 0.56593902055E+01 0.59241868552E+01
 0.62685964828E+01 0.66942688480E+01 0.72066230546E+01 0.78094500194E+01 0.84976715660E+01
 0.92509560064E+01 0.10031202130E+02 0.10540304857E+02 0.11327666154E+02 0.11995953402E+02
 0.12517040279E+02 0.12873682742E+02 0.13074255282E+02 0.13140939653E+02 0.13085343706E+02
 0.12897728114E+02 0.12555997037E+02 0.12049381908E+02 0.11393413871E+02 0.10615061630E+02
 0.97568052702E+01 0.88718071965E+01 0.80130760387E+01 0.72231841462E+01 0.65283147450E+01
 0.59380318482E+01 0.54497330122E+01 0.50553562511E+01 0.47476390631E+01 0.45237570252E+01
 0.43853858813E+01 0.43359413671E+01 0.43772030395E+01 0.45077312157E+01 0.47241602951E+01
 0.50244525812E+01 0.54108400090E+01 0.58902057470E+01 0.64708645141E+01 0.71563882226E+01
 0.79386200986E+01 0.87928158620E+01 0.96775339503E+01 0.10529535355E+02 0.11438401952E+02
 0.12228286556E+02 0.12858457657E+02 0.13296100907E+02 0.13522292866E+02 0.13532027031E+02
 0.13325179427E+02 0.12906063301E+02 0.12292045948E+02 0.11515117718E+02 0.10615061630E+02
 0.96408987939E+01 0.86472321056E+01 0.76871756215E+01 0.68042650606E+01 0.60266508069E+01
 0.53658200817E+01 0.48198628390E+01 0.43794457528E+01 0.40339859968E+01 0.37759327373E+01
 0.36021608124E+01 0.35128080333E+01 0.35089282502E+01 0.35906457248E+01 0.37569889638E+01
 0.40075354566E+01 0.43448656778E+01 0.47760914695E+01 0.53118212724E+01 0.59619785054E+01
 0.67294749142E+01 0.76040402980E+01 0.85588205384E+01 0.95514552558E+01 0.10754683303E+02
 0.11779900111E+02 0.12668412088E+02 0.13360110365E+02 0.13804139759E+02 0.13965374307E+02
 0.13830592570E+02 0.13410835007E+02 0.12739493194E+02 0.11866320924E+02 0.10850848759E+02
 0.97568052702E+01 0.86472321056E+01 0.75791817190E+01 0.65980838360E+01 0.57334651828E+01
 0.49979326685E+01 0.43899771144E+01 0.38994008173E+01 0.35132312046E+01 0.32202107058E+01
 0.30129372247E+01 0.28878196091E+01 0.28437417024E+01 0.28805623278E+01 0.29984026847E+01
 0.31981832994E+01 0.34831462323E+01 0.38603683858E+01 0.43409528532E+01 0.49379497202E+01
 0.56619543848E+01 0.65153445060E+01 0.74868875010E+01 0.85486751179E+01 0.96566780182E+01
 0.11201690271E+02 0.12319756667E+02 0.13261919849E+02 0.13949722351E+02 0.14319925287E+02
 0.14336177807E+02 0.13996841034E+02 0.13335347649E+02 0.12412958420E+02 0.11307299266E+02
 0.10100863845E+02 0.88718071965E+01 0.76871756215E+01 0.65980838360E+01 0.56370289688E+01
 0.48180668036E+01 0.41400795486E+01 0.35922056872E+01 0.31596589917E+01 0.28282634841E+01
 0.25869236782E+01 0.24282513673E+01 0.23480883613E+01 0.23446566201E+01 0.24178897688E+01
 0.25693540316E+01 0.28028939992E+01 0.31256351789E+01 0.35485340522E+01 0.40856533883E+01
 0.47517064520E+01 0.55578597956E+01 0.65062885199E+01 0.75846831171E+01 0.87624636670E+01
 0.99901060888E+01 0.11850224816E+02 0.13021820090E+02 0.13959055910E+02 0.14571900972E+02
 0.14796560676E+02 0.14608675391E+02 0.14028702232E+02 0.13117303008E+02 0.11962729091E+02
 0.10664901662E+02 0.93207161313E+01 0.80130760387E+01 0.68042650606E+01 0.57334651828E+01
 0.48180668036E+01 0.40580796468E+01 0.34423064841E+01 0.29545192443E+01 0.25781655981E+01
 0.22990325415E+01 0.21062171495E+01 0.19921741123E+01 0.19524759498E+01 0.19855921387E+01
 0.20927943227E+01 0.22782386682E+01 0.25492064582E+01 0.29163450098E+01 0.33935885179E+01
 0.39972537863E+01 0.47436476536E+01 0.56446824364E+01 0.67017727305E+01 0.78994107125E+01
 0.92004221122E+01 0.10544447056E+02 0.12682234013E+02 0.13857669588E+02 0.14726705613E+02
 0.15197787972E+02 0.15218453379E+02 0.14786418405E+02 0.13949991152E+02 0.12797767354E+02
 0.11441226812E+02 0.99955308669E+01 0.85631727848E+01 0.72231841462E+01 0.60266508069E+01
 0.49979326685E+01 0.41400795486E+01 0.34423064841E+01 0.28872387480E+01 0.24562517165E+01
 0.21324235700E+01 0.19016918713E+01 0.17531750681E+01 0.16793342463E+01 0.16761926033E+01
 0.17435510650E+01 0.18850551409E+01 0.21080174845E+01 0.24230764133E+01 0.28439165892E+01
 0.33870490740E+01 0.40709761035E+01 0.49135379304E+01 0.59266317539E+01 0.71088300386E+01
 0.84377820018E+01 0.98647334649E+01 0.11313075845E+02 0.13682323141E+02 0.14806073621E+02
 0.15544863594E+02 0.15816347985E+02 0.15589210829E+02 0.14889746605E+02 0.13796271345E+02
 0.12423178267E+02 0.10899492391E+02 0.93477342598E+01 0.78677937727E+01 0.65283147450E+01
 0.53658200817E+01 0.43899771144E+01 0.35922056872E+01 0.29545192443E+01 0.24562517165E+01
 0.20778455502E+01 0.18023201229E+01 0.16156625092E+01 0.15071196840E+01 0.14697299598E+01
 0.15009227701E+01 0.16028295910E+01 0.17820689807E+01 0.20491101547E+01 0.24176424622E+01
 0.29042984601E+01 0.35284321892E+01 0.43108449143E+01 0.52701240412E+01 0.64160262935E+01
 0.77407673140E+01 0.92104241488E+01 0.10759342533E+02 0.12290309233E+02 0.14829905756E+02
 0.15843602299E+02 0.16394355695E+02 0.16418594016E+02 0.15913445857E+02 0.14937401539E+02
 0.13598140091E+02 0.12031245279E+02 0.10375981787E+02 0.87542294596E+01 0.72567050690E+01
 0.59380318482E+01 0.48198628390E+01 0.38994008173E+01 0.31596589917E+01 0.25781655981E+01
 0.21324235700E+01 0.18023201229E+01 0.15707772700E+01 0.14239625063E+01 0.13517870338E+01
 0.13487298671E+01 0.14145386177E+01 0.15542873526E+01 0.17777023915E+01 0.20982616523E+01
 0.25326990619E+01 0.31009266956E+01 0.38254752034E+01 0.47290811445E+01 0.58293679928E+01
 0.71305569917E+01 0.86135407861E+01 0.10227098321E+02 0.11883882434E+02 0.13464354935E+02
 0.16088384679E+02 0.16933313936E+02 0.17244245015E+02 0.16984287876E+02 0.16184245286E+02
 0.14935924759E+02 0.13372852253E+02 0.11644689437E+02 0.98925648148E+01 0.82306331148E+01
 0.67363703977E+01 0.54497330122E+01 0.43794457528E+01 0.35132312046E+01 0.28282634841E+01
 0.22990325415E+01 0.19016918713E+01 0.16156625092E+01 0.14239625063E+01 0.13134700564E+01
 0.12756046221E+01 0.13071844882E+01 0.14108614467E+01 0.15947697400E+01 0.18716557285E+01
 0.22581508503E+01 0.27745337065E+01 0.34444750876E+01 0.42935125466E+01 0.53448860093E+01
 0.66120523558E+01 0.80885836440E+01 0.97378332346E+01 0.11485951664E+02 0.13221797371E+02
 0.14805897141E+02 0.17395744482E+02 0.18015680760E+02 0.18043064523E+02 0.17474483282E+02
 0.16377838854E+02 0.14876447003E+02 0.13122827807E+02 0.11271342250E+02 0.94564806268E+01
 0.77795083201E+01 0.63034522192E+01 0.50553562511E+01 0.40339859968E+01 0.32202107058E+01
 0.25869236782E+01 0.21062171495E+01 0.17531750681E+01 0.15071196840E+01 0.13517870338E+01
 0.12756046221E+01 0.12723629240E+01 0.13418084506E+01 0.14896343170E+01 0.17269147998E+01
 0.20695073735E+01 0.25377791323E+01 0.31563487548E+01 0.39528704078E+01 0.49545797906E+01
 0.61816391322E+01 0.76375019840E+01 0.92982916981E+01 0.11104472183E+02 0.12957954111E+02
 0.14726606982E+02 0.16257066838E+02 0.18658312914E+02 0.19002939062E+02 0.18714696528E+02
 0.17829895847E+02 0.16454536381E+02 0.14737585341E+02 0.12839908672E+02 0.10909530245E+02
 0.90668082855E+01 0.73976490903E+01 0.59521402629E+01 0.47476390631E+01 0.37759327373E+01
 0.30129372247E+01 0.24282513673E+01 0.19921741123E+01 0.16793342463E+01 0.14697299598E+01
 0.13487298671E+01 0.13071844882E+01 0.13418084506E+01 0.14553778587E+01 0.16565039773E+01
 0.19592981520E+01 0.23833102396E+01 0.29535045225E+01 0.36992540152E+01 0.46510025513E+01
 0.58337166750E+01 0.72575862760E+01 0.89080951958E+01 0.10738332551E+02 0.12665479321E+02
 0.14571929915E+02 0.16311659364E+02 0.17724182240E+02 0.19721224075E+02 0.19750292506E+02
 0.19143935357E+02 0.17972824256E+02 0.16367751101E+02 0.14495799884E+02 0.12515735773E+02
 0.10557838041E+02 0.87233947551E+01 0.70838482152E+01 0.56801290734E+01 0.45237570252E+01
 0.36021608124E+01 0.28878196091E+01 0.23480883613E+01 0.19524759498E+01 0.16761926033E+01
 0.15009227701E+01 0.14145386177E+01 0.14108614467E+01 0.14896343170E+01 0.16565039773E+01
 0.19230410351E+01 0.23069953848E+01 0.28325898218E+01 0.35298497512E+01 0.44314073199E+01
 0.55656849569E+01 0.69471956180E+01 0.85669696542E+01 0.10386646990E+02 0.12337232756E+02
 0.14320049098E+02 0.16207584038E+02 0.17843762230E+02 0.19060104424E+02 0.20199134385E+02
 0.19928362947E+02 0.19090033579E+02 0.17763696269E+02 0.16066765302E+02 0.14143887634E+02
 0.12156563103E+02 0.10226074353E+02 0.84345833357E+01 0.68437883071E+01 0.54908581097E+01
 0.43853858813E+01 0.35128080333E+01 0.28437417024E+01 0.23446566201E+01 0.19855921387E+01
 0.17435510650E+01 0.16028295910E+01 0.15542873526E+01 0.15947697400E+01 0.17269147998E+01
 0.19592981520E+01 0.23069953848E+01 0.27923405503E+01 0.34447343376E+01 0.42976001653E+01
 0.53811311051E+01 0.67117859599E+01 0.82824863192E+01 0.10058378098E+02 0.11979500910E+02
 0.13965469083E+02 0.15900466180E+02 0.17623911414E+02 0.18988983670E+02 0.19875292638E+02
 0.19653455997E+02 0.19215941609E+02 0.18346902681E+02 0.17092310809E+02 0.15513867372E+02
 0.13702176538E+02 0.11795444611E+02 0.99412679569E+01 0.82192292045E+01 0.66894166829E+01
 0.53912690526E+01 0.43359413671E+01 0.35089282502E+01 0.28805623278E+01 0.24178897688E+01
 0.20927943227E+01 0.18850551409E+01 0.17820689807E+01 0.17777023915E+01 0.18716557285E+01
 0.20695073735E+01 0.23833102396E+01 0.28325898218E+01 0.34447343376E+01 0.42524744477E+01
 0.52863260305E+01 0.65627586351E+01 0.80731012618E+01 0.97800718584E+01 0.11624878074E+02
 0.13531655586E+02 0.15358249665E+02 0.16962103678E+02 0.18248830201E+02 0.19154776306E+02
 0.19632624016E+02 0.17846974003E+02 0.17513374701E+02 0.16920733606E+02 0.16024278575E+02
 0.14788623934E+02 0.13237160790E+02 0.11491647963E+02 0.97428995260E+01 0.81006781943E+01
 0.66330606344E+01 0.53869114187E+01 0.43772030395E+01 0.35906457248E+01 0.29984026847E+01
 0.25693540316E+01 0.22782386682E+01 0.21080174845E+01 0.20491101547E+01 0.20982616523E+01
 0.22581508503E+01 0.25377791323E+01 0.29535045225E+01 0.35298497512E+01 0.42976001653E+01
 0.52863260305E+01 0.65113762559E+01 0.79606221373E+01 0.95896900356E+01 0.11331618218E+02
 0.13084937275E+02 0.14660401170E+02 0.15926926185E+02 0.16853212096E+02 0.17471348173E+02
 0.17826791256E+02 0.17948893954E+02 0.14904871233E+02 0.15056589464E+02 0.15092053313E+02
 0.14819587835E+02 0.14087620558E+02 0.12870809223E+02 0.11312003117E+02 0.96674894850E+01
 0.80955430258E+01 0.66801978996E+01 0.54780117514E+01 0.45077312157E+01 0.37569889638E+01
 0.31981832994E+01 0.28028939992E+01 0.25492064582E+01 0.24230764133E+01 0.24176424622E+01
 0.25326990619E+01 0.27745337065E+01 0.31563487548E+01 0.36992540152E+01 0.44314073199E+01
 0.53811311051E+01 0.65627586351E+01 0.79606221373E+01 0.95214239391E+01 0.11163312074E+02
 0.12740914442E+02 0.13997105690E+02 0.14774288234E+02 0.15083267230E+02 0.15067601510E+02
 0.14918998180E+02 0.14797954189E+02 0.14791963835E+02 0.11383637519E+02 0.12419977373E+02
 0.13364617138E+02 0.13853687336E+02 0.13645742602E+02 0.12723052986E+02 0.11303687009E+02
 0.97308435388E+01 0.82045624873E+01 0.68261018352E+01 0.56593902055E+01 0.47241602951E+01
 0.40075354566E+01 0.34831462323E+01 0.31256351789E+01 0.29163450098E+01 0.28439165892E+01
 0.29042984601E+01 0.31009266956E+01 0.34444750876E+01 0.39528704078E+01 0.46510025513E+01
 0.55656849569E+01 0.67117859599E+01 0.80731012618E+01 0.95896900356E+01 0.11163312074E+02
 0.12610754576E+02 0.13590418693E+02 0.13865934394E+02 0.13432580427E+02 0.12514861241E+02
 0.11471140727E+02 0.10661848301E+02 0.10342965631E+02 0.10610261892E+02 0.81729144745E+01
 0.10361235418E+02 0.12291324580E+02 0.13463423802E+02 0.13625276129E+02 0.12846682194E+02
 0.11469204781E+02 0.99196415276E+01 0.84121452479E+01 0.70588399682E+01 0.59241868552E+01
 0.50244525812E+01 0.43448656778E+01 0.38603683858E+01 0.35485340522E+01 0.33935885179E+01
 0.33870490740E+01 0.35284321892E+01 0.38254752034E+01 0.42935125466E+01 0.49545797906E+01
 0.58337166750E+01 0.69471956180E+01 0.82824863192E+01 0.97800718584E+01 0.11331618218E+02
 0.12740914442E+02 0.13590418693E+02 0.13520557041E+02 0.12433497567E+02 0.10554008796E+02
 0.83652328699E+01 0.64518354287E+01 0.53218863280E+01 0.52706399920E+01 0.63114868692E+01
 0.62126131798E+01 0.95388861267E+01 0.12242138925E+02 0.13791524529E+02 0.14033895513E+02
 0.13197596986E+02 0.11764708993E+02 0.10198415177E+02 0.86950211819E+01 0.73663199008E+01
 0.62685964828E+01 0.54108400090E+01 0.47760914695E+01 0.43409528532E+01 0.40856533883E+01
 0.39972537863E+01 0.40709761035E+01 0.43108449143E+01 0.47290811445E+01 0.53448860093E+01
 0.61816391322E+01 0.72575862760E+01 0.85669696542E+01 0.10058378098E+02 0.11624878074E+02
 0.13084937275E+02 0.13997105690E+02 0.13865934394E+02 0.12433497567E+02 0.98171855833E+01
 0.65181723636E+01 0.32909558947E+01 0.92323859617E+00 0.72853490442E-02 0.77423907370E+00
 0.30311159209E+01 0.61225759464E+01 0.10229176180E+02 0.13234333200E+02 0.14717500413E+02
 0.14720779110E+02 0.13659526860E+02 0.12123729879E+02 0.10527100585E+02 0.90337344622E+01
 0.77422737339E+01 0.66942688480E+01 0.58902057470E+01 0.53118212724E+01 0.49379497202E+01
 0.47517064520E+01 0.47436476536E+01 0.49135379304E+01 0.52701240412E+01 0.58293679928E+01
 0.66120523558E+01 0.76375019840E+01 0.89080951958E+01 0.10386646990E+02 0.11979500910E+02
 0.13531655586E+02 0.14660401170E+02 0.14774288234E+02 0.13432580427E+02 0.10554008796E+02
 0.65181723636E+01 0.21154838016E+01 -.16536234862E+01 -.38687132978E+01 -.39694812398E+01
 -.19296950122E+01 0.17340673175E+01 0.79320649883E+01 0.12199735310E+02 0.14924450386E+02
 0.15916399554E+02 0.15453135847E+02 0.14107492248E+02 0.12484979294E+02 0.10877347837E+02
 0.94192333112E+01 0.81872790449E+01 0.72066230546E+01 0.64708645141E+01 0.59619785054E+01
 0.56619543848E+01 0.55578597956E+01 0.56446824364E+01 0.59266317539E+01 0.64160262935E+01
 0.71305569917E+01 0.80885836440E+01 0.92982916981E+01 0.10738332551E+02 0.12337232756E+02
 0.13965469083E+02 0.15358249665E+02 0.15926926185E+02 0.15083267230E+02 0.12514861241E+02
 0.83652328699E+01 0.32909558947E+01 -.16536234862E+01 -.52966490303E+01 -.67114675945E+01
 -.55263017337E+01 -.20528523056E+01 0.28216070358E+01 0.11066546010E+02 0.14816144404E+02
 0.16766713138E+02 0.17009703572E+02 0.16026947547E+02 0.14468818860E+02 0.12812764221E+02
 0.11238218803E+02 0.98512355956E+01 0.87044226390E+01 0.78094500194E+01 0.71563882226E+01
 0.67294749142E+01 0.65153445060E+01 0.65062885199E+01 0.67017727305E+01 0.71088300386E+01
 0.77407673140E+01 0.86135407861E+01 0.97378332346E+01 0.11104472183E+02 0.12665479321E+02
 0.14320049098E+02 0.15900466180E+02 0.16962103678E+02 0.16853212096E+02 0.15067601510E+02
 0.11471140727E+02 0.64518354287E+01 0.92323859617E+00 -.38687132978E+01 -.67114675945E+01
 -.68402570131E+01 -.42201093919E+01 0.44145496583E+00 0.59567044365E+01 0.14599768700E+02
 0.17316937371E+02 0.18244496679E+02 0.17722563329E+02 0.16350462278E+02 0.14720554615E+02
 0.13099051636E+02 0.11610573902E+02 0.10330737276E+02 0.92919304646E+01 0.84976715660E+01
 0.79386200986E+01 0.76040402980E+01 0.74868875010E+01 0.75846831171E+01 0.78994107125E+01
 0.84377820018E+01 0.92104241488E+01 0.10227098321E+02 0.11485951664E+02 0.12957954111E+02
 0.14571929915E+02 0.16207584038E+02 0.17623911414E+02 0.18248830201E+02 0.17471348173E+02
 0.14918998180E+02 0.10661848301E+02 0.53218863280E+01 0.72853490442E-02 -.39694812398E+01
 -.55263017337E+01 -.42201093919E+01 -.42404768406E+00 0.48228782819E+01 0.10211042895E+02
 0.17623385641E+02 0.19102462781E+02 0.19053200569E+02 0.17971037031E+02 0.16454199353E+02
 0.14867751899E+02 0.13351637715E+02 0.11996229246E+02 0.10851323918E+02 0.99357858074E+01
 0.92509560064E+01 0.87928158620E+01 0.85588205384E+01 0.85486751179E+01 0.87624636670E+01
 0.92004221122E+01 0.98647334649E+01 0.10759342533E+02 0.11883882434E+02 0.13221797371E+02
 0.14726606982E+02 0.16311659364E+02 0.17843762230E+02 0.18988983670E+02 0.19154776306E+02
 0.17826791256E+02 0.14797954189E+02 0.10342965631E+02 0.52706399920E+01 0.77423907370E+00
 -.19296950122E+01 -.20528523056E+01 0.44145496583E+00 0.48228782819E+01 0.98953942108E+01
 0.14446545939E+02 0.19543732938E+02 0.19904298896E+02 0.19163060431E+02 0.17852934353E+02
 0.16390400675E+02 0.14933433858E+02 0.13579087530E+02 0.12388314201E+02 0.11392675069E+02
 0.10605045147E+02 0.10031202130E+02 0.96775339503E+01 0.95514552558E+01 0.96566780182E+01
 0.99901060888E+01 0.10544447056E+02 0.11313075845E+02 0.12290309233E+02 0.13464354935E+02
 0.14805897141E+02 0.16257066838E+02 0.17724182240E+02 0.19060104424E+02 0.19875292638E+02
 0.19632624016E+02 0.17948893954E+02 0.14791963835E+02 0.10610261892E+02 0.63114868692E+01
 0.30311159209E+01 0.17340673175E+01 0.28216070358E+01 0.59567044365E+01 0.10211042895E+02
 0.14446545939E+02 0.17722022143E+02 0.21375680605E+02 0.20702118489E+02 0.19672714036E+02
 0.18516748811E+02 0.17332581165E+02 0.16188148259E+02 0.15128338893E+02 0.14183754455E+02
 0.13381712086E+02 0.12756196151E+02 0.12349398616E+02 0.12200031197E+02 0.12325026767E+02
 0.12710036283E+02 0.13317573007E+02 0.14105179372E+02 0.15038076268E+02 0.16088641800E+02
 0.17226936912E+02 0.18409755119E+02 0.19571679039E+02 0.20617985181E+02 0.21340462981E+02
 0.21320014481E+02 0.20200057636E+02 0.17887409092E+02 0.14686546185E+02 0.11308793088E+02
 0.86902551382E+01 0.76469065273E+01 0.85220481107E+01 0.11027326249E+02 0.14376391120E+02
 0.17627883782E+02 0.20039511477E+02 0.21268137747E+02 0.20702118489E+02 0.20012671327E+02
 0.19157763690E+02 0.18224610801E+02 0.17272550345E+02 0.16339490460E+02 0.15451045243E+02
 0.14633476322E+02 0.13927275884E+02 0.13392196886E+02 0.13094386994E+02 0.13081235718E+02
 0.13354963780E+02 0.13871219835E+02 0.14564537130E+02 0.15373962240E+02 0.16257264388E+02
 0.17187268583E+02 0.18138792376E+02 0.19075538693E+02 0.19940517013E+02 0.20649741249E+02
 0.21024265212E+02 0.20736624637E+02 0.19560386631E+02 0.17532296822E+02 0.15027625359E+02
 0.12699914767E+02 0.11263775320E+02 0.11197940111E+02 0.12524912352E+02 0.14800306196E+02
 0.17318546874E+02 0.19409802133E+02 0.20668990612E+02 0.21030427991E+02 0.19672714036E+02
 0.19157763690E+02 0.18534308647E+02 0.17848390421E+02 0.17125677767E+02 0.16379628077E+02
 0.15625785367E+02 0.14899413284E+02 0.14261991923E+02 0.13807789401E+02 0.13632755454E+02
 0.13779704568E+02 0.14212326728E+02 0.14837375215E+02 0.15558495368E+02 0.16311657107E+02
 0.17059239277E+02 0.17784501090E+02 0.18474438557E+02 0.19104953293E+02 0.19632105540E+02
 0.19988737530E+02 0.20051452417E+02 0.19599294261E+02 0.18518329565E+02 0.16925035691E+02
 0.15184957627E+02 0.13810520638E+02 0.13258502347E+02 0.13722378516E+02 0.15039060166E+02
 0.16767849389E+02 0.18392356852E+02 0.19527999769E+02 0.20035034834E+02 0.20009805946E+02
 0.18516748811E+02 0.18224610801E+02 0.17848390421E+02 0.17398397538E+02 0.16871672237E+02
 0.16265728966E+02 0.15594501902E+02 0.14901986496E+02 0.14301749704E+02 0.13940837120E+02
 0.13924504875E+02 0.14257717467E+02 0.14842356798E+02 0.15532008995E+02 0.16207661490E+02
 0.16820185413E+02 0.17354076434E+02 0.17810750067E+02 0.18193773307E+02 0.18494335136E+02
 0.18684918934E+02 0.18719397781E+02 0.18532543393E+02 0.18010115887E+02 0.17116482558E+02
 0.15990909890E+02 0.14926973741E+02 0.14263823330E+02 0.14233324982E+02 0.14846383957E+02
 0.15887537758E+02 0.17021121497E+02 0.17944057434E+02 0.18500961391E+02 0.18713155566E+02
 0.18695471909E+02 0.17332581165E+02 0.17272550345E+02 0.17125677767E+02 0.16871672237E+02
 0.16487103715E+02 0.15955886702E+02 0.15288242985E+02 0.14591848252E+02 0.14048464710E+02
 0.13830794994E+02 0.14013738127E+02 0.14534097539E+02 0.15224662134E+02 0.15900664617E+02
 0.16445568179E+02 0.16842531985E+02 0.17107381650E+02 0.17262905578E+02 0.17330264551E+02
 0.17316723125E+02 0.17212133187E+02 0.16992003104E+02 0.16629294512E+02 0.16099385250E+02
 0.15412150160E+02 0.14685643321E+02 0.14115500739E+02 0.13886468815E+02 0.14078559868E+02
 0.14624481221E+02 0.15345511393E+02 0.16042860152E+02 0.16588943669E+02 0.16965676923E+02
 0.17197692481E+02 0.17311525041E+02 0.16188148259E+02 0.16339490460E+02 0.16379628077E+02
 0.16265728966E+02 0.15955886702E+02 0.15416784159E+02 0.14720428458E+02 0.14050760810E+02
 0.13629367604E+02 0.13609921235E+02 0.13999758572E+02 0.14656006480E+02 0.15358737520E+02
 0.15916751972E+02 0.16246629056E+02 0.16376178116E+02 0.16348090374E+02 0.16205030715E+02
 0.15983720082E+02 0.15705469449E+02 0.15374873476E+02 0.14984810652E+02 0.14528871306E+02
 0.14020093030E+02 0.13502275396E+02 0.13055607801E+02 0.12786932243E+02 0.12774437820E+02
 0.13022147901E+02 0.13457388673E+02 0.13973149515E+02 0.14485124567E+02 0.14946725305E+02
 0.15342521415E+02 0.15678121687E+02 0.15961113351E+02 0.15128338893E+02 0.15451045243E+02
 0.15625785367E+02 0.15594501902E+02 0.15288242985E+02 0.14720428458E+02 0.14039142224E+02
 0.13476539335E+02 0.13246211941E+02 0.13439648224E+02 0.13980029400E+02 0.14660894897E+02
 0.15246855073E+02 0.15579124888E+02 0.15632306220E+02 0.15473650542E+02 0.15161772135E+02
 0.14754475196E+02 0.14299297941E+02 0.13826526005E+02 0.13349520153E+02 0.12870904265E+02
 0.12394216160E+02 0.11937713780E+02 0.11542361293E+02 0.11265561539E+02 0.11159925248E+02
 0.11248287247E+02 0.11511684296E+02 0.11899132757E+02 0.12352280427E+02 0.12828086396E+02
 0.13306658491E+02 0.13783862092E+02 0.14257424467E+02 0.14715123711E+02 0.14183754455E+02
 0.14633476322E+02 0.14899413284E+02 0.14901986496E+02 0.14591848252E+02 0.14050760810E+02
 0.13476539335E+02 0.13101238306E+02 0.13083547528E+02 0.13431188721E+02 0.13996903178E+02
 0.14550576014E+02 0.14886931593E+02 0.14911980808E+02 0.14665882491E+02 0.14230021265E+02
 0.13672109156E+02 0.13058141786E+02 0.12439559983E+02 0.11848425269E+02 0.11299418337E+02
 0.10797055009E+02 0.10346282426E+02 0.99623070407E+01 0.96735394832E+01 0.95137668544E+01
 0.95068070295E+01 0.96537493864E+01 0.99323052119E+01 0.10308857137E+02 0.10754178725E+02
 0.11252108946E+02 0.11797190303E+02 0.12385103557E+02 0.13002227000E+02 0.13618301783E+02
 0.13381712086E+02 0.13927275884E+02 0.14261991923E+02 0.14301749704E+02 0.14048464710E+02
 0.13629367604E+02 0.13246211941E+02 0.13083547528E+02 0.13220112054E+02 0.13589961268E+02
 0.14014824919E+02 0.14290076872E+02 0.14278687557E+02 0.13967193923E+02 0.13437521558E+02
 0.12762948072E+02 0.12017183702E+02 0.11266214166E+02 0.10557476639E+02 0.99175033126E+01
 0.93560077981E+01 0.88741621226E+01 0.84741326061E+01 0.81657479927E+01 0.79663579211E+01
 0.78934054433E+01 0.79546241927E+01 0.81433087416E+01 0.84424673443E+01 0.88345226282E+01
 0.93090878122E+01 0.98635718049E+01 0.10496907928E+02 0.11200315483E+02 0.11949029900E+02
 0.12697684134E+02 0.12756196151E+02 0.13392196886E+02 0.13807789401E+02 0.13940837120E+02
 0.13830794994E+02 0.13609921235E+02 0.13439648224E+02 0.13431188721E+02 0.13589961268E+02
 0.13812793271E+02 0.13939459304E+02 0.13831707875E+02 0.13440076150E+02 0.12820337810E+02
 0.12047529421E+02 0.11192619201E+02 0.10327528935E+02 0.95099535904E+01 0.87762719710E+01
 0.81423083403E+01 0.76096696135E+01 0.71746565775E+01 0.68362757603E+01 0.65999420975E+01
 0.64752554922E+01 0.64698115113E+01 0.65839277660E+01 0.68104921219E+01 0.71399674632E+01
 0.75664998434E+01 0.80904483159E+01 0.87153223578E+01 0.94403137123E+01 0.10251371723E+02
 0.11114259334E+02 0.11972977246E+02 0.12349398616E+02 0.13094386994E+02 0.13632755454E+02
 0.13924504875E+02 0.14013738127E+02 0.13999758572E+02 0.13980029400E+02 0.13996903178E+02
 0.14014824919E+02 0.13939459304E+02 0.13669091115E+02 0.13152605497E+02 0.12423053053E+02
 0.11548731124E+02 0.10593160745E+02 0.96264624039E+01 0.87103364027E+01 0.78874750790E+01
 0.71788937638E+01 0.65880529047E+01 0.61088387003E+01 0.57339581302E+01 0.54605746510E+01
 0.52912487180E+01 0.52306726726E+01 0.52812074038E+01 0.54408271220E+01 0.57050019371E+01
 0.60709289986E+01 0.65408036622E+01 0.71214015236E+01 0.78191708394E+01 0.86320878145E+01
 0.95411970472E+01 0.10505714985E+02 0.11465122750E+02 0.12200031197E+02 0.13081235718E+02
 0.13779704568E+02 0.14257717467E+02 0.14534097539E+02 0.14656006480E+02 0.14660894897E+02
 0.14550576014E+02 0.14290076872E+02 0.13831707875E+02 0.13152605497E+02 0.12285262184E+02
 0.11290976310E+02 0.10227550489E+02 0.91602166604E+01 0.81497398267E+01 0.72411427738E+01
 0.64585882570E+01 0.58072435642E+01 0.52800140833E+01 0.48657454833E+01 0.45557124629E+01
 0.43464188425E+01 0.42385631629E+01 0.42338836354E+01 0.43325169656E+01 0.45328382120E+01
 0.48338792878E+01 0.52385455494E+01 0.57550510206E+01 0.63946233389E+01 0.71652424300E+01
 0.80632493993E+01 0.90662214695E+01 0.10130730936E+02 0.11197062836E+02 0.12325026767E+02
 0.13354963780E+02 0.14212326728E+02 0.14842356798E+02 0.15224662134E+02 0.15358737520E+02
 0.15246855073E+02 0.14886931593E+02 0.14278687557E+02 0.13440076150E+02 0.12423053053E+02
 0.11290976310E+02 0.10104415475E+02 0.89270848396E+01 0.78177441512E+01 0.68211239736E+01
 0.59624297187E+01 0.52477030123E+01 0.46692435104E+01 0.42132567912E+01 0.38666119618E+01
 0.36206547843E+01 0.34716670061E+01 0.34190410507E+01 0.34629834504E+01 0.36033906765E+01
 0.38406606414E+01 0.41779724403E+01 0.46234287635E+01 0.51899978135E+01 0.58918959373E+01
 0.67377729911E+01 0.77229277625E+01 0.88237569166E+01 0.99971288914E+01 0.11185392619E+02
 0.12710036283E+02 0.13871219835E+02 0.14837375215E+02 0.15532008995E+02 0.15900664617E+02
 0.15916751972E+02 0.15579124888E+02 0.14911980808E+02 0.13967193923E+02 0.12820337810E+02
 0.11548731124E+02 0.10227550489E+02 0.89270848396E+01 0.77077618566E+01 0.66144154203E+01
 0.56723782734E+01 0.48877963892E+01 0.42523312449E+01 0.37502108642E+01 0.33648747302E+01
 0.30832612369E+01 0.28972372785E+01 0.28028739822E+01 0.27988274444E+01 0.28850605189E+01
 0.30627375692E+01 0.33354213098E+01 0.37108243854E+01 0.42017106909E+01 0.48245615943E+01
 0.55954016311E+01 0.65233706908E+01 0.76038014845E+01 0.88132706293E+01 0.10108714793E+02
 0.11430879299E+02 0.13317573007E+02 0.14564537130E+02 0.15558495368E+02 0.16207661490E+02
 0.16445568179E+02 0.16246629056E+02 0.15632306220E+02 0.14665882491E+02 0.13437521558E+02
 0.12047529421E+02 0.10593160745E+02 0.91602166604E+01 0.78177441512E+01 0.66144154203E+01
 0.55769496369E+01 0.47117327966E+01 0.40098124167E+01 0.34538023594E+01 0.30244199233E+01
 0.27049281680E+01 0.24830638209E+01 0.23510963769E+01 0.23049905451E+01 0.23434754823E+01
 0.24675927535E+01 0.26810447006E+01 0.29912006620E+01 0.34100455534E+01 0.39540820792E+01
 0.46423908630E+01 0.54924978352E+01 0.65143039623E+01 0.77032507809E+01 0.90348066111E+01
 0.10462234832E+02 0.11918007613E+02 0.14105179372E+02 0.15373962240E+02 0.16311657107E+02
 0.16820185413E+02 0.16842531985E+02 0.16376178116E+02 0.15473650542E+02 0.14230021265E+02
 0.12762948072E+02 0.11192619201E+02 0.96264624039E+01 0.81497398267E+01 0.68211239736E+01
 0.56723782734E+01 0.47117327966E+01 0.39301886539E+01 0.33090845569E+01 0.28268784956E+01
 0.24637403399E+01 0.22037444407E+01 0.20353663917E+01 0.19512105459E+01 0.19476140486E+01
 0.20244121089E+01 0.21849427359E+01 0.24362820075E+01 0.27896126563E+01 0.32604635615E+01
 0.38682826512E+01 0.46345073240E+01 0.55783210619E+01 0.67100362810E+01 0.80233678530E+01
 0.94888113884E+01 0.11050036635E+02 0.12624036042E+02 0.15038076268E+02 0.16257264388E+02
 0.17059239277E+02 0.17354076434E+02 0.17107381650E+02 0.16348090374E+02 0.15161772135E+02
 0.13672109156E+02 0.12017183702E+02 0.10327528935E+02 0.87103364027E+01 0.72411427738E+01
 0.59624297187E+01 0.48877963892E+01 0.40098124167E+01 0.33090845569E+01 0.27620768314E+01
 0.23462242554E+01 0.20423487766E+01 0.18353636491E+01 0.17143321233E+01 0.16724923727E+01
 0.17073986325E+01 0.18210634458E+01 0.20199251425E+01 0.23146246151E+01 0.27198162702E+01
 0.32541451029E+01 0.39398509556E+01 0.48006940732E+01 0.58569681562E+01 0.71176215940E+01
 0.85711401979E+01 0.10177681187E+02 0.11864704523E+02 0.13527789876E+02 0.16088641800E+02
 0.17187268583E+02 0.17784501090E+02 0.17810750067E+02 0.17262905578E+02 0.16205030715E+02
 0.14754475196E+02 0.13058141786E+02 0.11266214166E+02 0.95099535904E+01 0.78874750790E+01
 0.64585882570E+01 0.52477030123E+01 0.42523312449E+01 0.34538023594E+01 0.28268784956E+01
 0.23462242554E+01 0.19895241021E+01 0.17383821987E+01 0.15784221681E+01 0.14994891282E+01
 0.14961414811E+01 0.15681263801E+01 0.17204378723E+01 0.19628662965E+01 0.23094073864E+01
 0.27780160194E+01 0.33906382768E+01 0.41725211949E+01 0.51492556501E+01 0.63404617177E+01
 0.77503957616E+01 0.93573727021E+01 0.11105025380E+02 0.12898698093E+02 0.14609685449E+02
 0.17226936912E+02 0.18138792376E+02 0.18474438557E+02 0.18193773307E+02 0.17330264551E+02
 0.15983720082E+02 0.14299297941E+02 0.12439559983E+02 0.10557476639E+02 0.87762719710E+01
 0.71788937638E+01 0.58072435642E+01 0.46692435104E+01 0.37502108642E+01 0.30244199233E+01
 0.24637403399E+01 0.20423487766E+01 0.17383821987E+01 0.15341376543E+01 0.14161384667E+01
 0.13756445067E+01 0.14094226550E+01 0.15201668458E+01 0.17161628458E+01 0.20104768297E+01
 0.24203895285E+01 0.29674050791E+01 0.36771711816E+01 0.45778672223E+01 0.56956146242E+01
 0.70462632782E+01 0.86243219435E+01 0.10391534891E+02 0.12268989539E+02 0.14136770797E+02
 0.15843682208E+02 0.18409755119E+02 0.19075538693E+02 0.19104953293E+02 0.18494335136E+02
 0.17316723125E+02 0.15705469449E+02 0.13826526005E+02 0.11848425269E+02 0.99175033126E+01
 0.81423083403E+01 0.65880529047E+01 0.52800140833E+01 0.42132567912E+01 0.33648747302E+01
 0.27049281680E+01 0.22037444407E+01 0.18353636491E+01 0.15784221681E+01 0.14161384667E+01
 0.13365402568E+01 0.13331649715E+01 0.14057282090E+01 0.15601570846E+01 0.18079517869E+01
 0.21654647481E+01 0.26536619934E+01 0.32981672146E+01 0.41284558537E+01 0.51746107761E+01
 0.64604220762E+01 0.79928855530E+01 0.97500332104E+01 0.11670676515E+02 0.13650093348E+02
 0.15544710318E+02 0.17187018971E+02 0.19571679039E+02 0.19940517013E+02 0.19632105540E+02
 0.18684918934E+02 0.17212133187E+02 0.15374873476E+02 0.13349520153E+02 0.11299418337E+02
 0.93560077981E+01 0.76096696135E+01 0.61088387003E+01 0.48657454833E+01 0.38666119618E+01
 0.30832612369E+01 0.24830638209E+01 0.20353663917E+01 0.17143321233E+01 0.14994891282E+01
 0.13756445067E+01 0.13331649715E+01 0.13685654804E+01 0.14847918472E+01 0.16909146735E+01
 0.20016072672E+01 0.24369181550E+01 0.30222854146E+01 0.37879498154E+01 0.47663920847E+01
 0.59864649607E+01 0.74638570503E+01 0.91893742878E+01 0.11118223074E+02 0.13163713878E+02
 0.15197681804E+02 0.17059015085E+02 0.18571590039E+02 0.20617985181E+02 0.20649741249E+02
 0.19988737530E+02 0.18719397781E+02 0.16992003104E+02 0.14984810652E+02 0.12870904265E+02
 0.10797055009E+02 0.88741621226E+01 0.71746565775E+01 0.57339581302E+01 0.45557124629E+01
 0.36206547843E+01 0.28972372785E+01 0.23510963769E+01 0.19512105459E+01 0.16724923727E+01
 0.14961414811E+01 0.14094226550E+01 0.14057282090E+01 0.14847918472E+01 0.16526613406E+01
 0.19214871069E+01 0.23095188169E+01 0.28413314626E+01 0.35474694637E+01 0.44620774063E+01
 0.56172294257E+01 0.70338426149E+01 0.87109347568E+01 0.10616262269E+02 0.12680683161E+02
 0.14796575490E+02 0.16820159579E+02 0.18580151567E+02 0.19897569750E+02 0.21340462981E+02
 0.21024265212E+02 0.20051452417E+02 0.18532543393E+02 0.16629294512E+02 0.14528871306E+02
 0.12394216160E+02 0.10346282426E+02 0.84741326061E+01 0.68362757603E+01 0.54605746510E+01
 0.43464188425E+01 0.34716670061E+01 0.28028739822E+01 0.23049905451E+01 0.19476140486E+01
 0.17073986325E+01 0.15681263801E+01 0.15201668458E+01 0.15601570846E+01 0.16909146735E+01
 0.19214871069E+01 0.22674700369E+01 0.27515614471E+01 0.34035630551E+01 0.42582481517E+01
 0.53495796028E+01 0.67012988727E+01 0.83164341602E+01 0.10169729771E+02 0.12205152509E+02
 0.14336291009E+02 0.16445457378E+02 0.18374225857E+02 0.19935093140E+02 0.20962588669E+02
 0.21320014481E+02 0.20736624637E+02 0.19599294261E+02 0.18010115887E+02 0.16099385250E+02
 0.14020093030E+02 0.11937713780E+02 0.99623070407E+01 0.81657479927E+01 0.65999420975E+01
 0.52912487180E+01 0.42385631629E+01 0.34190410507E+01 0.27988274444E+01 0.23434754823E+01
 0.20244121089E+01 0.18210634458E+01 0.17204378723E+01 0.17161628458E+01 0.18079517869E+01
 0.20016072672E+01 0.23095188169E+01 0.27515614471E+01 0.33555873475E+01 0.41556581838E+01
 0.51860930269E+01 0.64713166752E+01 0.80148099880E+01 0.97926134538E+01 0.11754669896E+02
 0.13830676801E+02 0.15916548418E+02 0.17848959977E+02 0.19472884859E+02 0.20655743753E+02
 0.21292144906E+02 0.20200057636E+02 0.19560386631E+02 0.18518329565E+02 0.17116482558E+02
 0.15412150160E+02 0.13502275396E+02 0.11542361293E+02 0.96735394832E+01 0.79663579211E+01
 0.64752554922E+01 0.52306726726E+01 0.42338836354E+01 0.34629834504E+01 0.28850605189E+01
 0.24675927535E+01 0.21849427359E+01 0.20199251425E+01 0.19628662965E+01 0.20104768297E+01
 0.21654647481E+01 0.24369181550E+01 0.28413314626E+01 0.34035630551E+01 0.41556581838E+01
 0.51309484023E+01 0.63529401173E+01 0.78227883633E+01 0.95124722501E+01 0.11369145994E+02
 0.13324860375E+02 0.15246374169E+02 0.16974139804E+02 0.18406141951E+02 0.19482539926E+02
 0.20159981083E+02 0.20404128550E+02 0.17887409092E+02 0.17532296822E+02 0.16925035691E+02
 0.15990909890E+02 0.14685643321E+02 0.13055607801E+02 0.11265561539E+02 0.95137668544E+01
 0.78934054433E+01 0.64698115113E+01 0.52812074038E+01 0.43325169656E+01 0.36033906765E+01
 0.30627375692E+01 0.26810447006E+01 0.24362820075E+01 0.23146246151E+01 0.23094073864E+01
 0.24203895285E+01 0.26536619934E+01 0.30222854146E+01 0.35474694637E+01 0.42582481517E+01
 0.51860930269E+01 0.63529401173E+01 0.77565073533E+01 0.93614400477E+01 0.11104217277E+02
 0.12897339737E+02 0.14550230023E+02 0.15888584171E+02 0.16855533910E+02 0.17489362679E+02
 0.17864350074E+02 0.18040868887E+02 0.18048141565E+02 0.14686546185E+02 0.15027625359E+02
 0.15184957627E+02 0.14926973741E+02 0.14115500739E+02 0.12786932243E+02 0.11159925248E+02
 0.95068070295E+01 0.79546241927E+01 0.65839277660E+01 0.54408271220E+01 0.45328382120E+01
 0.38406606414E+01 0.33354213098E+01 0.29912006620E+01 0.27896126563E+01 0.27198162702E+01
 0.27780160194E+01 0.29674050791E+01 0.32981672146E+01 0.37879498154E+01 0.44620774063E+01
 0.53495796028E+01 0.64713166752E+01 0.78227883633E+01 0.93614400477E+01 0.11009193757E+02
 0.12648065097E+02 0.14014983377E+02 0.14877750855E+02 0.15182316542E+02 0.15053561149E+02
 0.14718932539E+02 0.14407565116E+02 0.14277600092E+02 0.14386642641E+02 0.11308793088E+02
 0.12699914767E+02 0.13810520638E+02 0.14263823330E+02 0.13886468815E+02 0.12774437820E+02
 0.11248287247E+02 0.96537493864E+01 0.81433087416E+01 0.68104921219E+01 0.57050019371E+01
 0.48338792878E+01 0.41779724403E+01 0.37108243854E+01 0.34100455534E+01 0.32604635615E+01
 0.32541451029E+01 0.33906382768E+01 0.36771711816E+01 0.41284558537E+01 0.47663920847E+01
 0.56172294257E+01 0.67012988727E+01 0.80148099880E+01 0.95124722501E+01 0.11104217277E+02
 0.12648065097E+02 0.13813051439E+02 0.14264643399E+02 0.13883126968E+02 0.12818550732E+02
 0.11434258526E+02 0.10173653757E+02 0.94173135911E+01 0.93829631541E+01 0.10080174957E+02
 0.86902551382E+01 0.11263775320E+02 0.13258502347E+02 0.14233324982E+02 0.14078559868E+02
 0.13022147901E+02 0.11511684296E+02 0.99323052119E+01 0.84424673443E+01 0.71399674632E+01
 0.60709289986E+01 0.52385455494E+01 0.46234287635E+01 0.42017106909E+01 0.39540820792E+01
 0.38682826512E+01 0.39398509556E+01 0.41725211949E+01 0.45778672223E+01 0.51746107761E+01
 0.59864649607E+01 0.70338426149E+01 0.83164341602E+01 0.97926134538E+01 0.11369145994E+02
 0.12897339737E+02 0.14014983377E+02 0.14264643399E+02 0.13392176637E+02 0.11475398252E+02
 0.89295095613E+01 0.63874676135E+01 0.45066328346E+01 0.37769233374E+01 0.43882236730E+01
 0.61817470117E+01 0.76469065273E+01 0.11197940111E+02 0.13722378516E+02 0.14846383957E+02
 0.14624481221E+02 0.13457388673E+02 0.11899132757E+02 0.10308857137E+02 0.88345226282E+01
 0.75664998434E+01 0.65408036622E+01 0.57550510206E+01 0.51899978135E+01 0.48245615943E+01
 0.46423908630E+01 0.46345073240E+01 0.48006940732E+01 0.51492556501E+01 0.56956146242E+01
 0.64604220762E+01 0.74638570503E+01 0.87109347568E+01 0.10169729771E+02 0.11754669896E+02
 0.13324860375E+02 0.14550230023E+02 0.14877750855E+02 0.13883126968E+02 0.11475398252E+02
 0.79908140210E+01 0.41422336056E+01 0.83052703243E+00 -.11195521197E+01 -.12081169209E+01
 0.58812858807E+00 0.38082951087E+01 0.85220481107E+01 0.12524912352E+02 0.15039060166E+02
 0.15887537758E+02 0.15345511393E+02 0.13973149515E+02 0.12352280427E+02 0.10754178725E+02
 0.93090878122E+01 0.80904483159E+01 0.71214015236E+01 0.63946233389E+01 0.58918959373E+01
 0.55954016311E+01 0.54924978352E+01 0.55783210619E+01 0.58569681562E+01 0.63404617177E+01
 0.70462632782E+01 0.79928855530E+01 0.91893742878E+01 0.10616262269E+02 0.12205152509E+02
 0.13830676801E+02 0.15246374169E+02 0.15888584171E+02 0.15182316542E+02 0.12818550732E+02
 0.89295095613E+01 0.41422336056E+01 -.53538376984E+00 -.39853258243E+01 -.53254545054E+01
 -.42024073821E+01 -.91264436467E+00 0.36992266732E+01 0.11027326249E+02 0.14800306196E+02
 0.16767849389E+02 0.17021121497E+02 0.16042860152E+02 0.14485124567E+02 0.12828086396E+02
 0.11252108946E+02 0.98635718049E+01 0.87153223578E+01 0.78191708394E+01 0.71652424300E+01
 0.67377729911E+01 0.65233706908E+01 0.65143039623E+01 0.67100362810E+01 0.71176215940E+01
 0.77503957616E+01 0.86243219435E+01 0.97500332104E+01 0.11118223074E+02 0.12680683161E+02
 0.14336291009E+02 0.15916548418E+02 0.16974139804E+02 0.16855533910E+02 0.15053561149E+02
 0.11434258526E+02 0.63874676135E+01 0.83052703243E+00 -.39853258243E+01 -.68421337854E+01
 -.69715892049E+01 -.43385350204E+01 0.34624869871E+00 0.58897034945E+01 0.14376391120E+02
 0.17318546874E+02 0.18392356852E+02 0.17944057434E+02 0.16588943669E+02 0.14946725305E+02
 0.13306658491E+02 0.11797190303E+02 0.10496907928E+02 0.94403137123E+01 0.86320878145E+01
 0.80632493993E+01 0.77229277625E+01 0.76038014845E+01 0.77032507809E+01 0.80233678530E+01
 0.85711401979E+01 0.93573727021E+01 0.10391534891E+02 0.11670676515E+02 0.13163713878E+02
 0.14796575490E+02 0.16445457378E+02 0.17848959977E+02 0.18406141951E+02 0.17489362679E+02
 0.14718932539E+02 0.10173653757E+02 0.45066328346E+01 -.11195521197E+01 -.53254545054E+01
 -.69715892049E+01 -.55907694951E+01 -.15762199775E+01 0.39778015174E+01 0.96943408685E+01
 0.17627883782E+02 0.19409802133E+02 0.19527999769E+02 0.18500961391E+02 0.16965676923E+02
 0.15342521415E+02 0.13783862092E+02 0.12385103557E+02 0.11200315483E+02 0.10251371723E+02
 0.95411970472E+01 0.90662214695E+01 0.88237569166E+01 0.88132706293E+01 0.90348066111E+01
 0.94888113884E+01 0.10177681187E+02 0.11105025380E+02 0.12268989539E+02 0.13650093348E+02
 0.15197681804E+02 0.16820159579E+02 0.18374225857E+02 0.19472884859E+02 0.19482539926E+02
 0.17864350074E+02 0.14407565116E+02 0.94173135911E+01 0.37769233374E+01 -.12081169209E+01
 -.42024073821E+01 -.43385350204E+01 -.15762199775E+01 0.32806320826E+01 0.89188424757E+01
 0.14011703664E+02 0.20039511477E+02 0.20668990612E+02 0.20035034834E+02 0.18713155566E+02
 0.17197692481E+02 0.15678121687E+02 0.14257424467E+02 0.13002227000E+02 0.11949029900E+02
 0.11114259334E+02 0.10505714985E+02 0.10130730936E+02 0.99971288914E+01 0.10108714793E+02
 0.10462234832E+02 0.11050036635E+02 0.11864704523E+02 0.12898698093E+02 0.14136770797E+02
 0.15544710318E+02 0.17059015085E+02 0.18580151567E+02 0.19935093140E+02 0.20655743753E+02
 0.20159981083E+02 0.18040868887E+02 0.14277600092E+02 0.93829631541E+01 0.43882236730E+01
 0.58812858807E+00 -.91264436467E+00 0.34624869871E+00 0.39778015174E+01 0.89188424757E+01
 0.13871333777E+02 0.17766022455E+02 0.21268137747E+02 0.21030427991E+02 0.20009805946E+02
 0.18695471909E+02 0.17311525041E+02 0.15961113351E+02 0.14715123711E+02 0.13618301783E+02
 0.12697684134E+02 0.11972977246E+02 0.11465122750E+02 0.11197062836E+02 0.11185392619E+02
 0.11430879299E+02 0.11918007613E+02 0.12624036042E+02 0.13527789876E+02 0.14609685449E+02
 0.15843682208E+02 0.17187018971E+02 0.18571590039E+02 0.19897569750E+02 0.20962588669E+02
 0.21292144906E+02 0.20404128550E+02 0.18048141565E+02 0.14386642641E+02 0.10080174957E+02
 0.61817470117E+01 0.38082951087E+01 0.36992266732E+01 0.58897034945E+01 0.96943408685E+01
 0.14011703664E+02 0.17766022455E+02 0.20253418230E+02 0.22151790429E+02 0.21435289433E+02
 0.20528728703E+02 0.19530418158E+02 0.18502573741E+02 0.17486016145E+02 0.16510177416E+02
 0.15606481426E+02 0.14822306216E+02 0.14224048893E+02 0.13888639119E+02 0.13873775337E+02
 0.14182181717E+02 0.14759865770E+02 0.15530048842E+02 0.16425155583E+02 0.17396008878E+02
 0.18410100835E+02 0.19438234556E+02 0.20441143625E+02 0.21359136920E+02 0.22099882399E+02
 0.22416648093E+02 0.21931582292E+02 0.20402758706E+02 0.17889427894E+02 0.14840160921E+02
 0.12027633696E+02 0.10297527646E+02 0.10217858589E+02 0.11815716334E+02 0.14564079821E+02
 0.17627409463E+02 0.20213295986E+02 0.21838533207E+02 0.22411040085E+02 0.21435289433E+02
 0.20887683129E+02 0.20211285158E+02 0.19455158588E+02 0.18646768624E+02 0.17801687495E+02
 0.16939350905E+02 0.16094828378E+02 0.15338756946E+02 0.14794225644E+02 0.14583392234E+02
 0.14760322114E+02 0.15279304787E+02 0.16021737924E+02 0.16861931370E+02 0.17724204985E+02
 0.18571900177E+02 0.19384239100E+02 0.20145874158E+02 0.20830887228E+02 0.21392614659E+02
 0.21755467114E+02 0.21729234314E+02 0.21045156902E+02 0.19588640129E+02 0.17519853036E+02
 0.15296611999E+02 0.13553360545E+02 0.12855155478E+02 0.13441602883E+02 0.15110889271E+02
 0.17317773682E+02 0.19422915820E+02 0.20945603898E+02 0.21698046286E+02 0.21773800140E+02
 0.20528728703E+02 0.20211285158E+02 0.19785959225E+02 0.19263815213E+02 0.18641499694E+02
 0.17914774823E+02 0.17079896724E+02 0.16197374568E+02 0.15425218895E+02 0.14959352883E+02
 0.14938144826E+02 0.15368216099E+02 0.16120736030E+02 0.17000836646E+02 0.17843861516E+02
 0.18580197765E+02 0.19211911761E+02 0.19742956398E+02 0.20177126472E+02 0.20505049754E+02
 0.20696653359E+02 0.20699675590E+02 0.20401848815E+02 0.19641957217E+02 0.18399270161E+02
 0.16870811088E+02 0.15444017547E+02 0.14560054942E+02 0.14519536078E+02 0.15336631591E+02
 0.16731988595E+02 0.18269043186E+02 0.19548681206E+02 0.20354152746E+02 0.20688195944E+02
 0.20705944603E+02 0.19530418158E+02 0.19455158588E+02 0.19263815213E+02 0.18933124611E+02
 0.18430177861E+02 0.17701109548E+02 0.16769721290E+02 0.15798857013E+02 0.15043718676E+02
 0.14741751442E+02 0.14995309633E+02 0.15718198663E+02 0.16680754674E+02 0.17624207833E+02
 0.18374365373E+02 0.18895350698E+02 0.19240037320E+02 0.19442869987E+02 0.19528056341E+02
 0.19503838934E+02 0.19358736660E+02 0.19064654881E+02 0.18579767824E+02 0.17838536979E+02
 0.16869949597E+02 0.15850955042E+02 0.15055373921E+02 0.14736745492E+02 0.15004145602E+02
 0.15765753157E+02 0.16776496602E+02 0.17758983807E+02 0.18524220987E+02 0.19029892746E+02
 0.19339054278E+02 0.19496147890E+02 0.18502573741E+02 0.18646768624E+02 0.18641499694E+02
 0.18430177861E+02 0.17913160396E+02 0.17053433299E+02 0.15979214821E+02 0.14966309175E+02
 0.14335326569E+02 0.14306166230E+02 0.14889364371E+02 0.15880678612E+02 0.16962406392E+02
 0.17849250467E+02 0.18397643961E+02 0.18631719416E+02 0.18652905431E+02 0.18520296951E+02
 0.18276552492E+02 0.17946299912E+02 0.17535519961E+02 0.17037446421E+02 0.16446948273E+02
 0.15772596577E+02 0.15060176820E+02 0.14434852223E+02 0.14056496912E+02 0.14039052467E+02
 0.14388084384E+02 0.14997632813E+02 0.15708514967E+02 0.16389531740E+02 0.16988181357E+02
 0.17494576804E+02 0.17912800460E+02 0.18250279304E+02 0.17486016145E+02 0.17801687495E+02
 0.17914774823E+02 0.17701109548E+02 0.17053433299E+02 0.16030550996E+02 0.14878118665E+02
 0.13953817685E+02 0.13579899501E+02 0.13893538464E+02 0.14779682915E+02 0.15927203655E+02
 0.16974500495E+02 0.17661198231E+02 0.17911285236E+02 0.17821203343E+02 0.17520564016E+02
 0.17082957601E+02 0.16565007935E+02 0.16003577150E+02 0.15417030267E+02 0.14812450710E+02
 0.14199069688E+02 0.13604850407E+02 0.13086006094E+02 0.12718405821E+02 0.12576812539E+02
 0.12695237815E+02 0.13045316757E+02 0.13554158882E+02 0.14144476866E+02 0.14757591765E+02
 0.15363403427E+02 0.15951845325E+02 0.16516158537E+02 0.17039218333E+02 0.16510177416E+02
 0.16939350905E+02 0.17079896724E+02 0.16769721290E+02 0.15979214821E+02 0.14878118665E+02
 0.13800063164E+02 0.13119080191E+02 0.13087236087E+02 0.13716766579E+02 0.14773982897E+02
 0.15888837812E+02 0.16717432743E+02 0.17072345532E+02 0.16966500273E+02 0.16556994892E+02
 0.15969829517E+02 0.15286467566E+02 0.14570798423E+02 0.13864887911E+02 0.13191501861E+02
 0.12562022895E+02 0.11988394611E+02 0.11494730203E+02 0.11121025790E+02 0.10913375958E+02
 0.10904117505E+02 0.11094923217E+02 0.11455740126E+02 0.11940587501E+02 0.12508154416E+02
 0.13133046259E+02 0.13802868445E+02 0.14506657535E+02 0.15222860007E+02 0.15911313575E+02
 0.15606481426E+02 0.16094828378E+02 0.16197374568E+02 0.15798857013E+02 0.14966309175E+02
 0.13953817685E+02 0.13119080191E+02 0.12778026241E+02 0.13063910470E+02 0.13865204102E+02
 0.14877305586E+02 0.15739274477E+02 0.16182677534E+02 0.16122681916E+02 0.15661111517E+02
 0.14970806656E+02 0.14157043188E+02 0.13303871254E+02 0.12474062858E+02 0.11706404459E+02
 0.11019818542E+02 0.10422191621E+02 0.99212080687E+01 0.95325614490E+01 0.92802820952E+01
 0.91877740263E+01 0.92653751214E+01 0.95042073612E+01 0.98815017931E+01 0.10372940721E+02
 0.10962175399E+02 0.11641129148E+02 0.12402199765E+02 0.13227666588E+02 0.14080816784E+02
 0.14901235967E+02 0.14822306216E+02 0.15338756946E+02 0.15425218895E+02 0.15043718676E+02
 0.14335326569E+02 0.13579899501E+02 0.13087236087E+02 0.13063910470E+02 0.13519910133E+02
 0.14263881939E+02 0.14989736037E+02 0.15409265297E+02 0.15365956078E+02 0.14882306779E+02
 0.14118084249E+02 0.13206111863E+02 0.12239892846E+02 0.11297178107E+02 0.10430944577E+02
 0.96692211320E+01 0.90214805793E+01 0.84885389145E+01 0.80722510736E+01 0.77807950930E+01
 0.76268308006E+01 0.76202078370E+01 0.77613033567E+01 0.80407967682E+01 0.84460628914E+01
 0.89685675099E+01 0.96060938973E+01 0.10357943619E+02 0.11215653569E+02 0.12153188690E+02
 0.13120082965E+02 0.14040664456E+02 0.14224048893E+02 0.14794225644E+02 0.14959352883E+02
 0.14741751442E+02 0.14306166230E+02 0.13893538464E+02 0.13716766579E+02 0.13865204102E+02
 0.14263881939E+02 0.14707729211E+02 0.14953722632E+02 0.14826481431E+02 0.14289609402E+02
 0.13452496842E+02 0.12456763552E+02 0.11396464317E+02 0.10355548555E+02 0.93968453420E+01
 0.85567066683E+01 0.78482768015E+01 0.72702079273E+01 0.68168653361E+01 0.64860059941E+01
 0.62810169440E+01 0.62076762376E+01 0.62688967569E+01 0.64621665349E+01 0.67818605881E+01
 0.72243081264E+01 0.77911656799E+01 0.84877827992E+01 0.93162249773E+01 0.10265235656E+02
 0.11300959699E+02 0.12362803725E+02 0.13368060812E+02 0.13888639119E+02 0.14583392234E+02
 0.14938144826E+02 0.14995309633E+02 0.14889364371E+02 0.14779682915E+02 0.14773982897E+02
 0.14877305586E+02 0.14989736037E+02 0.14953722632E+02 0.14629416872E+02 0.13964019505E+02
 0.13023507552E+02 0.11933955457E+02 0.10783119847E+02 0.96522540426E+01 0.86077387329E+01
 0.76913326110E+01 0.69197833112E+01 0.62916070258E+01 0.57970090764E+01 0.54267503607E+01
 0.51768223842E+01 0.50480356740E+01 0.50424365161E+01 0.51601281885E+01 0.53991992552E+01
 0.57586918047E+01 0.62420545719E+01 0.68579118535E+01 0.76161757357E+01 0.85196809565E+01
 0.95539413550E+01 0.10679533539E+02 0.11831785084E+02 0.12930088282E+02 0.13873775337E+02
 0.14760322114E+02 0.15368216099E+02 0.15718198663E+02 0.15880678612E+02 0.15927203655E+02
 0.15888837812E+02 0.15739274477E+02 0.15409265297E+02 0.14826481431E+02 0.13964019505E+02
 0.12874636318E+02 0.11663736754E+02 0.10409049321E+02 0.91845204329E+01 0.80544608790E+01
 0.70621197626E+01 0.62262587219E+01 0.55456210058E+01 0.50079030814E+01 0.45989151619E+01
 0.43086010912E+01 0.41326188781E+01 0.40704288830E+01 0.41223590471E+01 0.42881638277E+01
 0.45681866343E+01 0.49662300159E+01 0.54917475241E+01 0.61587725689E+01 0.69802830527E+01
 0.79590290117E+01 0.90782213758E+01 0.10296614835E+02 0.11551424925E+02 0.12769176205E+02
 0.14182181717E+02 0.15279304787E+02 0.16120736030E+02 0.16680754674E+02 0.16962406392E+02
 0.16974500495E+02 0.16717432743E+02 0.16182677534E+02 0.15365956078E+02 0.14289609402E+02
 0.13023507552E+02 0.11663736754E+02 0.10283082298E+02 0.89506613968E+01 0.77267130368E+01
 0.66529987811E+01 0.57483391470E+01 0.50112067808E+01 0.44274163637E+01 0.39790208358E+01
 0.36509571981E+01 0.34338624340E+01 0.33235354569E+01 0.33187914506E+01 0.34196445374E+01
 0.36271253748E+01 0.39449333836E+01 0.43818019292E+01 0.49524380915E+01 0.56749742902E+01
 0.65643751054E+01 0.76235109533E+01 0.88353816089E+01 0.10160197663E+02 0.11539224554E+02
 0.12903846939E+02 0.14759865770E+02 0.16021737924E+02 0.17000836646E+02 0.17624207833E+02
 0.17849250467E+02 0.17661198231E+02 0.17072345532E+02 0.16122681916E+02 0.14882306779E+02
 0.13452496842E+02 0.11933955457E+02 0.10409049321E+02 0.89506613968E+01 0.76181252966E+01
 0.64515369533E+01 0.54686710496E+01 0.46671261718E+01 0.40310605221E+01 0.35395266415E+01
 0.31732501362E+01 0.29181814022E+01 0.27659739462E+01 0.27126815863E+01 0.27571730076E+01
 0.29003832672E+01 0.31459012729E+01 0.35015879423E+01 0.39810458016E+01 0.46032839969E+01
 0.53893117236E+01 0.63556141097E+01 0.75060363439E+01 0.88248793882E+01 0.10274137273E+02
 0.11795983735E+02 0.13318406993E+02 0.15530048842E+02 0.16861931370E+02 0.17843861516E+02
 0.18374365373E+02 0.18397643961E+02 0.17911285236E+02 0.16966500273E+02 0.15661111517E+02
 0.14118084249E+02 0.12456763552E+02 0.10783119847E+02 0.91845204329E+01 0.77267130368E+01
 0.64515369533E+01 0.53766005405E+01 0.44986250069E+01 0.38002469824E+01 0.32580672702E+01
 0.28493329553E+01 0.25557979855E+01 0.23648677196E+01 0.22690670236E+01 0.22649721251E+01
 0.23524280829E+01 0.25345118236E+01 0.28183004570E+01 0.32159868015E+01 0.37454188856E+01
 0.44289924280E+01 0.52900716125E+01 0.63467723566E+01 0.76041024571E+01 0.90467579967E+01
 0.10635127655E+02 0.12305342825E+02 0.13971762137E+02 0.16425155583E+02 0.17724204985E+02
 0.18580197765E+02 0.18895350698E+02 0.18631719416E+02 0.17821203343E+02 0.16556994892E+02
 0.14970806656E+02 0.13206111863E+02 0.11396464317E+02 0.96522540426E+01 0.80544608790E+01
 0.66529987811E+01 0.54686710496E+01 0.44986250069E+01 0.37244133372E+01 0.31205577323E+01
 0.26613853071E+01 0.23250335385E+01 0.20949173491E+01 0.19597043021E+01 0.19128008667E+01
 0.19519265783E+01 0.20789715473E+01 0.23001484235E+01 0.26263837156E+01 0.30737805095E+01
 0.36636872251E+01 0.44214660041E+01 0.53728495708E+01 0.65373605753E+01 0.79197104611E+01
 0.95014731428E+01 0.11235372092E+02 0.13043162340E+02 0.14817017094E+02 0.17396008878E+02
 0.18571900177E+02 0.19211911761E+02 0.19240037320E+02 0.18652905431E+02 0.17520564016E+02
 0.15969829517E+02 0.14157043188E+02 0.12239892846E+02 0.10355548555E+02 0.86077387329E+01
 0.70621197626E+01 0.57483391470E+01 0.46671261718E+01 0.38002469824E+01 0.31205577323E+01
 0.25997331712E+01 0.22126817265E+01 0.19392087969E+01 0.17642125794E+01 0.16775118911E+01
 0.16738254877E+01 0.17529067535E+01 0.19196026059E+01 0.21837217645E+01 0.25599081677E+01
 0.30677624693E+01 0.37318702788E+01 0.45804894798E+01 0.56413497146E+01 0.69339669785E+01
 0.84596185782E+01 0.10191428709E+02 0.12067127302E+02 0.13986459327E+02 0.15814969272E+02
 0.18410100835E+02 0.19384239100E+02 0.19742956398E+02 0.19442869987E+02 0.18520296951E+02
 0.17082957601E+02 0.15286467566E+02 0.13303871254E+02 0.11297178107E+02 0.93968453420E+01
 0.76913326110E+01 0.62262587219E+01 0.50112067808E+01 0.40310605221E+01 0.32580672702E+01
 0.26613853071E+01 0.22126817265E+01 0.18883099662E+01 0.16696169933E+01 0.15428242469E+01
 0.14992140537E+01 0.15355984497E+01 0.16546206506E+01 0.18645482034E+01 0.21787406467E+01
 0.26153560014E+01 0.31975296819E+01 0.39532799721E+01 0.49135279693E+01 0.61066724199E+01
 0.75493158185E+01 0.92344842533E+01 0.11120217819E+02 0.13122125488E+02 0.15113257901E+02
 0.16933642944E+02 0.19438234556E+02 0.20145874158E+02 0.20177126472E+02 0.19528056341E+02
 0.18276552492E+02 0.16565007935E+02 0.14570798423E+02 0.12474062858E+02 0.10430944577E+02
 0.85567066683E+01 0.69197833112E+01 0.55456210058E+01 0.44274163637E+01 0.35395266415E+01
 0.28493329553E+01 0.23250335385E+01 0.19392087969E+01 0.16696169933E+01 0.14990145476E+01
 0.14152135341E+01 0.14116623619E+01 0.14880688852E+01 0.16504400894E+01 0.19104787124E+01
 0.22849556209E+01 0.27956557549E+01 0.34696357287E+01 0.43385045088E+01 0.54350022953E+01
 0.67856099666E+01 0.83992433777E+01 0.10254020799E+02 0.12285920416E+02 0.14383830477E+02
 0.16394522576E+02 0.18138906183E+02 0.20441143625E+02 0.20830887228E+02 0.20505049754E+02
 0.19503838934E+02 0.17946299912E+02 0.16003577150E+02 0.13864887911E+02 0.11706404459E+02
 0.96692211320E+01 0.78482768015E+01 0.62916070258E+01 0.50079030814E+01 0.39790208358E+01
 0.31732501362E+01 0.25557979855E+01 0.20949173491E+01 0.17642125794E+01 0.15428242469E+01
 0.14152135341E+01 0.13714590129E+01 0.14079362789E+01 0.15276862792E+01 0.17400806910E+01
 0.20601525688E+01 0.25082878132E+01 0.31104295164E+01 0.38979346455E+01 0.49054608347E+01
 0.61652446897E+01 0.76971062153E+01 0.94954017259E+01 0.11516196093E+02 0.13668927345E+02
 0.15816256637E+02 0.17784320937E+02 0.19383961878E+02 0.21359136920E+02 0.21392614659E+02
 0.20696653359E+02 0.19358736660E+02 0.17535519961E+02 0.15417030267E+02 0.13191501861E+02
 0.11019818542E+02 0.90214805793E+01 0.72702079273E+01 0.57970090764E+01 0.45989151619E+01
 0.36509571981E+01 0.29181814022E+01 0.23648677196E+01 0.19597043021E+01 0.16775118911E+01
 0.14992140537E+01 0.14116623619E+01 0.14079362789E+01 0.14877512862E+01 0.16574450431E+01
 0.19295888988E+01 0.23227386887E+01 0.28615756824E+01 0.35768797392E+01 0.45039937395E+01
 0.56781672379E+01 0.71258384868E+01 0.88526749933E+01 0.10831210249E+02 0.12991645689E+02
 0.15218400071E+02 0.17353923991E+02 0.19211684810E+02 0.20600509515E+02 0.22099882399E+02
 0.21755467114E+02 0.20699675590E+02 0.19064654881E+02 0.17037446421E+02 0.14812450710E+02
 0.12562022895E+02 0.10422191621E+02 0.84885389145E+01 0.68168653361E+01 0.54267503607E+01
 0.43086010912E+01 0.34338624340E+01 0.27659739462E+01 0.22690670236E+01 0.19128008667E+01
 0.16738254877E+01 0.15355984497E+01 0.14880688852E+01 0.15276862792E+01 0.16574450431E+01
 0.18867879106E+01 0.22316347223E+01 0.27147416915E+01 0.33658760301E+01 0.42204768883E+01
 0.53152482716E+01 0.66799540564E+01 0.83265329314E+01 0.10238454823E+02 0.12363220060E+02
 0.14608719331E+02 0.16842530317E+02 0.18895334890E+02 0.20573823944E+02 0.21688302212E+02
 0.22416648093E+02 0.21729234314E+02 0.20401848815E+02 0.18579767824E+02 0.16446948273E+02
 0.14199069688E+02 0.11988394611E+02 0.99212080687E+01 0.80722510736E+01 0.64860059941E+01
 0.51768223842E+01 0.41326188781E+01 0.33235354569E+01 0.27126815863E+01 0.22649721251E+01
 0.19519265783E+01 0.17529067535E+01 0.16546206506E+01 0.16504400894E+01 0.17400806910E+01
 0.19295888988E+01 0.22316347223E+01 0.26661719840E+01 0.32609774128E+01 0.40506403636E+01
 0.50721947425E+01 0.63566608342E+01 0.79182433861E+01 0.97451599237E+01 0.11795455244E+02
 0.13996962646E+02 0.16246546607E+02 0.18397522465E+02 0.20255662958E+02 0.21634441254E+02
 0.22383789959E+02 0.21931582292E+02 0.21045156902E+02 0.19641957217E+02 0.17838536979E+02
 0.15772596577E+02 0.13604850407E+02 0.11494730203E+02 0.95325614490E+01 0.77807950930E+01
 0.62810169440E+01 0.50480356740E+01 0.40704288830E+01 0.33187914506E+01 0.27571730076E+01
 0.23524280829E+01 0.20789715473E+01 0.19196026059E+01 0.18645482034E+01 0.19104787124E+01
 0.20601525688E+01 0.23227386887E+01 0.27147416915E+01 0.32609774128E+01 0.39940034867E+01
 0.49498392597E+01 0.61590147725E+01 0.76350661014E+01 0.93656553996E+01 0.11311262574E+02
 0.13410931791E+02 0.15578946983E+02 0.17660895283E+02 0.19493990526E+02 0.20938544569E+02
 0.21875597340E+02 0.22218106952E+02 0.20402758706E+02 0.19588640129E+02 0.18399270161E+02
 0.16869949597E+02 0.15060176820E+02 0.13086006094E+02 0.11121025790E+02 0.92802820952E+01
 0.76268308006E+01 0.62076762376E+01 0.50424365161E+01 0.41223590471E+01 0.34196445374E+01
 0.29003832672E+01 0.25345118236E+01 0.23001484235E+01 0.21837217645E+01 0.21787406467E+01
 0.22849556209E+01 0.25082878132E+01 0.28615756824E+01 0.33658760301E+01 0.40506403636E+01
 0.49498392597E+01 0.60923711031E+01 0.74891070325E+01 0.91230048581E+01 0.10949146540E+02
 0.12905778461E+02 0.14886579592E+02 0.16717078081E+02 0.18274896006E+02 0.19496579164E+02
 0.20345787023E+02 0.20791428870E+02 0.20810790771E+02 0.17889427894E+02 0.17519853036E+02
 0.16870811088E+02 0.15850955042E+02 0.14434852223E+02 0.12718405821E+02 0.10913375958E+02
 0.91877740263E+01 0.76202078370E+01 0.62688967569E+01 0.51601281885E+01 0.42881638277E+01
 0.36271253748E+01 0.31459012729E+01 0.28183004570E+01 0.26263837156E+01 0.25599081677E+01
 0.26153560014E+01 0.27956557549E+01 0.31104295164E+01 0.35768797392E+01 0.42204768883E+01
 0.50721947425E+01 0.61590147725E+01 0.74891070325E+01 0.90391908736E+01 0.10753389610E+02
 0.12555531764E+02 0.14289766685E+02 0.15739114435E+02 0.16795503138E+02 0.17474844233E+02
 0.17865350686E+02 0.18061263163E+02 0.18123255358E+02 0.18071617498E+02 0.14840160921E+02
 0.15296611999E+02 0.15444017547E+02 0.15055373921E+02 0.14056496912E+02 0.12576812539E+02
 0.10904117505E+02 0.92653751214E+01 0.77613033567E+01 0.64621665349E+01 0.53991992552E+01
 0.45681866343E+01 0.39449333836E+01 0.35015879423E+01 0.32159868015E+01 0.30737805095E+01
 0.30677624693E+01 0.31975296819E+01 0.34696357287E+01 0.38979346455E+01 0.45039937395E+01
 0.53152482716E+01 0.63566608342E+01 0.76350661014E+01 0.91230048581E+01 0.10753389610E+02
 0.12429177630E+02 0.13939475553E+02 0.14990118253E+02 0.15433910471E+02 0.15327260148E+02
 0.14887108483E+02 0.14389371484E+02 0.14067809013E+02 0.14052906653E+02 0.14350271152E+02
 0.12027633696E+02 0.13553360545E+02 0.14560054942E+02 0.14736745492E+02 0.14039052467E+02
 0.12695237815E+02 0.11094923217E+02 0.95042073612E+01 0.80407967682E+01 0.67818605881E+01
 0.57586918047E+01 0.49662300159E+01 0.43818019292E+01 0.39810458016E+01 0.37454188856E+01
 0.36636872251E+01 0.37318702788E+01 0.39532799721E+01 0.43385045088E+01 0.49054608347E+01
 0.56781672379E+01 0.66799540564E+01 0.79182433861E+01 0.93656553996E+01 0.10949146540E+02
 0.12555531764E+02 0.13939475553E+02 0.14708433685E+02 0.14613128678E+02 0.13671826419E+02
 0.12174725880E+02 0.10583192959E+02 0.93751094306E+01 0.89020433859E+01 0.92987220362E+01
 0.10452202458E+02 0.10297527646E+02 0.12855155478E+02 0.14519536078E+02 0.15004145602E+02
 0.14388084384E+02 0.13045316757E+02 0.11455740126E+02 0.98815017931E+01 0.84460628914E+01
 0.72243081264E+01 0.62420545719E+01 0.54917475241E+01 0.49524380915E+01 0.46032839969E+01
 0.44289924280E+01 0.44214660041E+01 0.45804894798E+01 0.49135279693E+01 0.54350022953E+01
 0.61652446897E+01 0.71258384868E+01 0.83265329314E+01 0.97451599237E+01 0.11311262574E+02
 0.12905778461E+02 0.14289766685E+02 0.14990118253E+02 0.14613128678E+02 0.13048302578E+02
 0.10550102325E+02 0.76895816168E+01 0.51901573791E+01 0.37092163564E+01 0.36420828118E+01
 0.50069040366E+01 0.74391649321E+01 0.10217858589E+02 0.13441602883E+02 0.15336631591E+02
 0.15765753157E+02 0.14997632813E+02 0.13554158882E+02 0.11940587501E+02 0.10372940721E+02
 0.89685675099E+01 0.77911656799E+01 0.68579118535E+01 0.61587725689E+01 0.56749742902E+01
 0.53893117236E+01 0.52900716125E+01 0.53728495708E+01 0.56413497146E+01 0.61066724199E+01
 0.67856099666E+01 0.76971062153E+01 0.88526749933E+01 0.10238454823E+02 0.11795455244E+02
 0.13410931791E+02 0.14886579592E+02 0.15739114435E+02 0.15433910471E+02 0.13671826419E+02
 0.10550102325E+02 0.66064951039E+01 0.27111266127E+01 -.17498202465E+00 -.12977856237E+01
 -.35634710186E+00 0.23967393751E+01 0.62396869529E+01 0.11815716334E+02 0.15110889271E+02
 0.16731988595E+02 0.16776496602E+02 0.15708514967E+02 0.14144476866E+02 0.12508154416E+02
 0.10962175399E+02 0.96060938973E+01 0.84877827992E+01 0.76161757357E+01 0.69802830527E+01
 0.65643751054E+01 0.63556141097E+01 0.63467723566E+01 0.65373605753E+01 0.69339669785E+01
 0.75493158185E+01 0.83992433777E+01 0.94954017259E+01 0.10831210249E+02 0.12363220060E+02
 0.13996962646E+02 0.15578946983E+02 0.16717078081E+02 0.16795503138E+02 0.15327260148E+02
 0.12174725880E+02 0.76895816168E+01 0.27111266127E+01 -.16177972882E+01 -.41888889860E+01
 -.43051449011E+01 -.19348552591E+01 0.22770900433E+01 0.72454138700E+01 0.14564079821E+02
 0.17317773682E+02 0.18269043186E+02 0.17758983807E+02 0.16389531740E+02 0.14757591765E+02
 0.13133046259E+02 0.11641129148E+02 0.10357943619E+02 0.93162249773E+01 0.85196809565E+01
 0.79590290117E+01 0.76235109533E+01 0.75060363439E+01 0.76041024571E+01 0.79197104611E+01
 0.84596185782E+01 0.92344842533E+01 0.10254020799E+02 0.11516196093E+02 0.12991645689E+02
 0.14608719331E+02 0.16246546607E+02 0.17660895283E+02 0.18274896006E+02 0.17474844233E+02
 0.14887108483E+02 0.10583192959E+02 0.51901573791E+01 -.17498202465E+00 -.41888889860E+01
 -.57601685933E+01 -.44418695878E+01 -.61039613134E+00 0.46863122849E+01 0.10127741779E+02
 0.17627409463E+02 0.19422915820E+02 0.19548681206E+02 0.18524220987E+02 0.16988181357E+02
 0.15363403427E+02 0.13802868445E+02 0.12402199765E+02 0.11215653569E+02 0.10265235656E+02
 0.95539413550E+01 0.90782213758E+01 0.88353816089E+01 0.88248793882E+01 0.90467579967E+01
 0.95014731428E+01 0.10191428709E+02 0.11120217819E+02 0.12285920416E+02 0.13668927345E+02
 0.15218400071E+02 0.16842530317E+02 0.18397522465E+02 0.19493990526E+02 0.19496579164E+02
 0.17865350686E+02 0.14389371484E+02 0.93751094306E+01 0.37092163564E+01 -.12977856237E+01
 -.43051449011E+01 -.44418695878E+01 -.16675022251E+01 0.32107348105E+01 0.88743676418E+01
 0.13991537202E+02 0.20213295986E+02 0.20945603898E+02 0.20354152746E+02 0.19029892746E+02
 0.17494576804E+02 0.15951845325E+02 0.14506657535E+02 0.13227666588E+02 0.12153188690E+02
 0.11300959699E+02 0.10679533539E+02 0.10296614835E+02 0.10160197663E+02 0.10274137273E+02
 0.10635127655E+02 0.11235372092E+02 0.12067127302E+02 0.13122125488E+02 0.14383830477E+02
 0.15816256637E+02 0.17353923991E+02 0.18895334890E+02 0.20255662958E+02 0.20938544569E+02
 0.20345787023E+02 0.18061263163E+02 0.14067809013E+02 0.89020433859E+01 0.36420828118E+01
 -.35634710186E+00 -.19348552591E+01 -.61039613134E+00 0.32107348105E+01 0.84135053693E+01
 0.13638641547E+02 0.17768320788E+02 0.21838533207E+02 0.21698046286E+02 0.20688195944E+02
 0.19339054278E+02 0.17912800460E+02 0.16516158537E+02 0.15222860007E+02 0.14080816784E+02
 0.13120082965E+02 0.12362803725E+02 0.11831785084E+02 0.11551424925E+02 0.11539224554E+02
 0.11795983735E+02 0.12305342825E+02 0.13043162340E+02 0.13986459327E+02 0.15113257901E+02
 0.16394522576E+02 0.17784320937E+02 0.19211684810E+02 0.20573823944E+02 0.21634441254E+02
 0.21875597340E+02 0.20791428870E+02 0.18123255358E+02 0.14052906653E+02 0.92987220362E+01
 0.50069040366E+01 0.23967393751E+01 0.22770900433E+01 0.46863122849E+01 0.88743676418E+01
 0.13638641547E+02 0.17808041043E+02 0.20617396523E+02 0.22411040085E+02 0.21773800140E+02
 0.20705944603E+02 0.19496147890E+02 0.18250279304E+02 0.17039218333E+02 0.15911313575E+02
 0.14901235967E+02 0.14040664456E+02 0.13368060812E+02 0.12930088282E+02 0.12769176205E+02
 0.12903846939E+02 0.13318406993E+02 0.13971762137E+02 0.14817017094E+02 0.15814969272E+02
 0.16933642944E+02 0.18138906183E+02 0.19383961878E+02 0.20600509515E+02 0.21688302212E+02
 0.22383789959E+02 0.22218106952E+02 0.20810790771E+02 0.18071617498E+02 0.14350271152E+02
 0.10452202458E+02 0.74391649321E+01 0.62396869529E+01 0.72454138700E+01 0.10127741779E+02
 0.13991537202E+02 0.17768320788E+02 0.20617396523E+02 0.22146265519E+02 0.22604838418E+02
 0.22032323974E+02 0.21319663917E+02 0.20517098172E+02 0.19652450482E+02 0.18742105611E+02
 0.17806500354E+02 0.16876027072E+02 0.16033805270E+02 0.15423802627E+02 0.15186947233E+02
 0.15385457975E+02 0.15966976288E+02 0.16794727519E+02 0.17721755612E+02 0.18658293896E+02
 0.19571938708E+02 0.20441423212E+02 0.21250457689E+02 0.21972706934E+02 0.22560487198E+02
 0.22927815829E+02 0.22833247687E+02 0.21983107531E+02 0.20262077264E+02 0.17859612388E+02
 0.15296970589E+02 0.13294004866E+02 0.12492522366E+02 0.13165151081E+02 0.15082626527E+02
 0.17625570433E+02 0.20068237756E+02 0.21863483282E+02 0.22791199591E+02 0.22943491615E+02
 0.22032323974E+02 0.21694402286E+02 0.21232855005E+02 0.20658308958E+02 0.19966164896E+02
 0.19142018427E+02 0.18168540253E+02 0.17127106490E+02 0.16211919228E+02 0.15658799221E+02
 0.15633363765E+02 0.16143736211E+02 0.17035944281E+02 0.18075430920E+02 0.19060126125E+02
 0.19897567447E+02 0.20600671164E+02 0.21185724051E+02 0.21657647509E+02 0.22007487266E+02
 0.22203774557E+02 0.22185441052E+02 0.21788844927E+02 0.20830400235E+02 0.19301525523E+02
 0.17444859054E+02 0.15722884803E+02 0.14659260114E+02 0.14610549908E+02 0.15593539149E+02
 0.17276861838E+02 0.19142453745E+02 0.20714421485E+02 0.21727380603E+02 0.22169020973E+02
 0.22212595967E+02 0.21319663917E+02 0.21232855005E+02 0.21008017115E+02 0.20618493021E+02
 0.20004913296E+02 0.19086626927E+02 0.17909129804E+02 0.16684799292E+02 0.15734830371E+02
 0.15355294938E+02 0.15673603434E+02 0.16582716031E+02 0.17796397101E+02 0.18989216520E+02
 0.19935123620E+02 0.20573761587E+02 0.20980003520E+02 0.21218515029E+02 0.21317186386E+02
 0.21285423033E+02 0.21110436242E+02 0.20759891964E+02 0.20157644116E+02 0.19215056018E+02
 0.17984640156E+02 0.16696150196E+02 0.15693686334E+02 0.15293029437E+02 0.15629599117E+02
 0.16589175864E+02 0.17866613191E+02 0.19113962373E+02 0.20087322607E+02 0.20718084874E+02
 0.21086913245E+02 0.21275985585E+02 0.20517098172E+02 0.20658308958E+02 0.20618493021E+02
 0.20303286504E+02 0.19562977025E+02 0.18373630047E+02 0.16918002359E+02 0.15561058336E+02
 0.14720501943E+02 0.14681649956E+02 0.15458137676E+02 0.16785051963E+02 0.18248891227E+02
 0.19473067475E+02 0.20255624467E+02 0.20603546439E+02 0.20662654836E+02 0.20535667463E+02
 0.20271010534E+02 0.19895658953E+02 0.19415810842E+02 0.18823866633E+02 0.18109444849E+02
 0.17260184067E+02 0.16344138065E+02 0.15534407934E+02 0.15043548835E+02 0.15021024099E+02
 0.15473998429E+02 0.16263487534E+02 0.17178383224E+02 0.18038424299E+02 0.18764978497E+02
 0.19367399832E+02 0.19856759459E+02 0.20241508169E+02 0.19652450482E+02 0.19966164896E+02
 0.20004913296E+02 0.19562977025E+02 0.18527104278E+02 0.17004211363E+02 0.15340886241E+02
 0.14026257017E+02 0.13497709240E+02 0.13941005591E+02 0.15200134682E+02 0.16853069968E+02
 0.18406219436E+02 0.19494134755E+02 0.19987534781E+02 0.19983227529E+02 0.19688252867E+02
 0.19220283379E+02 0.18643553216E+02 0.17999575456E+02 0.17310083372E+02 0.16585563609E+02
 0.15840351214E+02 0.15109535584E+02 0.14456378956E+02 0.13985619031E+02 0.13803043210E+02
 0.13955851554E+02 0.14404452254E+02 0.15046094053E+02 0.15773298832E+02 0.16519113842E+02
 0.17246276728E+02 0.17939270799E+02 0.18588050515E+02 0.19172312922E+02 0.18742105611E+02
 0.19142018427E+02 0.19086626927E+02 0.18373630047E+02 0.17004211363E+02 0.15245354210E+02
 0.13581544130E+02 0.12546621018E+02 0.12498670614E+02 0.13454804539E+02 0.15082904931E+02
 0.16855532285E+02 0.18275071743E+02 0.19051023066E+02 0.19159551022E+02 0.18789553952E+02
 0.18173223723E+02 0.17423336490E+02 0.16614142093E+02 0.15795758596E+02 0.14998048591E+02
 0.14239313756E+02 0.13539169892E+02 0.12931563022E+02 0.12469152582E+02 0.12211423604E+02
 0.12199885126E+02 0.12436664105E+02 0.12883208147E+02 0.13480307071E+02 0.14173750841E+02
 0.14928017473E+02 0.15722916940E+02 0.16540587293E+02 0.17352410450E+02 0.18110228813E+02
 0.17806500354E+02 0.18168540253E+02 0.17909129804E+02 0.16918002359E+02 0.15340886241E+02
 0.13581544130E+02 0.12183502655E+02 0.11620927372E+02 0.12092878663E+02 0.13432190390E+02
 0.15182019618E+02 0.16795546372E+02 0.17849668518E+02 0.18173815977E+02 0.17858052874E+02
 0.17159794320E+02 0.16282992095E+02 0.15331398069E+02 0.14381495880E+02 0.13483543943E+02
 0.12666131510E+02 0.11945202998E+02 0.11335525632E+02 0.10859973103E+02 0.10550234296E+02
 0.10436374977E+02 0.10531697848E+02 0.10825018942E+02 0.11287108266E+02 0.11885764109E+02
 0.12597243798E+02 0.13406504494E+02 0.14298213631E+02 0.15245197996E+02 0.16199298657E+02
 0.17086504287E+02 0.16876027072E+02 0.17127106490E+02 0.16684799292E+02 0.15561058336E+02
 0.14026257017E+02 0.12546621018E+02 0.11620927372E+02 0.11578074319E+02 0.12433617854E+02
 0.13882740574E+02 0.15433684132E+02 0.16609248708E+02 0.17117178850E+02 0.16922736596E+02
 0.16214331588E+02 0.15257719564E+02 0.14197987402E+02 0.13132504053E+02 0.12130838152E+02
 0.11234314724E+02 0.10462186788E+02 0.98218366153E+01 0.93195667186E+01 0.89672436259E+01
 0.87809633097E+01 0.87729370884E+01 0.89436661727E+01 0.92816386463E+01 0.97708229747E+01
 0.10398989190E+02 0.11159580024E+02 0.12045594510E+02 0.13039125442E+02 0.14101155162E+02
 0.15164911998E+02 0.16135404848E+02 0.16033805270E+02 0.16211919228E+02 0.15734830371E+02
 0.14720501943E+02 0.13497709240E+02 0.12498670614E+02 0.12092878663E+02 0.12433617854E+02
 0.13392021404E+02 0.14612623915E+02 0.15661690626E+02 0.16195486639E+02 0.16075041913E+02
 0.15389014670E+02 0.14381386676E+02 0.13243525432E+02 0.12084604589E+02 0.10988921152E+02
 0.10010289395E+02 0.91742733571E+01 0.84869401586E+01 0.79462269507E+01 0.75514355911E+01
 0.73069922012E+01 0.72196417694E+01 0.72927181106E+01 0.75232282956E+01 0.79045627008E+01
 0.84321162028E+01 0.91062620587E+01 0.99291135499E+01 0.10895631149E+02 0.11982448247E+02
 0.13138648071E+02 0.14282608553E+02 0.15307563952E+02 0.15423802627E+02 0.15658799221E+02
 0.15355294938E+02 0.14681649956E+02 0.13941005591E+02 0.13454804539E+02 0.13432190390E+02
 0.13882740574E+02 0.14612623915E+02 0.15305695126E+02 0.15652046357E+02 0.15467653556E+02
 0.14756974631E+02 0.13696789376E+02 0.12491269280E+02 0.11254344235E+02 0.10076535411E+02
 0.90206644683E+01 0.81188589386E+01 0.73786571221E+01 0.67940387186E+01 0.63564309788E+01
 0.60614546560E+01 0.59096626903E+01 0.59030915815E+01 0.60418227487E+01 0.63239183468E+01
 0.67486695496E+01 0.73199567021E+01 0.80459352191E+01 0.89331240940E+01 0.99758615515E+01
 0.11144822475E+02 0.12379929074E+02 0.13592515079E+02 0.14672383910E+02 0.15186947233E+02
 0.15633363765E+02 0.15673603434E+02 0.15458137676E+02 0.15200134682E+02 0.15082904931E+02
 0.15182019618E+02 0.15433684132E+02 0.15661690626E+02 0.15652046357E+02 0.15245311590E+02
 0.14408514440E+02 0.13255336679E+02 0.11966412677E+02 0.10650667682E+02 0.93953393437E+01
 0.82662707477E+01 0.72998750254E+01 0.65056495388E+01 0.58757705977E+01 0.53965036521E+01
 0.50567062338E+01 0.48510106376E+01 0.47783691066E+01 0.48389606844E+01 0.50326538095E+01
 0.53603360869E+01 0.58268683851E+01 0.64427548100E+01 0.72216312004E+01 0.81724054499E+01
 0.92878253686E+01 0.10534172348E+02 0.11847885208E+02 0.13142931222E+02 0.14314926545E+02
 0.15385457975E+02 0.16143736211E+02 0.16582716031E+02 0.16785051963E+02 0.16853069968E+02
 0.16855532285E+02 0.16795546372E+02 0.16609248708E+02 0.16195486639E+02 0.15467653556E+02
 0.14408514440E+02 0.13102084140E+02 0.11695106260E+02 0.10282477805E+02 0.89422031142E+01
 0.77371723608E+01 0.67044786532E+01 0.58544747776E+01 0.51781607184E+01 0.46580932434E+01
 0.42777177062E+01 0.40261431345E+01 0.38983336453E+01 0.38928301978E+01 0.40096345838E+01
 0.42500295986E+01 0.46185226757E+01 0.51253398900E+01 0.57866989878E+01 0.66204384727E+01
 0.76368333355E+01 0.88275571866E+01 0.10157892843E+02 0.11566978826E+02 0.12977680925E+02
 0.14298980703E+02 0.15966976288E+02 0.17035944281E+02 0.17796397101E+02 0.18248891227E+02
 0.18406219436E+02 0.18275071743E+02 0.17849668518E+02 0.17117178850E+02 0.16075041913E+02
 0.14756974631E+02 0.13255336679E+02 0.11695106260E+02 0.10158468268E+02 0.87155428301E+01
 0.74234825069E+01 0.63169184643E+01 0.54053706660E+01 0.46785160760E+01 0.41159288958E+01
 0.36965151521E+01 0.34042738003E+01 0.32297313271E+01 0.31685731432E+01 0.32196409888E+01
 0.33839330889E+01 0.36653264621E+01 0.40726372749E+01 0.46213295888E+01 0.53324012908E+01
 0.62267874386E+01 0.73160209384E+01 0.85924919659E+01 0.10023832792E+02 0.11554752897E+02
 0.13115922416E+02 0.14627641911E+02 0.16794727519E+02 0.18075430920E+02 0.18989216520E+02
 0.19473067475E+02 0.19494134755E+02 0.19051023066E+02 0.18173815977E+02 0.16922736596E+02
 0.15389014670E+02 0.13696789376E+02 0.11966412677E+02 0.10282477805E+02 0.87155428301E+01
 0.73194800757E+01 0.61258378856E+01 0.51421486803E+01 0.43563726374E+01 0.37455546880E+01
 0.32848073292E+01 0.29534735383E+01 0.27374872851E+01 0.26288906471E+01 0.26242463662E+01
 0.27234121509E+01 0.29294694831E+01 0.32498868664E+01 0.36981810492E+01 0.42945401892E+01
 0.50636610662E+01 0.60288999402E+01 0.72035893851E+01 0.85823040516E+01 0.10135804533E+02
 0.11812010368E+02 0.13541487197E+02 0.15241304678E+02 0.17721755612E+02 0.19060126125E+02
 0.19935123620E+02 0.20255624467E+02 0.19987534781E+02 0.19159551022E+02 0.17858052874E+02
 0.16214331588E+02 0.14381386676E+02 0.12491269280E+02 0.10650667682E+02 0.89422031142E+01
 0.74234825069E+01 0.61258378856E+01 0.50553963606E+01 0.41983832776E+01 0.35295948047E+01
 0.30210264825E+01 0.26480240033E+01 0.23921060106E+01 0.22412141472E+01 0.21887476333E+01
 0.22325231003E+01 0.23743326183E+01 0.26203436505E+01 0.29821372428E+01 0.34776770702E+01
 0.41311023625E+01 0.49701551083E+01 0.60205010267E+01 0.72974181950E+01 0.87970719354E+01
 0.10490544622E+02 0.12322354787E+02 0.14211919307E+02 0.16054811989E+02 0.18658293896E+02
 0.19897567447E+02 0.20573761587E+02 0.20603546439E+02 0.19983227529E+02 0.18789553952E+02
 0.17159794320E+02 0.15257719564E+02 0.13243525432E+02 0.11254344235E+02 0.93953393437E+01
 0.77371723608E+01 0.63169184643E+01 0.51421486803E+01 0.41983832776E+01 0.34585817796E+01
 0.28920810983E+01 0.24708415002E+01 0.21724571490E+01 0.19807828282E+01 0.18854752159E+01
 0.18814080002E+01 0.19683587191E+01 0.21510115169E+01 0.24392473228E+01 0.28486739674E+01
 0.34010924032E+01 0.41240484059E+01 0.50481593380E+01 0.62011928150E+01 0.75992374803E+01
 0.92370585425E+01 0.11080377765E+02 0.13061583318E+02 0.15078623297E+02 0.16997099561E+02
 0.19571938708E+02 0.20600671164E+02 0.20980003520E+02 0.20662654836E+02 0.19688252867E+02
 0.18173223723E+02 0.16282992095E+02 0.14197987402E+02 0.12084604589E+02 0.10076535411E+02
 0.82662707477E+01 0.67044786532E+01 0.54053706660E+01 0.43563726374E+01 0.35295948047E+01
 0.28920810983E+01 0.24127351460E+01 0.20656360551E+01 0.18308562355E+01 0.16942359562E+01
 0.16471269833E+01 0.16864275094E+01 0.18147098252E+01 0.20401725371E+01 0.23765043669E+01
 0.28430161442E+01 0.34649891232E+01 0.42731884616E+01 0.53008109237E+01 0.65766685108E+01
 0.81150622159E+01 0.99044762018E+01 0.11897837096E+02 0.14006630190E+02 0.16100702778E+02
 0.18015906198E+02 0.20441423212E+02 0.21185724051E+02 0.21218515029E+02 0.20535667463E+02
 0.19220283379E+02 0.17423336490E+02 0.15331398069E+02 0.13132504053E+02 0.10988921152E+02
 0.90206644683E+01 0.72998750254E+01 0.58544747776E+01 0.46785160760E+01 0.37455546880E+01
 0.30210264825E+01 0.24708415002E+01 0.20656360551E+01 0.17819164988E+01 0.16018810115E+01
 0.15132400281E+01 0.15094862817E+01 0.15903181004E+01 0.17616978013E+01 0.20354431936E+01
 0.24288446279E+01 0.29648112098E+01 0.36722055440E+01 0.45849208863E+01 0.57378276840E+01
 0.71584661292E+01 0.88550508156E+01 0.10803230397E+02 0.12935265314E+02 0.15135412145E+02
 0.17244554003E+02 0.19075881483E+02 0.21250457689E+02 0.21657647509E+02 0.21317186386E+02
 0.20271010534E+02 0.18643553216E+02 0.16614142093E+02 0.14381495880E+02 0.12130838152E+02
 0.10010289395E+02 0.81188589386E+01 0.65056495388E+01 0.51781607184E+01 0.41159288958E+01
 0.32848073292E+01 0.26480240033E+01 0.21724571490E+01 0.18308562355E+01 0.16018810115E+01
 0.14697466967E+01 0.14244139277E+01 0.14622159807E+01 0.15862224891E+01 0.18059175129E+01
 0.21365625384E+01 0.25989837837E+01 0.32199456112E+01 0.40321734785E+01 0.50722865969E+01
 0.63748979540E+01 0.79621199055E+01 0.98296388772E+01 0.11932768030E+02 0.14177204780E+02
 0.16418763043E+02 0.18474555556E+02 0.20145890282E+02 0.21972706934E+02 0.22007487266E+02
 0.21285423033E+02 0.19895658953E+02 0.17999575456E+02 0.15795758596E+02 0.13483543943E+02
 0.11234314724E+02 0.91742733571E+01 0.73786571221E+01 0.58757705977E+01 0.46580932434E+01
 0.36965151521E+01 0.29534735383E+01 0.23921060106E+01 0.19807828282E+01 0.16942359562E+01
 0.15132400281E+01 0.14244139277E+01 0.14206408940E+01 0.15016165598E+01 0.16738630446E+01
 0.19502026590E+01 0.23493347480E+01 0.28960010031E+01 0.36213014687E+01 0.45617193795E+01
 0.57549779762E+01 0.72313951062E+01 0.90010744650E+01 0.11039558171E+02 0.13276163581E+02
 0.15589151053E+02 0.17810615050E+02 0.19742732857E+02 0.21185503630E+02 0.22560487198E+02
 0.22203774557E+02 0.21110436242E+02 0.19415810842E+02 0.17310083372E+02 0.14998048591E+02
 0.12666131510E+02 0.10462186788E+02 0.84869401586E+01 0.67940387186E+01 0.53965036521E+01
 0.42777177062E+01 0.34042738003E+01 0.27374872851E+01 0.22412141472E+01 0.18854752159E+01
 0.16471269833E+01 0.15094862817E+01 0.14622159807E+01 0.15016165598E+01 0.16308034368E+01
 0.18595069921E+01 0.22038254330E+01 0.26863495858E+01 0.33364659987E+01 0.41897589460E+01
 0.52848258398E+01 0.66560430609E+01 0.83222770837E+01 0.10273751523E+02 0.12460648080E+02
 0.14786404727E+02 0.17107275477E+02 0.19239880615E+02 0.20979932624E+02 0.22134129023E+02
 0.22927815829E+02 0.22185441052E+02 0.20759891964E+02 0.18823866633E+02 0.16585563609E+02
 0.14239313756E+02 0.11945202998E+02 0.98218366153E+01 0.79462269507E+01 0.63564309788E+01
 0.50567062338E+01 0.40261431345E+01 0.32297313271E+01 0.26288906471E+01 0.21887476333E+01
 0.18814080002E+01 0.16864275094E+01 0.15903181004E+01 0.15862224891E+01 0.16738630446E+01
 0.18595069921E+01 0.21560031268E+01 0.25831511202E+01 0.31682095844E+01 0.39454844757E+01
 0.49533703163E+01 0.62275871906E+01 0.77909266770E+01 0.96419238813E+01 0.11745728944E+02
 0.14028766675E+02 0.16376200206E+02 0.18631716369E+02 0.20603634192E+02 0.22083217882E+02
 0.22892238691E+02 0.22833247687E+02 0.21788844927E+02 0.20157644116E+02 0.18109444849E+02
 0.15840351214E+02 0.13539169892E+02 0.11335525632E+02 0.93195667186E+01 0.75514355911E+01
 0.60614546560E+01 0.48510106376E+01 0.38983336453E+01 0.31685731432E+01 0.26242463662E+01
 0.22325231003E+01 0.19683587191E+01 0.18147098252E+01 0.17616978013E+01 0.18059175129E+01
 0.19502026590E+01 0.22038254330E+01 0.25831511202E+01 0.31124869496E+01 0.38240266647E+01
 0.47550700011E+01 0.59411409395E+01 0.74056898609E+01 0.91497256133E+01 0.11145515095E+02
 0.13335465511E+02 0.15632257415E+02 0.17911187364E+02 0.19987603014E+02 0.21663975524E+02
 0.22767015373E+02 0.23172766743E+02 0.21983107531E+02 0.20830400235E+02 0.19215056018E+02
 0.17260184067E+02 0.15109535584E+02 0.12931563022E+02 0.10859973103E+02 0.89672436259E+01
 0.73069922012E+01 0.59096626903E+01 0.47783691066E+01 0.38928301978E+01 0.32196409888E+01
 0.27234121509E+01 0.23743326183E+01 0.21510115169E+01 0.20401725371E+01 0.20354431936E+01
 0.21365625384E+01 0.23493347480E+01 0.26863495858E+01 0.31682095844E+01 0.38240266647E+01
 0.46889560088E+01 0.57970403167E+01 0.71702224662E+01 0.88077417147E+01 0.10681480699E+02
 0.12739559461E+02 0.14911890029E+02 0.17072105565E+02 0.19050850764E+02 0.20702173335E+02
 0.21901132499E+02 0.22545628510E+02 0.22573887617E+02 0.20262077264E+02 0.19301525523E+02
 0.17984640156E+02 0.16344138065E+02 0.14456378956E+02 0.12469152582E+02 0.10550234296E+02
 0.87809633097E+01 0.72196417694E+01 0.59030915815E+01 0.48389606844E+01 0.40096345838E+01
 0.33839330889E+01 0.29294694831E+01 0.26203436505E+01 0.24392473228E+01 0.23765043669E+01
 0.24288446279E+01 0.25989837837E+01 0.28960010031E+01 0.33364659987E+01 0.39454844757E+01
 0.47550700011E+01 0.57970403167E+01 0.70908163438E+01 0.86312462000E+01 0.10383846743E+02
 0.12291726825E+02 0.14278423566E+02 0.16182480680E+02 0.17849540386E+02 0.19197299847E+02
 0.20190663004E+02 0.20808186574E+02 0.21029592032E+02 0.20844766901E+02 0.17859612388E+02
 0.17444859054E+02 0.16696150196E+02 0.15534407934E+02 0.13985619031E+02 0.12211423604E+02
 0.10436374977E+02 0.87729370884E+01 0.72927181106E+01 0.60418227487E+01 0.50326538095E+01
 0.42500295986E+01 0.36653264621E+01 0.32498868664E+01 0.29821372428E+01 0.28486739674E+01
 0.28430161442E+01 0.29648112098E+01 0.32199456112E+01 0.36213014687E+01 0.41897589460E+01
 0.49533703163E+01 0.59411409395E+01 0.71702224662E+01 0.86312462000E+01 0.10280896914E+02
 0.12048971043E+02 0.13831426209E+02 0.15409200278E+02 0.16609246128E+02 0.17393236083E+02
 0.17833114868E+02 0.18044653129E+02 0.18126066041E+02 0.18129302518E+02 0.18056335731E+02
 0.15296970589E+02 0.15722884803E+02 0.15693686334E+02 0.15043548835E+02 0.13803043210E+02
 0.12199885126E+02 0.10531697848E+02 0.89436661727E+01 0.75232282956E+01 0.63239183468E+01
 0.53603360869E+01 0.46185226757E+01 0.40726372749E+01 0.36981810492E+01 0.34776770702E+01
 0.34010924032E+01 0.34649891232E+01 0.36722055440E+01 0.40321734785E+01 0.45617193795E+01
 0.52848258398E+01 0.62275871906E+01 0.74056898609E+01 0.88077417147E+01 0.10383846743E+02
 0.12048971043E+02 0.13669008432E+02 0.14954141178E+02 0.15662028365E+02 0.15742872481E+02
 0.15347182444E+02 0.14750811045E+02 0.14243956542E+02 0.14037436605E+02 0.14210917181E+02
 0.14697588440E+02 0.13294004866E+02 0.14659260114E+02 0.15293029437E+02 0.15021024099E+02
 0.13955851554E+02 0.12436664105E+02 0.10825018942E+02 0.92816386463E+01 0.79045627008E+01
 0.67486695496E+01 0.58268683851E+01 0.51253398900E+01 0.46213295888E+01 0.42945401892E+01
 0.41311023625E+01 0.41240484059E+01 0.42731884616E+01 0.45849208863E+01 0.50722865969E+01
 0.57549779762E+01 0.66560430609E+01 0.77909266770E+01 0.91497256133E+01 0.10681480699E+02
 0.12291726825E+02 0.13831426209E+02 0.14954141178E+02 0.15306435142E+02 0.14751048174E+02
 0.13437163587E+02 0.11759848103E+02 0.10228963308E+02 0.93052554396E+01 0.92632093265E+01
 0.10115330235E+02 0.11608632271E+02 0.12492522366E+02 0.14610549908E+02 0.15629599117E+02
 0.15473998429E+02 0.14404452254E+02 0.12883208147E+02 0.11287108266E+02 0.97708229747E+01
 0.84321162028E+01 0.73199567021E+01 0.64427548100E+01 0.57866989878E+01 0.53324012908E+01
 0.50636610662E+01 0.49701551083E+01 0.50481593380E+01 0.53008109237E+01 0.57378276840E+01
 0.63748979540E+01 0.72313951062E+01 0.83222770837E+01 0.96419238813E+01 0.11145515095E+02
 0.12739559461E+02 0.14278423566E+02 0.15409200278E+02 0.15662028365E+02 0.14751048174E+02
 0.12718848236E+02 0.99707888333E+01 0.71793635273E+01 0.50857418412E+01 0.42674288845E+01
 0.49537686921E+01 0.69523054315E+01 0.97105141781E+01 0.13165151081E+02 0.15593539149E+02
 0.16589175864E+02 0.16263487534E+02 0.15046094053E+02 0.13480307071E+02 0.11885764109E+02
 0.10398989190E+02 0.91062620587E+01 0.80459352191E+01 0.72216312004E+01 0.66204384727E+01
 0.62267874386E+01 0.60288999402E+01 0.60205010267E+01 0.62011928150E+01 0.65766685108E+01
 0.71584661292E+01 0.79621199055E+01 0.90010744650E+01 0.10273751523E+02 0.11745728944E+02
 0.13335465511E+02 0.14911890029E+02 0.16182480680E+02 0.16609246128E+02 0.15742872481E+02
 0.13437163587E+02 0.99707888333E+01 0.60384816273E+01 0.25867155343E+01 0.52841650252E+00
 0.43511757944E+00 0.23330032219E+01 0.56935885275E+01 0.96230004320E+01 0.15082626527E+02
 0.17276861838E+02 0.17866613191E+02 0.17178383224E+02 0.15773298832E+02 0.14173750841E+02
 0.12597243798E+02 0.11159580024E+02 0.99291135499E+01 0.89331240940E+01 0.81724054499E+01
 0.76368333355E+01 0.73160209384E+01 0.72035893851E+01 0.72974181950E+01 0.75992374803E+01
 0.81150622159E+01 0.88550508156E+01 0.98296388772E+01 0.11039558171E+02 0.12460648080E+02
 0.14028766675E+02 0.15632257415E+02 0.17072105565E+02 0.17849540386E+02 0.17393236083E+02
 0.15347182444E+02 0.11759848103E+02 0.71793635273E+01 0.25867155343E+01 -.86051831005E+00
 -.22116874644E+01 -.10782862305E+01 0.22128920355E+01 0.67492591316E+01 0.11375774062E+02
 0.17625570433E+02 0.19142453745E+02 0.19113962373E+02 0.18038424299E+02 0.16519113842E+02
 0.14928017473E+02 0.13406504494E+02 0.12045594510E+02 0.10895631149E+02 0.99758615515E+01
 0.92878253686E+01 0.88275571866E+01 0.85924919659E+01 0.85823040516E+01 0.87970719354E+01
 0.92370585425E+01 0.99044762018E+01 0.10803230397E+02 0.11932768030E+02 0.13276163581E+02
 0.14786404727E+02 0.16376200206E+02 0.17911187364E+02 0.19050850764E+02 0.19197299847E+02
 0.17833114868E+02 0.14750811045E+02 0.10228963308E+02 0.50857418412E+01 0.52841650252E+00
 -.22116874644E+01 -.23364495744E+01 0.19124822397E+00 0.46319245607E+01 0.97750097692E+01
 0.14393819085E+02 0.20068237756E+02 0.20714421485E+02 0.20087322607E+02 0.18764978497E+02
 0.17246276728E+02 0.15722916940E+02 0.14298213631E+02 0.13039125442E+02 0.11982448247E+02
 0.11144822475E+02 0.10534172348E+02 0.10157892843E+02 0.10023832792E+02 0.10135804533E+02
 0.10490544622E+02 0.11080377765E+02 0.11897837096E+02 0.12935265314E+02 0.14177204780E+02
 0.15589151053E+02 0.17107275477E+02 0.18631716369E+02 0.19987603014E+02 0.20702173335E+02
 0.20190663004E+02 0.18044653129E+02 0.14243956542E+02 0.93052554396E+01 0.42674288845E+01
 0.43511757944E+00 -.10782862305E+01 0.19124822397E+00 0.38535893137E+01 0.88371518065E+01
 0.13833957257E+02 0.17766858079E+02 0.21863483282E+02 0.21727380603E+02 0.20718084874E+02
 0.19367399832E+02 0.17939270799E+02 0.16540587293E+02 0.15245197996E+02 0.14101155162E+02
 0.13138648071E+02 0.12379929074E+02 0.11847885208E+02 0.11566978826E+02 0.11554752897E+02
 0.11812010368E+02 0.12322354787E+02 0.13061583318E+02 0.14006630190E+02 0.15135412145E+02
 0.16418763043E+02 0.17810615050E+02 0.19239880615E+02 0.20603634192E+02 0.21663975524E+02
 0.21901132499E+02 0.20808186574E+02 0.18126066041E+02 0.14037436605E+02 0.92632093265E+01
 0.49537686921E+01 0.23330032219E+01 0.22128920355E+01 0.46319245607E+01 0.88371518065E+01
 0.13621420624E+02 0.17809374042E+02 0.20633113764E+02 0.22791199591E+02 0.22169020973E+02
 0.21086913245E+02 0.19856759459E+02 0.18588050515E+02 0.17352410450E+02 0.16199298657E+02
 0.15164911998E+02 0.14282608553E+02 0.13592515079E+02 0.13142931222E+02 0.12977680925E+02
 0.13115922416E+02 0.13541487197E+02 0.14211919307E+02 0.15078623297E+02 0.16100702778E+02
 0.17244554003E+02 0.18474555556E+02 0.19742732857E+02 0.20979932624E+02 0.22083217882E+02
 0.22767015373E+02 0.22545628510E+02 0.21029592032E+02 0.18129302518E+02 0.14210917181E+02
 0.10115330235E+02 0.69523054315E+01 0.56935885275E+01 0.67492591316E+01 0.97750097692E+01
 0.13833957257E+02 0.17809374042E+02 0.20823688924E+02 0.22466228126E+02 0.22943491615E+02
 0.22212595967E+02 0.21275985585E+02 0.20241508169E+02 0.19172312922E+02 0.18110228813E+02
 0.17086504287E+02 0.16135404848E+02 0.15307563952E+02 0.14672383910E+02 0.14314926545E+02
 0.14298980703E+02 0.14627641911E+02 0.15241304678E+02 0.16054811989E+02 0.16997099561E+02
 0.18015906198E+02 0.19075881483E+02 0.20145890282E+02 0.21185503630E+02 0.22134129023E+02
 0.22892238691E+02 0.23172766743E+02 0.22573887617E+02 0.20844766901E+02 0.18056335731E+02
 0.14697588440E+02 0.11608632271E+02 0.97105141781E+01 0.96230004320E+01 0.11375774062E+02
 0.14393819085E+02 0.17766858079E+02 0.20633113764E+02 0.22466228126E+02 0.23160207835E+02
 0.22853363540E+02 0.22503433843E+02 0.22022229184E+02 0.21419911064E+02 0.20690683369E+02
 0.19809564323E+02 0.18755170767E+02 0.17621492009E+02 0.16623575044E+02 0.16020110701E+02
 0.15992293581E+02 0.16549073109E+02 0.17522052222E+02 0.18653928331E+02 0.19721175648E+02
 0.20617921960E+02 0.21359185871E+02 0.21972833184E+02 0.22465083586E+02 0.22827564524E+02
 0.23028240990E+02 0.22997892773E+02 0.22542817560E+02 0.21469983586E+02 0.19777505670E+02
 0.17733453041E+02 0.15842700516E+02 0.14676066841E+02 0.14622453924E+02 0.15700328097E+02
 0.17548389275E+02 0.19601760006E+02 0.21340897989E+02 0.22473270435E+02 0.22978409061E+02
 0.23037157598E+02 0.22503433843E+02 0.22409670162E+02 0.22164842471E+02 0.21738164771E+02
 0.21042549393E+02 0.19987417747E+02 0.18633957362E+02 0.17229241377E+02 0.16140826388E+02
 0.15706195489E+02 0.16070540753E+02 0.17112060653E+02 0.18504496470E+02 0.19875469929E+02
 0.20962587567E+02 0.21688162263E+02 0.22134063912E+02 0.22393938022E+02 0.22500736702E+02
 0.22464841770E+02 0.22272476158E+02 0.21885461717E+02 0.21196361583E+02 0.20108677872E+02
 0.18691480709E+02 0.17211434175E+02 0.16062055850E+02 0.15603129832E+02 0.15988745822E+02
 0.17088800885E+02 0.18555711582E+02 0.19991962882E+02 0.21115255610E+02 0.21838440917E+02
 0.22246882686E+02 0.22454568043E+02 0.22022229184E+02 0.22164842471E+02 0.22102740852E+02
 0.21694944598E+02 0.20767076226E+02 0.19306698168E+02 0.17539895782E+02 0.15902885975E+02
 0.14891734508E+02 0.14844997266E+02 0.15778911154E+02 0.17379180462E+02 0.19154749715E+02
 0.20655878296E+02 0.21634328673E+02 0.22083030976E+02 0.22168265273E+02 0.22041673448E+02
 0.21759967490E+02 0.21351484046E+02 0.20821825708E+02 0.20161780872E+02 0.19344881682E+02
 0.18347748434E+02 0.17261604427E+02 0.16298737012E+02 0.15714773713E+02 0.15688228054E+02
 0.16227426046E+02 0.17166220656E+02 0.18251179390E+02 0.19262224300E+02 0.20095791506E+02
 0.20768255574E+02 0.21308906493E+02 0.21728116761E+02 0.21419911064E+02 0.21738164771E+02
 0.21694944598E+02 0.21034066177E+02 0.19641222415E+02 0.17664908534E+02 0.15540073669E+02
 0.13872902810E+02 0.13204643889E+02 0.13765203777E+02 0.15361355515E+02 0.17470894305E+02
 0.19482466748E+02 0.20938507810E+02 0.21663757960E+02 0.21752760333E+02 0.21457309309E+02
 0.20960114076E+02 0.20333790979E+02 0.19622406321E+02 0.18849134487E+02 0.18026246290E+02
 0.17171069416E+02 0.16314132545E+02 0.15533217124E+02 0.14964986457E+02 0.14743828873E+02
 0.14929098778E+02 0.15470880967E+02 0.16238857643E+02 0.17093451267E+02 0.17950393332E+02
 0.18777070350E+02 0.19555146407E+02 0.20272823670E+02 0.20908445014E+02 0.20690683369E+02
 0.21042549393E+02 0.20767076226E+02 0.19641222415E+02 0.17695064621E+02 0.15286699873E+02
 0.13045277471E+02 0.11661032218E+02 0.11597180887E+02 0.12875736183E+02 0.15066940352E+02
 0.17489025588E+02 0.19496533519E+02 0.20702131486E+02 0.21047761015E+02 0.20739042310E+02
 0.20090613836E+02 0.19279415766E+02 0.18387510474E+02 0.17470199880E+02 0.16562251915E+02
 0.15687557064E+02 0.14872694188E+02 0.14160920966E+02 0.13616192325E+02 0.13310292663E+02
 0.13296511765E+02 0.13577591546E+02 0.14103844482E+02 0.14803632005E+02 0.15611409158E+02
 0.16481931021E+02 0.17387782161E+02 0.18305539166E+02 0.19201809916E+02 0.20023298123E+02
 0.19809564323E+02 0.19987417747E+02 0.19306698168E+02 0.17664908534E+02 0.15286699873E+02
 0.12728629929E+02 0.10728482133E+02 0.99289186717E+01 0.10599847981E+02 0.12514346953E+02
 0.15053207170E+02 0.17474699673E+02 0.19197358114E+02 0.19964692713E+02 0.19853237982E+02
 0.19166090588E+02 0.18228365697E+02 0.17185834810E+02 0.16125365621E+02 0.15106081305E+02
 0.14164934206E+02 0.13325769224E+02 0.12610832168E+02 0.12050607843E+02 0.11684725391E+02
 0.11550029538E+02 0.11662736088E+02 0.12009221804E+02 0.12553734910E+02 0.13256150622E+02
 0.14085045076E+02 0.15017888023E+02 0.16031514070E+02 0.17090452814E+02 0.18137721612E+02
 0.19089079826E+02 0.18755170767E+02 0.18633957362E+02 0.17539895782E+02 0.15540073669E+02
 0.13045277471E+02 0.10728482133E+02 0.93026292862E+01 0.92372339034E+01 0.10554291942E+02
 0.12818448214E+02 0.15327189643E+02 0.17393211534E+02 0.18576607054E+02 0.18779845409E+02
 0.18203786669E+02 0.17210759617E+02 0.16064484070E+02 0.14884055248E+02 0.13753146874E+02
 0.12725207345E+02 0.11829525228E+02 0.11081097976E+02 0.10491699629E+02 0.10077479637E+02
 0.98582430375E+01 0.98487324713E+01 0.10049656290E+02 0.10447199830E+02 0.11021546536E+02
 0.11756090845E+02 0.12638991858E+02 0.13656025983E+02 0.14779533919E+02 0.15958426992E+02
 0.17111880914E+02 0.18125756685E+02 0.17621492009E+02 0.17229241377E+02 0.15902885975E+02
 0.13872902810E+02 0.11661032218E+02 0.99289186717E+01 0.92372339034E+01 0.98180850869E+01
 0.11476111709E+02 0.13672041623E+02 0.15742998195E+02 0.17146827270E+02 0.17624067298E+02
 0.17231135654E+02 0.16261091473E+02 0.15057599587E+02 0.13790280807E+02 0.12563519508E+02
 0.11448130521E+02 0.10482928596E+02 0.96830135544E+01 0.90514717145E+01 0.85900937310E+01
 0.83046024756E+01 0.82026382157E+01 0.82879393477E+01 0.85571883050E+01 0.90029011418E+01
 0.96191968319E+01 0.10404107123E+02 0.11354916320E+02 0.12457959646E+02 0.13676990220E+02
 0.14944379720E+02 0.16158683053E+02 0.17162009803E+02 0.16623575044E+02 0.16140826388E+02
 0.14891734508E+02 0.13204643889E+02 0.11597180887E+02 0.10599847981E+02 0.10554291942E+02
 0.11476111709E+02 0.13048719039E+02 0.14751001935E+02 0.16056444516E+02 0.16614593861E+02
 0.16346477978E+02 0.15431737528E+02 0.14197711483E+02 0.12871019068E+02 0.11568630650E+02
 0.10375344022E+02 0.93405701655E+01 0.84833028646E+01 0.78034557971E+01 0.72944371928E+01
 0.69519046608E+01 0.67759980241E+01 0.67684683833E+01 0.69292962936E+01 0.72567250031E+01
 0.77505594082E+01 0.84148962020E+01 0.92562105288E+01 0.10275417298E+02 0.11455816100E+02
 0.12751298304E+02 0.14080258602E+02 0.15328887849E+02 0.16286583358E+02 0.16020110701E+02
 0.15706195489E+02 0.14844997266E+02 0.13765203777E+02 0.12875736183E+02 0.12514346953E+02
 0.12818448214E+02 0.13672041623E+02 0.14751001935E+02 0.15647098320E+02 0.16019172199E+02
 0.15711560480E+02 0.14796337772E+02 0.13526389094E+02 0.12147317254E+02 0.10781709221E+02
 0.95205234796E+01 0.84211197955E+01 0.75072815271E+01 0.67786225235E+01 0.62236956064E+01
 0.58309118540E+01 0.55936989647E+01 0.55100761658E+01 0.55798596235E+01 0.58031754913E+01
 0.61818038788E+01 0.67218626232E+01 0.74344735988E+01 0.83313297112E+01 0.94144355487E+01
 0.10662870171E+02 0.12022473546E+02 0.13404796314E+02 0.14692044185E+02 0.15651442746E+02
 0.15992293581E+02 0.16070540753E+02 0.15778911154E+02 0.15361355515E+02 0.15066940352E+02
 0.15053207170E+02 0.15327189643E+02 0.15742998195E+02 0.16056444516E+02 0.16019172199E+02
 0.15478967392E+02 0.14445894212E+02 0.13093636455E+02 0.11642679318E+02 0.10209877094E+02
 0.88827534467E+01 0.77212503559E+01 0.67523110238E+01 0.59759555152E+01 0.53776643096E+01
 0.49404216562E+01 0.46518101311E+01 0.45054411611E+01 0.44991086279E+01 0.46327959687E+01
 0.49085145125E+01 0.53321140764E+01 0.59153197520E+01 0.66748750393E+01 0.76260648733E+01
 0.87708612646E+01 0.10085120840E+02 0.11511694762E+02 0.12964926244E+02 0.14333593609E+02
 0.15404626078E+02 0.16549073109E+02 0.17112060653E+02 0.17379180462E+02 0.17470894305E+02
 0.17489025588E+02 0.17474699673E+02 0.17393211534E+02 0.17146827270E+02 0.16614593861E+02
 0.15711560480E+02 0.14445894212E+02 0.12943387587E+02 0.11381809605E+02 0.98610527519E+01
 0.84583208626E+01 0.72301152958E+01 0.62034233745E+01 0.53780955087E+01 0.47372231296E+01
 0.42592660927E+01 0.39265101574E+01 0.37279851681E+01 0.36584767683E+01 0.37165043758E+01
 0.39033233783E+01 0.42236950833E+01 0.46879251726E+01 0.53131730422E+01 0.61210004160E+01
 0.71292744811E+01 0.83400948407E+01 0.97290549444E+01 0.11242086106E+02 0.12803307049E+02
 0.14317597426E+02 0.15611430242E+02 0.17522052222E+02 0.18504496470E+02 0.19154749715E+02
 0.19482466748E+02 0.19496533519E+02 0.19197358114E+02 0.18576607054E+02 0.17624067298E+02
 0.16346477978E+02 0.14796337772E+02 0.13093636455E+02 0.11381809605E+02 0.97434970399E+01
 0.82458005862E+01 0.69385191744E+01 0.58455650403E+01 0.49652538748E+01 0.42784946162E+01
 0.37599437878E+01 0.33869558048E+01 0.31437501972E+01 0.30214310081E+01 0.30162095503E+01
 0.31279378695E+01 0.33600069543E+01 0.37207225270E+01 0.42252178420E+01 0.48957229036E+01
 0.57577179579E+01 0.68312555200E+01 0.81198875082E+01 0.96021290928E+01 0.11230352715E+02
 0.12938563163E+02 0.14647169944E+02 0.16216976662E+02 0.18653928331E+02 0.19875469929E+02
 0.20655878296E+02 0.20938507810E+02 0.20702131486E+02 0.19964692713E+02 0.18779845409E+02
 0.17231135654E+02 0.15431737528E+02 0.13526389094E+02 0.11642679318E+02 0.98610527519E+01
 0.82458005862E+01 0.68417094564E+01 0.56687937090E+01 0.47227960353E+01 0.39822556204E+01
 0.34186239946E+01 0.30049825947E+01 0.27208227317E+01 0.25529992370E+01 0.24945697440E+01
 0.25433218651E+01 0.27010984421E+01 0.29743359962E+01 0.33755569097E+01 0.39246664755E+01
 0.46481766581E+01 0.55747126512E+01 0.67266851342E+01 0.81103144126E+01 0.97080666142E+01
 0.11477263001E+02 0.13354920959E+02 0.15262455744E+02 0.17077577856E+02 0.19721175648E+02
 0.20962587567E+02 0.21634328673E+02 0.21663757960E+02 0.21047761015E+02 0.19853237982E+02
 0.18203786669E+02 0.16261091473E+02 0.14197711483E+02 0.12147317254E+02 0.10209877094E+02
 0.84583208626E+01 0.69385191744E+01 0.56687937090E+01 0.46427568856E+01 0.38367208529E+01
 0.32193779843E+01 0.27602176723E+01 0.24344870642E+01 0.22247059325E+01 0.21201303762E+01
 0.21156580981E+01 0.22110776313E+01 0.24110275316E+01 0.27257093249E+01 0.31720020541E+01
 0.37740439150E+01 0.45618836991E+01 0.55669272586E+01 0.68139667997E+01 0.83115041052E+01
 0.10043755964E+02 0.11967195716E+02 0.14011063489E+02 0.16077907209E+02 0.18038139562E+02
 0.20617921960E+02 0.21688162263E+02 0.22083030976E+02 0.21752760333E+02 0.20739042310E+02
 0.19166090588E+02 0.17210759617E+02 0.15057599587E+02 0.12871019068E+02 0.10781709221E+02
 0.88827534467E+01 0.72301152958E+01 0.58455650403E+01 0.47227960353E+01 0.38367208529E+01
 0.31537998169E+01 0.26405387261E+01 0.22685313187E+01 0.20162623130E+01 0.18689931251E+01
 0.18180896809E+01 0.18605489697E+01 0.19988689915E+01 0.22411854980E+01 0.26016832793E+01
 0.31012205003E+01 0.37675617146E+01 0.46338814863E+01 0.57340662685E+01 0.70944236415E+01
 0.87233513989E+01 0.10601866012E+02 0.12677236561E+02 0.14859820238E+02 0.17022281350E+02
 0.19002859918E+02 0.21359185871E+02 0.22134063912E+02 0.22168265273E+02 0.21457309309E+02
 0.20090613836E+02 0.18228365697E+02 0.16064484070E+02 0.13790280807E+02 0.11568630650E+02
 0.95205234796E+01 0.77212503559E+01 0.62034233745E+01 0.49652538748E+01 0.39822556204E+01
 0.32193779843E+01 0.26405387261E+01 0.22141317800E+01 0.19150429549E+01 0.17247239551E+01
 0.16307749683E+01 0.16267894242E+01 0.17124728392E+01 0.18936945152E+01 0.21823569342E+01
 0.25964127427E+01 0.31602819086E+01 0.39050293156E+01 0.48666416775E+01 0.60806897247E+01
 0.75729740326E+01 0.93476657651E+01 0.11375685674E+02 0.13585987696E+02 0.15861715155E+02
 0.18043204364E+02 0.19940684129E+02 0.21972833184E+02 0.22393938022E+02 0.22041673448E+02
 0.20960114076E+02 0.19279415766E+02 0.17185834810E+02 0.14884055248E+02 0.12563519508E+02
 0.10375344022E+02 0.84211197955E+01 0.67523110238E+01 0.53780955087E+01 0.42784946162E+01
 0.34186239946E+01 0.27602176723E+01 0.22685313187E+01 0.19150429549E+01 0.16776948989E+01
 0.15404698432E+01 0.14933392964E+01 0.15326562816E+01 0.16614497463E+01 0.18892116352E+01
 0.22314409750E+01 0.27095979496E+01 0.33515883239E+01 0.41917269844E+01 0.52682635835E+01
 0.66167562416E+01 0.82589507324E+01 0.10188840222E+02 0.12359328570E+02 0.14673566763E+02
 0.16984507456E+02 0.19105201703E+02 0.20831074943E+02 0.22465083586E+02 0.22500736702E+02
 0.21759967490E+02 0.20333790979E+02 0.18387510474E+02 0.16125365621E+02 0.13753146874E+02
 0.11448130521E+02 0.93405701655E+01 0.75072815271E+01 0.59759555152E+01 0.47372231296E+01
 0.37599437878E+01 0.30049825947E+01 0.24344870642E+01 0.20162623130E+01 0.17247239551E+01
 0.15404698432E+01 0.14500148836E+01 0.14461791752E+01 0.15286459823E+01 0.17039941172E+01
 0.19851601125E+01 0.23910055501E+01 0.29465490466E+01 0.36834406925E+01 0.46391651903E+01
 0.58529874206E+01 0.73571725679E+01 0.91636623484E+01 0.11248796247E+02 0.13540618401E+02
 0.15913552439E+02 0.18193818558E+02 0.20177058629E+02 0.21657554516E+02 0.22827564524E+02
 0.22464841770E+02 0.21351484046E+02 0.19622406321E+02 0.17470199880E+02 0.15106081305E+02
 0.12725207345E+02 0.10482928596E+02 0.84833028646E+01 0.67786225235E+01 0.53776643096E+01
 0.42592660927E+01 0.33869558048E+01 0.27208227317E+01 0.22247059325E+01 0.18689931251E+01
 0.16307749683E+01 0.14933392964E+01 0.14461791752E+01 0.14854911136E+01 0.16144715617E+01
 0.18430317182E+01 0.21873182246E+01 0.26696888476E+01 0.33191707925E+01 0.41713720115E+01
 0.52660159672E+01 0.66402820715E+01 0.83173488099E+01 0.10291797747E+02 0.12515682844E+02
 0.14889682570E+02 0.17262772218E+02 0.19442652320E+02 0.21218303579E+02 0.22393822686E+02
 0.23028240990E+02 0.22272476158E+02 0.20821825708E+02 0.18849134487E+02 0.16562251915E+02
 0.14164934206E+02 0.11829525228E+02 0.96830135544E+01 0.78034557971E+01 0.62236956064E+01
 0.49404216562E+01 0.39265101574E+01 0.31437501972E+01 0.25529992370E+01 0.21201303762E+01
 0.18180896809E+01 0.16267894242E+01 0.15326562816E+01 0.15286459823E+01 0.16144715617E+01
 0.17965792166E+01 0.20879286953E+01 0.25080243712E+01 0.30833238860E+01 0.38473134110E+01
 0.48387319132E+01 0.60962183586E+01 0.76485850739E+01 0.95019769002E+01 0.11627114315E+02
 0.13949992870E+02 0.16347993669E+02 0.18652739578E+02 0.20662561016E+02 0.22168312878E+02
 0.22991975358E+02 0.22997892773E+02 0.21885461717E+02 0.20161780872E+02 0.18026246290E+02
 0.15687557064E+02 0.13325769224E+02 0.11081097976E+02 0.90514717145E+01 0.72944371928E+01
 0.58309118540E+01 0.46518101311E+01 0.37279851681E+01 0.30214310081E+01 0.24945697440E+01
 0.21156580981E+01 0.18605489697E+01 0.17124728392E+01 0.16614497463E+01 0.17039941172E+01
 0.18430317182E+01 0.20879286953E+01 0.24548038296E+01 0.29671494525E+01 0.36560788006E+01
 0.45587502185E+01 0.57134029161E+01 0.71504975840E+01 0.88815074180E+01 0.10888542273E+02
 0.13117364822E+02 0.15473669952E+02 0.17821167327E+02 0.19983253148E+02 0.21752887639E+02
 0.22927184646E+02 0.23360747227E+02 0.22542817560E+02 0.21196361583E+02 0.19344881682E+02
 0.17171069416E+02 0.14872694188E+02 0.12610832168E+02 0.10491699629E+02 0.85900937310E+01
 0.69519046608E+01 0.55936989647E+01 0.45054411611E+01 0.36584767683E+01 0.30162095503E+01
 0.25433218651E+01 0.22110776313E+01 0.19988689915E+01 0.18936945152E+01 0.18892116352E+01
 0.19851601125E+01 0.21873182246E+01 0.25080243712E+01 0.29671494525E+01 0.35927445443E+01
 0.44197351506E+01 0.54849491684E+01 0.68181752563E+01 0.84314813763E+01 0.10310858958E+02
 0.12413041963E+02 0.14665852252E+02 0.16966408169E+02 0.19159553207E+02 0.21047923958E+02
 0.22446524014E+02 0.23206051665E+02 0.23239456324E+02 0.21469983586E+02 0.20108677872E+02
 0.18347748434E+02 0.16314132545E+02 0.14160920966E+02 0.12050607843E+02 0.10077479637E+02
 0.83046024756E+01 0.67759980241E+01 0.55100761658E+01 0.44991086279E+01 0.37165043758E+01
 0.31279378695E+01 0.27010984421E+01 0.24110275316E+01 0.22411854980E+01 0.21823569342E+01
 0.22314409750E+01 0.23910055501E+01 0.26696888476E+01 0.30833238860E+01 0.36560788006E+01
 0.44197351506E+01 0.54088395736E+01 0.66512092611E+01 0.81566137803E+01 0.99089722144E+01
 0.11866310675E+02 0.13967115616E+02 0.16122531887E+02 0.18173683148E+02 0.19964668048E+02
 0.21366535918E+02 0.22271798375E+02 0.22602075544E+02 0.22326096640E+02 0.19777505670E+02
 0.18691480709E+02 0.17261604427E+02 0.15533217124E+02 0.13616192325E+02 0.11684725391E+02
 0.98582430375E+01 0.82026382157E+01 0.67684683833E+01 0.55798596235E+01 0.46327959687E+01
 0.39033233783E+01 0.33600069543E+01 0.29743359962E+01 0.27257093249E+01 0.26016832793E+01
 0.25964127427E+01 0.27095979496E+01 0.29465490466E+01 0.33191707925E+01 0.38473134110E+01
 0.45587502185E+01 0.54849491684E+01 0.66512092611E+01 0.80638952948E+01 0.97013541363E+01
 0.11514855447E+02 0.13439840397E+02 0.15365847306E+02 0.17117157129E+02 0.18576615172E+02
 0.19694142031E+02 0.20453981088E+02 0.20846783430E+02 0.20864017407E+02 0.20504944769E+02
 0.17733453041E+02 0.17211434175E+02 0.16298737012E+02 0.14964986457E+02 0.13310292663E+02
 0.11550029538E+02 0.98487324713E+01 0.82879393477E+01 0.69292962936E+01 0.58031754913E+01
 0.49085145125E+01 0.42236950833E+01 0.37207225270E+01 0.33755569097E+01 0.31720020541E+01
 0.31012205003E+01 0.31602819086E+01 0.33515883239E+01 0.36834406925E+01 0.41713720115E+01
 0.48387319132E+01 0.57134029161E+01 0.68181752563E+01 0.81566137803E+01 0.97013541363E+01
 0.11393072005E+02 0.13152333024E+02 0.14826507481E+02 0.16195611212E+02 0.17146871469E+02
 0.17700018168E+02 0.17962148450E+02 0.18058866140E+02 0.18081378799E+02 0.18063305319E+02
 0.17976155911E+02 0.15842700516E+02 0.16062055850E+02 0.15714773713E+02 0.14743828873E+02
 0.13296511765E+02 0.11662736088E+02 0.10049656290E+02 0.85571883050E+01 0.72567250031E+01
 0.61818038788E+01 0.53321140764E+01 0.46879251726E+01 0.42252178420E+01 0.39246664755E+01
 0.37740439150E+01 0.37675617146E+01 0.39050293156E+01 0.41917269844E+01 0.46391651903E+01
 0.52660159672E+01 0.60962183586E+01 0.71504975840E+01 0.84314813763E+01 0.99089722144E+01
 0.11514855447E+02 0.13152333024E+02 0.14629635985E+02 0.15652567395E+02 0.16056608248E+02
 0.15880638827E+02 0.15340858244E+02 0.14737925143E+02 0.14346151365E+02 0.14327975681E+02
 0.14690718946E+02 0.15284712080E+02 0.14676066841E+02 0.15603129832E+02 0.15688228054E+02
 0.14929098778E+02 0.13577591546E+02 0.12009221804E+02 0.10447199830E+02 0.90029011418E+01
 0.77505594082E+01 0.67218626232E+01 0.59153197520E+01 0.53131730422E+01 0.48957229036E+01
 0.46481766581E+01 0.45618836991E+01 0.46338814863E+01 0.48666416775E+01 0.52682635835E+01
 0.58529874206E+01 0.66402820715E+01 0.76485850739E+01 0.88815074180E+01 0.10310858958E+02
 0.11866310675E+02 0.13439840397E+02 0.14826507481E+02 0.15652567395E+02 0.15647544236E+02
 0.14788487120E+02 0.13328896268E+02 0.11723142619E+02 0.10477180213E+02 0.99836620674E+01
 0.10397795971E+02 0.11589384202E+02 0.13182919616E+02 0.14622453924E+02 0.15988745822E+02
 0.16227426046E+02 0.15470880967E+02 0.14103844482E+02 0.12553734910E+02 0.11021546536E+02
 0.96191968319E+01 0.84148962020E+01 0.74344735988E+01 0.66748750393E+01 0.61210004160E+01
 0.57577179579E+01 0.55747126512E+01 0.55669272586E+01 0.57340662685E+01 0.60806897247E+01
 0.66167562416E+01 0.73571725679E+01 0.83173488099E+01 0.95019769002E+01 0.10888542273E+02
 0.12413041963E+02 0.13967115616E+02 0.15365847306E+02 0.16195611212E+02 0.16056608248E+02
 0.14788487120E+02 0.12572562088E+02 0.99201702217E+01 0.75369470214E+01 0.61013667871E+01
 0.60360532620E+01 0.73603817385E+01 0.96837426416E+01 0.12342068311E+02 0.15700328097E+02
 0.17088800885E+02 0.17166220656E+02 0.16238857643E+02 0.14803632005E+02 0.13256150622E+02
 0.11756090845E+02 0.10404107123E+02 0.92562105288E+01 0.83313297112E+01 0.76260648733E+01
 0.71292744811E+01 0.68312555200E+01 0.67266851342E+01 0.68139667997E+01 0.70944236415E+01
 0.75729740326E+01 0.82589507324E+01 0.91636623484E+01 0.10291797747E+02 0.11627114315E+02
 0.13117364822E+02 0.14665852252E+02 0.16122531887E+02 0.17117157129E+02 0.17146871469E+02
 0.15880638827E+02 0.13328896268E+02 0.99201702217E+01 0.64369244574E+01 0.38004523730E+01
 0.27635418803E+01 0.36330114943E+01 0.61512668489E+01 0.95958908686E+01 0.13047545303E+02
 0.17548389275E+02 0.18555711582E+02 0.18251179390E+02 0.17093451267E+02 0.15611409158E+02
 0.14085045076E+02 0.12638991858E+02 0.11354916320E+02 0.10275417298E+02 0.94144355487E+01
 0.87708612646E+01 0.83400948407E+01 0.81198875082E+01 0.81103144126E+01 0.83115041052E+01
 0.87233513989E+01 0.93476657651E+01 0.10188840222E+02 0.11248796247E+02 0.12515682844E+02
 0.13949992870E+02 0.15473669952E+02 0.16966408169E+02 0.18173683148E+02 0.18576615172E+02
 0.17700018168E+02 0.15340858244E+02 0.11723142619E+02 0.75369470214E+01 0.38004523730E+01
 0.15470378611E+01 0.14439807684E+01 0.35225974305E+01 0.71650946986E+01 0.11355615579E+02
 0.15059470131E+02 0.19601760006E+02 0.19991962882E+02 0.19262224300E+02 0.17950393332E+02
 0.16481931021E+02 0.15017888023E+02 0.13656025983E+02 0.12457959646E+02 0.11455816100E+02
 0.10662870171E+02 0.10085120840E+02 0.97290549444E+01 0.96021290928E+01 0.97080666142E+01
 0.10043755964E+02 0.10601866012E+02 0.11375685674E+02 0.12359328570E+02 0.13540618401E+02
 0.14889682570E+02 0.16347993669E+02 0.17821167327E+02 0.19159553207E+02 0.19964668048E+02
 0.19694142031E+02 0.17962148450E+02 0.14737925143E+02 0.10477180213E+02 0.61013667871E+01
 0.27635418803E+01 0.14439807684E+01 0.25504313414E+01 0.57403898456E+01 0.10070730381E+02
 0.14385727377E+02 0.17729940794E+02 0.21340897989E+02 0.21115255610E+02 0.20095791506E+02
 0.18777070350E+02 0.17387782161E+02 0.16031514070E+02 0.14779533919E+02 0.13676990220E+02
 0.12751298304E+02 0.12022473546E+02 0.11511694762E+02 0.11242086106E+02 0.11230352715E+02
 0.11477263001E+02 0.11967195716E+02 0.12677236561E+02 0.13585987696E+02 0.14673566763E+02
 0.15913552439E+02 0.17262772218E+02 0.18652739578E+02 0.19983253148E+02 0.21047923958E+02
 0.21366535918E+02 0.20453981088E+02 0.18058866140E+02 0.14346151365E+02 0.99836620674E+01
 0.60360532620E+01 0.36330114943E+01 0.35225974305E+01 0.57403898456E+01 0.95929665272E+01
 0.13966270294E+02 0.17772596180E+02 0.20300345815E+02 0.22473270435E+02 0.21838440917E+02
 0.20768255574E+02 0.19555146407E+02 0.18305539166E+02 0.17090452814E+02 0.15958426992E+02
 0.14944379720E+02 0.14080258602E+02 0.13404796314E+02 0.12964926244E+02 0.12803307049E+02
 0.12938563163E+02 0.13354920959E+02 0.14011063489E+02 0.14859820238E+02 0.15861715155E+02
 0.16984507456E+02 0.18193818558E+02 0.19442652320E+02 0.20662561016E+02 0.21752887639E+02
 0.22446524014E+02 0.22271798375E+02 0.20846783430E+02 0.18081378799E+02 0.14327975681E+02
 0.10397795971E+02 0.73603817385E+01 0.61512668489E+01 0.71650946986E+01 0.10070730381E+02
 0.13966270294E+02 0.17775384796E+02 0.20651360049E+02 0.22198722964E+02 0.22978409061E+02
 0.22246882686E+02 0.21308906493E+02 0.20272823670E+02 0.19201809916E+02 0.18137721612E+02
 0.17111880914E+02 0.16158683053E+02 0.15328887849E+02 0.14692044185E+02 0.14333593609E+02
 0.14317597426E+02 0.14647169944E+02 0.15262455744E+02 0.16077907209E+02 0.17022281350E+02
 0.18043204364E+02 0.19105201703E+02 0.20177058629E+02 0.21218303579E+02 0.22168312878E+02
 0.22927184646E+02 0.23206051665E+02 0.22602075544E+02 0.20864017407E+02 0.18063305319E+02
 0.14690718946E+02 0.11589384202E+02 0.96837426416E+01 0.95958908686E+01 0.11355615579E+02
 0.14385727377E+02 0.17772596180E+02 0.20651360049E+02 0.22493757611E+02 0.23193185147E+02
 0.23037157598E+02 0.22454568043E+02 0.21728116761E+02 0.20908445014E+02 0.20023298123E+02
 0.19089079826E+02 0.18125756685E+02 0.17162009803E+02 0.16286583358E+02 0.15651442746E+02
 0.15404626078E+02 0.15611430242E+02 0.16216976662E+02 0.17077577856E+02 0.18038139562E+02
 0.19002859918E+02 0.19940684129E+02 0.20831074943E+02 0.21657554516E+02 0.22393822686E+02
 0.22991975358E+02 0.23360747227E+02 0.23239456324E+02 0.22326096640E+02 0.20504944769E+02
 0.17976155911E+02 0.15284712080E+02 0.13182919616E+02 0.12342068311E+02 0.13047545303E+02
 0.15059470131E+02 0.17729940794E+02 0.20300345815E+02 0.22198722964E+02 0.23193185147E+02
 0.23375393858E+02  
augmentation occupancies   1  33
  0.4228688E+00 -0.4134488E+00  0.6739800E-06 -0.2437207E-06  0.6739800E-06
 -0.6410620E-06  0.8237774E-06 -0.6410620E-06  0.2010160E+00 -0.1724485E-04
 -0.1506675E-04 -0.1724485E-04  0.9531144E-05  0.7423445E-05  0.9531144E-05
  0.8504246E+00 -0.3871385E-06  0.8162432E-06  0.7548197E-08  0.8162432E-06
 -0.1582983E-16 -0.9121606E+00 -0.2201721E-04 -0.2545769E-04  0.1295376E-07
 -0.2545769E-04 -0.9482579E-17  0.2884959E+00  0.1231989E-04  0.1398005E-04
 -0.9288371E-08  0.1398005E-04  0.3357286E-17
augmentation occupancies   2  33
  0.4228688E+00 -0.4134488E+00 -0.6739800E-06  0.2437207E-06 -0.6739800E-06
  0.6410620E-06 -0.8237774E-06  0.6410620E-06  0.2010160E+00  0.1724485E-04
  0.1506675E-04  0.1724485E-04 -0.9531144E-05 -0.7423445E-05 -0.9531144E-05
  0.8504246E+00 -0.3871385E-06  0.8162432E-06  0.7548197E-08  0.8162432E-06
  0.6382672E-17 -0.9121606E+00 -0.2201721E-04 -0.2545769E-04  0.1295376E-07
 -0.2545769E-04 -0.4064887E-17  0.2884959E+00  0.1231989E-04  0.1398005E-04
 -0.9288371E-08  0.1398005E-04  0.7856945E-17
