perturbed cd Si                         
   5.50000000000000     
     0.0000000000000000    0.5000000000000000    0.5000000000000000
     0.5000000000000000    0.0000000000000000    0.5000000000000000
     0.5000000000000000    0.5000000000000000    0.0000000000000000
   Si
     2
Direct
  0.8749999622918534  0.8749999622918534  0.8775016213375280
  0.1250000377081465  0.1250000377081465  0.1274983786624745
 
  0.00000000E+00  0.00000000E+00  0.00000000E+00
  0.00000000E+00  0.00000000E+00  0.00000000E+00
