   2   2   0   0
  0.2079688E+02  0.3889087E-09  0.3889087E-09  0.3889087E-09  0.5000000E-15
  1.000000000000000E-004
  CAR 
 perturbed cd Si                         
     29.83822555     -7.97108464  301      5.77677885      1.00000000
     -7.971  0.0000E+00  0.0000E+00
     -7.845  0.0000E+00  0.0000E+00
     -7.719  0.0000E+00  0.0000E+00
     -7.593  0.0000E+00  0.0000E+00
     -7.467  0.0000E+00  0.0000E+00
     -7.341  0.0000E+00  0.0000E+00
     -7.215  0.0000E+00  0.0000E+00
     -7.089  0.0000E+00  0.0000E+00
     -6.963  0.0000E+00  0.0000E+00
     -6.837  0.6618E-19  0.8341E-20
     -6.711  0.5423E-13  0.6835E-14
     -6.585  0.1562E-08  0.1969E-09
     -6.459  0.2164E-05  0.2729E-06
     -6.333  0.2000E-03  0.2547E-04
     -6.207  0.3275E-02  0.4382E-03
     -6.081  0.1143E-01  0.1878E-02
     -5.955  0.1537E-01  0.3816E-02
     -5.829  0.2778E-01  0.7317E-02
     -5.703  0.1781E-01  0.9562E-02
     -5.576  0.3185E-01  0.1358E-01
     -5.450  0.3771E-01  0.1833E-01
     -5.324  0.3554E-01  0.2281E-01
     -5.198  0.2603E-01  0.2609E-01
     -5.072  0.4596E-01  0.3188E-01
     -4.946  0.5710E-01  0.3908E-01
     -4.820  0.4567E-01  0.4483E-01
     -4.694  0.4078E-01  0.4997E-01
     -4.568  0.3787E-01  0.5475E-01
     -4.442  0.8002E-01  0.6483E-01
     -4.316  0.7613E-01  0.7443E-01
     -4.190  0.5844E-01  0.8179E-01
     -4.064  0.5027E-01  0.8813E-01
     -3.938  0.8236E-01  0.9851E-01
     -3.812  0.1325E+00  0.1152E+00
     -3.686  0.7220E-01  0.1243E+00
     -3.560  0.7086E-01  0.1332E+00
     -3.434  0.4875E-01  0.1394E+00
     -3.308  0.1026E+00  0.1523E+00
     -3.182  0.7686E-01  0.1620E+00
     -3.056  0.3816E-01  0.1668E+00
     -2.930  0.4226E-01  0.1721E+00
     -2.804  0.7836E-01  0.1820E+00
     -2.678  0.5120E-01  0.1885E+00
     -2.552  0.2171E-01  0.1912E+00
     -2.426  0.2375E-01  0.1942E+00
     -2.300  0.3105E-01  0.1981E+00
     -2.174  0.2078E-01  0.2007E+00
     -2.048  0.1242E-01  0.2023E+00
     -1.922  0.1869E-01  0.2046E+00
     -1.796  0.1331E-01  0.2063E+00
     -1.670  0.2460E-01  0.2094E+00
     -1.544  0.6410E-01  0.2175E+00
     -1.417  0.7896E-01  0.2275E+00
     -1.291  0.5258E-01  0.2341E+00
     -1.165  0.1307E+00  0.2506E+00
     -1.039  0.1368E+00  0.2678E+00
     -0.913  0.9856E-01  0.2802E+00
     -0.787  0.9527E-01  0.2922E+00
     -0.661  0.3516E-01  0.2967E+00
     -0.535  0.7058E-01  0.3056E+00
     -0.409  0.7647E-01  0.3152E+00
     -0.283  0.3365E-01  0.3194E+00
     -0.157  0.4850E-01  0.3256E+00
     -0.031  0.4727E-01  0.3315E+00
      0.095  0.2827E-01  0.3351E+00
      0.221  0.4823E-01  0.3412E+00
      0.347  0.4193E-01  0.3464E+00
      0.473  0.2483E-01  0.3496E+00
      0.599  0.2563E-01  0.3528E+00
      0.725  0.4528E-01  0.3585E+00
      0.851  0.1944E-01  0.3610E+00
      0.977  0.1492E-02  0.3611E+00
      1.103  0.1948E-01  0.3636E+00
      1.229  0.6689E-01  0.3720E+00
      1.355  0.6090E-01  0.3797E+00
      1.481  0.9935E-01  0.3922E+00
      1.607  0.8990E-01  0.4036E+00
      1.733  0.1021E+00  0.4164E+00
      1.859  0.1568E+00  0.4362E+00
      1.985  0.1057E+00  0.4495E+00
      2.111  0.8309E-01  0.4600E+00
      2.237  0.9892E-01  0.4724E+00
      2.363  0.1140E+00  0.4868E+00
      2.489  0.1576E+00  0.5067E+00
      2.616  0.1117E+00  0.5207E+00
      2.742  0.1144E+00  0.5352E+00
      2.868  0.1923E+00  0.5594E+00
      2.994  0.1773E+00  0.5817E+00
      3.120  0.9689E-01  0.5939E+00
      3.246  0.1605E+00  0.6142E+00
      3.372  0.1606E+00  0.6344E+00
      3.498  0.8749E-01  0.6454E+00
      3.624  0.1468E+00  0.6639E+00
      3.750  0.1779E+00  0.6864E+00
      3.876  0.1181E+00  0.7012E+00
      4.002  0.1188E+00  0.7162E+00
      4.128  0.1285E+00  0.7324E+00
      4.254  0.6921E-01  0.7411E+00
      4.380  0.1138E+00  0.7555E+00
      4.506  0.8965E-01  0.7668E+00
      4.632  0.6235E-01  0.7746E+00
      4.758  0.7241E-01  0.7837E+00
      4.884  0.3261E-01  0.7879E+00
      5.010  0.3173E-01  0.7919E+00
      5.136  0.2539E-01  0.7951E+00
      5.262  0.1295E-01  0.7967E+00
      5.388  0.2018E-01  0.7992E+00
      5.514  0.5447E-02  0.7999E+00
      5.640  0.6500E-03  0.8000E+00
      5.766  0.1177E-04  0.8000E+00
      5.892  0.6416E-05  0.8000E+00
      6.018  0.8148E-03  0.8001E+00
      6.144  0.7509E-02  0.8010E+00
      6.270  0.1392E-01  0.8028E+00
      6.396  0.2917E-01  0.8065E+00
      6.522  0.3273E-01  0.8106E+00
      6.649  0.3405E-01  0.8149E+00
      6.775  0.3293E-01  0.8190E+00
      6.901  0.7925E-01  0.8290E+00
      7.027  0.6531E-01  0.8373E+00
      7.153  0.9452E-01  0.8492E+00
      7.279  0.1251E+00  0.8649E+00
      7.405  0.1058E+00  0.8783E+00
      7.531  0.1327E+00  0.8950E+00
      7.657  0.1331E+00  0.9118E+00
      7.783  0.1753E+00  0.9339E+00
      7.909  0.1150E+00  0.9484E+00
      8.035  0.1443E+00  0.9666E+00
      8.161  0.1448E+00  0.9848E+00
      8.287  0.1004E+00  0.9975E+00
      8.413  0.1047E+00  0.1011E+01
      8.539  0.9816E-01  0.1023E+01
      8.665  0.1853E+00  0.1046E+01
      8.791  0.2458E+00  0.1077E+01
      8.917  0.2028E+00  0.1103E+01
      9.043  0.1679E+00  0.1124E+01
      9.169  0.1803E+00  0.1147E+01
      9.295  0.1788E+00  0.1169E+01
      9.421  0.9042E-01  0.1181E+01
      9.547  0.8771E-01  0.1192E+01
      9.673  0.1303E+00  0.1208E+01
      9.799  0.1255E+00  0.1224E+01
      9.925  0.6215E-01  0.1232E+01
     10.051  0.1567E+00  0.1252E+01
     10.177  0.2594E+00  0.1284E+01
     10.303  0.1629E+00  0.1305E+01
     10.429  0.1243E+00  0.1321E+01
     10.555  0.1249E+00  0.1336E+01
     10.682  0.8432E-01  0.1347E+01
     10.808  0.7765E-01  0.1357E+01
     10.934  0.7809E-01  0.1367E+01
     11.060  0.1116E+00  0.1381E+01
     11.186  0.1436E+00  0.1399E+01
     11.312  0.7909E-01  0.1409E+01
     11.438  0.8925E-01  0.1420E+01
     11.564  0.1377E+00  0.1437E+01
     11.690  0.1691E+00  0.1459E+01
     11.816  0.1386E+00  0.1476E+01
     11.942  0.8568E-01  0.1487E+01
     12.068  0.1223E+00  0.1502E+01
     12.194  0.1098E+00  0.1516E+01
     12.320  0.1081E+00  0.1530E+01
     12.446  0.6527E-01  0.1538E+01
     12.572  0.1148E+00  0.1552E+01
     12.698  0.1160E+00  0.1567E+01
     12.824  0.8643E-01  0.1578E+01
     12.950  0.1389E+00  0.1595E+01
     13.076  0.1670E+00  0.1616E+01
     13.202  0.1648E+00  0.1637E+01
     13.328  0.1512E+00  0.1656E+01
     13.454  0.2096E+00  0.1683E+01
     13.580  0.1079E+00  0.1696E+01
     13.706  0.4584E-01  0.1702E+01
     13.832  0.1003E+00  0.1715E+01
     13.958  0.9627E-01  0.1727E+01
     14.084  0.1485E+00  0.1746E+01
     14.210  0.1142E+00  0.1760E+01
     14.336  0.1060E+00  0.1773E+01
     14.462  0.8107E-01  0.1784E+01
     14.588  0.1062E+00  0.1797E+01
     14.715  0.1696E+00  0.1818E+01
     14.841  0.1661E+00  0.1839E+01
     14.967  0.2065E+00  0.1865E+01
     15.093  0.1620E+00  0.1886E+01
     15.219  0.1875E+00  0.1909E+01
     15.345  0.1888E+00  0.1933E+01
     15.471  0.1234E+00  0.1949E+01
     15.597  0.6316E-01  0.1957E+01
     15.723  0.9901E-01  0.1969E+01
     15.849  0.7704E-01  0.1979E+01
     15.975  0.1302E+00  0.1995E+01
     16.101  0.1135E+00  0.2010E+01
     16.227  0.7199E-01  0.2019E+01
     16.353  0.1035E+00  0.2032E+01
     16.479  0.1482E+00  0.2050E+01
     16.605  0.1191E+00  0.2065E+01
     16.731  0.1356E+00  0.2082E+01
     16.857  0.1486E+00  0.2101E+01
     16.983  0.1797E+00  0.2124E+01
     17.109  0.2283E+00  0.2153E+01
     17.235  0.1755E+00  0.2175E+01
     17.361  0.1370E+00  0.2192E+01
     17.487  0.1082E+00  0.2206E+01
     17.613  0.1248E+00  0.2221E+01
     17.739  0.1666E+00  0.2242E+01
     17.865  0.1908E+00  0.2266E+01
     17.991  0.1240E+00  0.2282E+01
     18.117  0.7061E-01  0.2291E+01
     18.243  0.1082E+00  0.2305E+01
     18.369  0.1643E+00  0.2325E+01
     18.495  0.1882E+00  0.2349E+01
     18.621  0.2033E+00  0.2375E+01
     18.747  0.1760E+00  0.2397E+01
     18.874  0.1485E+00  0.2415E+01
     19.000  0.2480E+00  0.2447E+01
     19.126  0.2296E+00  0.2476E+01
     19.252  0.1608E+00  0.2496E+01
     19.378  0.1676E+00  0.2517E+01
     19.504  0.1215E+00  0.2532E+01
     19.630  0.9018E-01  0.2544E+01
     19.756  0.1269E+00  0.2560E+01
     19.882  0.1485E+00  0.2578E+01
     20.008  0.1377E+00  0.2596E+01
     20.134  0.1020E+00  0.2609E+01
     20.260  0.1318E+00  0.2625E+01
     20.386  0.2084E+00  0.2652E+01
     20.512  0.2046E+00  0.2677E+01
     20.638  0.1827E+00  0.2700E+01
     20.764  0.1599E+00  0.2720E+01
     20.890  0.1188E+00  0.2735E+01
     21.016  0.8674E-01  0.2746E+01
     21.142  0.1593E+00  0.2766E+01
     21.268  0.2125E+00  0.2793E+01
     21.394  0.1248E+00  0.2809E+01
     21.520  0.1067E+00  0.2822E+01
     21.646  0.1457E+00  0.2841E+01
     21.772  0.1160E+00  0.2855E+01
     21.898  0.1405E+00  0.2873E+01
     22.024  0.1580E+00  0.2893E+01
     22.150  0.1497E+00  0.2912E+01
     22.276  0.1610E+00  0.2932E+01
     22.402  0.1324E+00  0.2949E+01
     22.528  0.1208E+00  0.2964E+01
     22.654  0.1414E+00  0.2982E+01
     22.780  0.2145E+00  0.3009E+01
     22.907  0.2480E+00  0.3040E+01
     23.033  0.1793E+00  0.3063E+01
     23.159  0.1242E+00  0.3078E+01
     23.285  0.1849E+00  0.3102E+01
     23.411  0.1639E+00  0.3122E+01
     23.537  0.8473E-01  0.3133E+01
     23.663  0.1008E+00  0.3146E+01
     23.789  0.7133E-01  0.3155E+01
     23.915  0.7763E-01  0.3165E+01
     24.041  0.5787E-01  0.3172E+01
     24.167  0.4215E-01  0.3177E+01
     24.293  0.1496E-01  0.3179E+01
     24.419  0.4842E-02  0.3180E+01
     24.545  0.2855E-01  0.3183E+01
     24.671  0.5640E-01  0.3190E+01
     24.797  0.1985E-01  0.3193E+01
     24.923  0.9979E-03  0.3193E+01
     25.049  0.9523E-02  0.3194E+01
     25.175  0.1632E-01  0.3196E+01
     25.301  0.2330E-02  0.3197E+01
     25.427  0.2843E-04  0.3197E+01
     25.553  0.7565E-03  0.3197E+01
     25.679  0.5409E-02  0.3197E+01
     25.805  0.3219E-02  0.3198E+01
     25.931  0.1464E-03  0.3198E+01
     26.057  0.3850E-06  0.3198E+01
     26.183  0.5884E-08  0.3198E+01
     26.309  0.9274E-05  0.3198E+01
     26.435  0.7733E-03  0.3198E+01
     26.561  0.4295E-02  0.3198E+01
     26.687  0.2007E-02  0.3199E+01
     26.813  0.2065E-03  0.3199E+01
     26.940  0.3133E-02  0.3199E+01
     27.066  0.5465E-02  0.3200E+01
     27.192  0.7950E-03  0.3200E+01
     27.318  0.7518E-05  0.3200E+01
     27.444  0.3680E-08  0.3200E+01
     27.570  0.8388E-13  0.3200E+01
     27.696  0.1212E-11  0.3200E+01
     27.822  0.1503E-07  0.3200E+01
     27.948  0.8974E-05  0.3200E+01
     28.074  0.2992E-03  0.3200E+01
     28.200  0.7311E-03  0.3200E+01
     28.326  0.1509E-03  0.3200E+01
     28.452  0.2108E-05  0.3200E+01
     28.578  0.1559E-08  0.3200E+01
     28.704  0.5422E-13  0.3200E+01
     28.830  0.0000E+00  0.3200E+01
     28.956  0.0000E+00  0.3200E+01
     29.082  0.0000E+00  0.3200E+01
     29.208  0.0000E+00  0.3200E+01
     29.334  0.0000E+00  0.3200E+01
     29.460  0.0000E+00  0.3200E+01
     29.586  0.0000E+00  0.3200E+01
     29.712  0.0000E+00  0.3200E+01
     29.838  0.0000E+00  0.3200E+01
