    2    2   10    1
  0.2079688E+02  0.3889087E-09  0.3889087E-09  0.3889087E-09  0.5000000E-15
  1.000000000000000E-004
  CAR 
 perturbed cd Si                         
      8    366     16
 
  0.0000000E+00  0.0000000E+00  0.0000000E+00  0.7513148E-03
    1       -6.252480   1.000000
    2        5.448044   0.999998
    3        5.448104   0.999998
    4        5.448166   0.999998
    5        7.998259   0.000000
    6        7.998296   0.000000
    7        7.998326   0.000000
    8        8.387866   0.000000
    9       13.152480   0.000000
   10       13.152480   0.000000
   11       13.259217   0.000000
   12       16.575279   0.000000
   13       16.575321   0.000000
   14       16.575355   0.000000
   15       20.616367   0.000000
   16       28.119621   0.000000
 
  0.9090909E-01  0.0000000E+00  0.0000000E+00  0.3005259E-02
    1       -6.147722   1.000000
    2        4.462327   1.000000
    3        5.287235   1.000000
    4        5.287328   1.000000
    5        7.948654   0.000000
    6        8.235697   0.000000
    7        8.235751   0.000000
    8        9.253678   0.000000
    9       12.853823   0.000000
   10       12.853825   0.000000
   11       13.698990   0.000000
   12       16.215809   0.000000
   13       17.220970   0.000000
   14       17.221028   0.000000
   15       21.304437   0.000000
   16       26.968156   0.000000
 
  0.1818182E+00  0.0000000E+00  0.0000000E+00  0.3005259E-02
    1       -5.837661   1.000000
    2        2.816801   1.000000
    3        4.957073   1.000000
    4        4.957158   1.000000
    5        7.615056   0.000000
    6        8.697456   0.000000
    7        8.697521   0.000000
    8       10.858167   0.000000
    9       12.508000   0.000000
   10       12.508019   0.000000
   11       14.442081   0.000000
   12       16.050011   0.000000
   13       18.669238   0.000000
   14       18.669290   0.000000
   15       22.759545   0.000000
   16       24.622123   0.000000
 
  0.2727273E+00  0.0000000E+00  0.0000000E+00  0.3005259E-02
    1       -5.339050   1.000000
    2        1.200365   1.000000
    3        4.641631   1.000000
    4        4.641711   1.000000
    5        7.266927   0.000000
    6        8.955664   0.000000
    7        8.955749   0.000000
    8       12.433861   0.000000
    9       12.774542   0.000000
   10       12.774584   0.000000
   11       14.247631   0.000000
   12       17.516268   0.000000
   13       20.144122   0.000000
   14       20.144147   0.000000
   15       22.613727   0.000000
   16       22.613784   0.000000
 
  0.3636364E+00  0.0000000E+00  0.0000000E+00  0.3005259E-02
    1       -4.703338   1.000000
    2       -0.211586   1.000000
    3        4.414820   1.000000
    4        4.414899   1.000000
    5        7.007401   0.000000
    6        8.916936   0.000000
    7        8.917030   0.000000
    8       13.244037   0.000000
    9       13.790205   0.000000
   10       13.790257   0.000000
   11       14.656126   0.000000
   12       19.080081   0.000000
   13       19.207007   0.000000
   14       19.207071   0.000000
   15       21.695431   0.000000
   16       23.433191   0.000000
 
  0.4545455E+00  0.0000000E+00  0.0000000E+00  0.3005259E-02
    1       -4.121295   1.000000
    2       -1.188852   1.000000
    3        4.298948   1.000000
    4        4.299027   1.000000
    5        6.872073   0.000000
    6        8.821061   0.000000
    7        8.821157   0.000000
    8       13.150804   0.000000
    9       15.286054   0.000000
   10       15.286107   0.000000
   11       16.085898   0.000000
   12       17.252164   0.000000
   13       17.252236   0.000000
   14       18.337459   0.000000
   15       23.341233   0.000000
   16       25.652514   0.000000
 
  0.9090909E-01  0.9090909E-01  0.0000000E+00  0.1502630E-02
    1       -6.112590   1.000000
    2        4.613336   1.000000
    3        4.975802   1.000000
    4        4.975803   1.000000
    5        7.688820   0.000000
    6        8.643009   0.000000
    7        8.643013   0.000000
    8        9.157970   0.000000
    9       12.303506   0.000000
   10       13.308488   0.000000
   11       13.847204   0.000000
   12       16.821361   0.000000
   13       16.821367   0.000000
   14       17.166072   0.000000
   15       21.597055   0.000000
   16       26.522337   0.000000
 
  0.1818182E+00  0.9090909E-01  0.0000000E+00  0.3005259E-02
    1       -5.870172   1.000000
    2        3.290933   1.000000
    3        4.591723   1.000000
    4        4.754793   1.000000
    5        7.717735   0.000000
    6        8.627013   0.000000
    7        9.218693   0.000000
    8       10.220243   0.000000
    9       12.011722   0.000000
   10       13.267045   0.000000
   11       14.645376   0.000000
   12       16.421884   0.000000
   13       17.648550   0.000000
   14       18.532838   0.000000
   15       22.877588   0.000000
   16       24.493622   0.000000
 
  0.2727273E+00  0.9090909E-01  0.0000000E+00  0.3005259E-02
    1       -5.431806   1.000000
    2        1.714308   1.000000
    3        4.280809   1.000000
    4        4.389715   1.000000
    5        7.798111   0.000000
    6        8.655163   0.000000
    7        9.572994   0.000000
    8       10.751437   0.000000
    9       12.979836   0.000000
   10       13.444144   0.000000
   11       14.876590   0.000000
   12       17.098210   0.000000
   13       19.068394   0.000000
   14       20.250170   0.000000
   15       22.239651   0.000000
   16       22.739613   0.000000
 
  0.3636364E+00  0.9090909E-01  0.0000000E+00  0.3005259E-02
    1       -4.831982   1.000000
    2        0.251225   1.000000
    3        4.017322   1.000000
    4        4.097192   1.000000
    5        7.619929   0.000000
    6        8.737054   0.000000
    7        9.526230   0.000000
    8       11.511310   0.000000
    9       14.223432   0.000000
   10       14.318906   0.000000
   11       14.796360   0.000000
   12       18.614750   0.000000
   13       18.915549   0.000000
   14       20.364295   0.000000
   15       22.074081   0.000000
   16       22.361150   0.000000
 
  0.4545455E+00  0.9090909E-01  0.0000000E+00  0.3005259E-02
    1       -4.190561   1.000000
    2       -0.899873   1.000000
    3        3.727963   1.000000
    4        4.055497   1.000000
    5        7.471193   0.000000
    6        8.718385   0.000000
    7        9.307490   0.000000
    8       12.721733   0.000000
    9       14.156887   0.000000
   10       15.703084   0.000000
   11       16.289084   0.000000
   12       17.024003   0.000000
   13       17.755067   0.000000
   14       20.010383   0.000000
   15       22.569103   0.000000
   16       24.142654   0.000000
 
 -0.4545455E+00  0.9090909E-01  0.0000000E+00  0.3005259E-02
    1       -3.935160   1.000000
    2       -1.283445   1.000000
    3        3.557306   1.000000
    4        4.151957   1.000000
    5        7.438322   0.000000
    6        8.780250   0.000000
    7        9.130535   0.000000
    8       13.433694   0.000000
    9       14.659464   0.000000
   10       14.998032   0.000000
   11       16.210114   0.000000
   12       17.606619   0.000000
   13       17.910111   0.000000
   14       18.611810   0.000000
   15       23.939305   0.000000
   16       25.076759   0.000000
 
 -0.3636364E+00  0.9090909E-01  0.0000000E+00  0.3005259E-02
    1       -4.394359   1.000000
    2       -0.565610   1.000000
    3        3.525795   1.000000
    4        4.371256   1.000000
    5        7.533645   0.000000
    6        8.965597   0.000000
    7        9.049858   0.000000
    8       13.086781   0.000000
    9       13.396844   0.000000
   10       14.523466   0.000000
   11       16.444142   0.000000
   12       17.135846   0.000000
   13       19.566286   0.000000
   14       19.658492   0.000000
   15       21.837129   0.000000
   16       23.329093   0.000000
 
 -0.2727273E+00  0.9090909E-01  0.0000000E+00  0.3005259E-02
    1       -5.047267   1.000000
    2        0.718915   1.000000
    3        3.648497   1.000000
    4        4.685286   1.000000
    5        7.746158   0.000000
    6        8.969669   0.000000
    7        9.160570   0.000000
    8       12.015854   0.000000
    9       12.253887   0.000000
   10       14.696662   0.000000
   11       14.830354   0.000000
   12       17.978513   0.000000
   13       19.333873   0.000000
   14       21.149074   0.000000
   15       21.150151   0.000000
   16       22.737151   0.000000
 
 -0.1818182E+00  0.9090909E-01  0.0000000E+00  0.3005259E-02
    1       -5.599465   1.000000
    2        2.223838   1.000000
    3        3.943389   1.000000
    4        5.038928   1.000000
    5        8.041864   0.000000
    6        8.680584   0.000000
    7        9.016111   0.000000
    8       11.103142   0.000000
    9       11.855683   0.000000
   10       13.520727   0.000000
   11       14.990946   0.000000
   12       16.600269   0.000000
   13       18.385884   0.000000
   14       20.151635   0.000000
   15       22.262147   0.000000
   16       23.522021   0.000000
 
 -0.9090909E-01  0.9090909E-01  0.0000000E+00  0.1502630E-02
    1       -5.974217   1.000000
    2        3.658126   1.000000
    3        4.497006   1.000000
    4        5.306600   1.000000
    5        8.270377   0.000000
    6        8.287276   0.000000
    7        8.440591   0.000000
    8       10.165928   0.000000
    9       12.186377   0.000000
   10       13.005231   0.000000
   11       14.328962   0.000000
   12       16.411114   0.000000
   13       17.109731   0.000000
   14       18.502971   0.000000
   15       22.267498   0.000000
   16       24.633750   0.000000
 
  0.1818182E+00  0.1818182E+00  0.0000000E+00  0.1502630E-02
    1       -5.695553   1.000000
    2        3.116745   1.000000
    3        4.172661   1.000000
    4        4.172661   1.000000
    5        7.061391   0.000000
    6        9.462129   0.000000
    7        9.952618   0.000000
    8        9.952622   0.000000
    9       12.024850   0.000000
   10       13.774711   0.000000
   11       15.288353   0.000000
   12       17.536950   0.000000
   13       17.536956   0.000000
   14       18.128235   0.000000
   15       23.988033   0.000000
   16       24.131745   0.000000
 
  0.2727273E+00  0.1818182E+00  0.0000000E+00  0.3005259E-02
    1       -5.320941   1.000000
    2        1.994296   1.000000
    3        3.759148   1.000000
    4        3.839200   1.000000
    5        7.111714   0.000000
    6        9.098871   0.000000
    7       10.235910   0.000000
    8       10.527046   0.000000
    9       13.174747   0.000000
   10       14.086051   0.000000
   11       16.046231   0.000000
   12       17.479698   0.000000
   13       18.414469   0.000000
   14       19.666603   0.000000
   15       22.175061   0.000000
   16       22.609033   0.000000
 
  0.3636364E+00  0.1818182E+00  0.0000000E+00  0.3005259E-02
    1       -4.769300   1.000000
    2        0.668694   1.000000
    3        3.237663   1.000000
    4        3.646916   1.000000
    5        7.342499   0.000000
    6        9.450656   0.000000
    7       10.037604   0.000000
    8       10.622522   0.000000
    9       14.872957   0.000000
   10       14.880671   0.000000
   11       15.834996   0.000000
   12       18.502757   0.000000
   13       18.679858   0.000000
   14       20.285917   0.000000
   15       21.241955   0.000000
   16       22.479866   0.000000
 
  0.4545455E+00  0.1818182E+00  0.0000000E+00  0.3005259E-02
    1       -4.115362   1.000000
    2       -0.524543   1.000000
    3        2.773152   1.000000
    4        3.613805   1.000000
    5        7.379364   0.000000
    6        9.788563   0.000000
    7       10.389258   0.000000
    8       10.660982   0.000000
    9       15.242321   0.000000
   10       16.177756   0.000000
   11       16.695845   0.000000
   12       16.930256   0.000000
   13       17.928543   0.000000
   14       21.283482   0.000000
   15       22.902132   0.000000
   16       23.006435   0.000000
 
 -0.4545455E+00  0.1818182E+00  0.0000000E+00  0.3005259E-02
    1       -3.656387   1.000000
    2       -1.203204   1.000000
    3        2.448608   1.000000
    4        3.739054   1.000000
    5        7.469528   0.000000
    6        9.672006   0.000000
    7       10.110493   0.000000
    8       12.244460   0.000000
    9       14.386779   0.000000
   10       14.872325   0.000000
   11       16.779805   0.000000
   12       18.029039   0.000000
   13       18.590633   0.000000
   14       20.805108   0.000000
   15       23.829726   0.000000
   16       24.074232   0.000000
 
 -0.3636364E+00  0.1818182E+00  0.0000000E+00  0.3005259E-02
    1       -3.927508   1.000000
    2       -0.810055   1.000000
    3        2.304517   1.000000
    4        4.006965   1.000000
    5        7.702578   0.000000
    6        9.672122   0.000000
    7        9.888169   0.000000
    8       13.020222   0.000000
    9       13.189507   0.000000
   10       13.964926   0.000000
   11       16.676606   0.000000
   12       18.965564   0.000000
   13       19.977623   0.000000
   14       20.120778   0.000000
   15       21.597775   0.000000
   16       23.916117   0.000000
 
 -0.2727273E+00  0.1818182E+00  0.0000000E+00  0.3005259E-02
    1       -4.571757   1.000000
    2        0.263780   1.000000
    3        2.392619   1.000000
    4        4.380692   1.000000
    5        8.042836   0.000000
    6        9.636036   0.000000
    7        9.733481   0.000000
    8       11.644380   0.000000
    9       11.983777   0.000000
   10       15.387336   0.000000
   11       17.021464   0.000000
   12       17.368795   0.000000
   13       19.142365   0.000000
   14       21.140003   0.000000
   15       21.809427   0.000000
   16       22.681800   0.000000
 
 -0.1818182E+00  0.1818182E+00  0.0000000E+00  0.1502630E-02
    1       -5.166604   1.000000
    2        1.417765   1.000000
    3        2.869335   1.000000
    4        4.780161   1.000000
    5        8.338027   0.000000
    6        9.149504   0.000000
    7        9.428580   0.000000
    8       10.983672   0.000000
    9       11.570635   0.000000
   10       15.190971   0.000000
   11       15.891455   0.000000
   12       16.988439   0.000000
   13       18.977900   0.000000
   14       20.214065   0.000000
   15       21.689606   0.000000
   16       23.619041   0.000000
 
  0.2727273E+00  0.2727273E+00  0.0000000E+00  0.1502630E-02
    1       -5.009738   1.000000
    2        1.526495   1.000000
    3        3.472980   1.000000
    4        3.472981   1.000000
    5        6.490410   0.000000
    6        8.265110   0.000000
    7       11.475938   0.000000
    8       11.475942   0.000000
    9       13.616487   0.000000
   10       14.552535   0.000000
   11       17.100750   0.000000
   12       18.528452   0.000000
   13       18.528460   0.000000
   14       19.340444   0.000000
   15       22.067561   0.000000
   16       22.067566   0.000000
 
  0.3636364E+00  0.2727273E+00  0.0000000E+00  0.3005259E-02
    1       -4.513014   1.000000
    2        0.598856   1.000000
    3        2.954775   1.000000
    4        3.247654   1.000000
    5        6.620888   0.000000
    6        7.984490   0.000000
    7       11.739087   0.000000
    8       11.941444   0.000000
    9       15.055294   0.000000
   10       15.271867   0.000000
   11       17.328279   0.000000
   12       18.571819   0.000000
   13       19.035542   0.000000
   14       19.985380   0.000000
   15       21.060032   0.000000
   16       21.971450   0.000000
 
  0.4545455E+00  0.2727273E+00  0.0000000E+00  0.3005259E-02
    1       -3.876946   1.000000
    2       -0.395828   1.000000
    3        2.253103   1.000000
    4        3.187111   1.000000
    5        6.822492   0.000000
    6        8.709543   0.000000
    7       11.568859   0.000000
    8       11.826320   0.000000
    9       16.267034   0.000000
   10       16.589351   0.000000
   11       16.928179   0.000000
   12       16.965921   0.000000
   13       18.918897   0.000000
   14       20.799669   0.000000
   15       21.944619   0.000000
   16       23.523703   0.000000
 
 -0.4545455E+00  0.2727273E+00  0.0000000E+00  0.3005259E-02
    1       -3.289642   1.000000
    2       -1.164434   1.000000
    3        1.699357   1.000000
    4        3.295126   1.000000
    5        6.953009   0.000000
    6       10.157356   0.000000
    7       11.395215   0.000000
    8       11.512983   0.000000
    9       14.738699   0.000000
   10       14.917935   0.000000
   11       18.395216   0.000000
   12       18.401043   0.000000
   13       18.801674   0.000000
   14       22.710096   0.000000
   15       22.754887   0.000000
   16       23.206379   0.000000
 
 -0.3636364E+00  0.2727273E+00  0.0000000E+00  0.3005259E-02
    1       -3.345203   1.000000
    2       -1.086820   1.000000
    3        1.426990   1.000000
    4        3.560015   1.000000
    5        7.229144   0.000000
    6       11.163188   0.000000
    7       11.174961   0.000000
    8       12.033175   0.000000
    9       13.044351   0.000000
   10       13.212461   0.000000
   11       18.354394   0.000000
   12       20.258064   0.000000
   13       20.349525   0.000000
   14       21.099409   0.000000
   15       21.711188   0.000000
   16       22.918202   0.000000
 
 -0.2727273E+00  0.2727273E+00  0.0000000E+00  0.1502630E-02
    1       -3.954073   1.000000
    2       -0.354072   1.000000
    3        1.585675   1.000000
    4        3.948274   1.000000
    5        7.649797   0.000000
    6       10.567327   0.000000
    7       10.907588   0.000000
    8       11.675328   0.000000
    9       12.162613   0.000000
   10       13.971659   0.000000
   11       18.312672   0.000000
   12       18.972175   0.000000
   13       19.358258   0.000000
   14       21.927137   0.000000
   15       22.051938   0.000000
   16       22.656842   0.000000
 
  0.3636364E+00  0.3636364E+00  0.0000000E+00  0.1502630E-02
    1       -4.070632   1.000000
    2       -0.048384   1.000000
    3        2.981016   1.000000
    4        2.981016   1.000000
    5        6.148569   0.000000
    6        7.164409   0.000000
    7       13.095429   0.000000
    8       13.095434   0.000000
    9       15.500696   0.000000
   10       15.637360   0.000000
   11       18.399843   0.000000
   12       18.399851   0.000000
   13       18.640466   0.000000
   14       20.678310   0.000000
   15       20.965498   0.000000
   16       21.834945   0.000000
 
  0.4545455E+00  0.3636364E+00  0.0000000E+00  0.3005259E-02
    1       -3.469354   1.000000
    2       -0.839895   1.000000
    3        2.470267   1.000000
    4        2.878556   1.000000
    5        6.355881   0.000000
    6        7.169254   0.000000
    7       13.399842   0.000000
    8       13.429816   0.000000
    9       16.671734   0.000000
   10       16.746875   0.000000
   11       17.030010   0.000000
   12       17.157464   0.000000
   13       19.690051   0.000000
   14       20.309702   0.000000
   15       20.950834   0.000000
   16       22.969700   0.000000
 
 -0.4545455E+00  0.3636364E+00  0.0000000E+00  0.3005259E-02
    1       -2.821274   1.000000
    2       -1.534402   1.000000
    3        1.726589   1.000000
    4        2.948836   1.000000
    5        6.525450   0.000000
    6        8.314970   0.000000
    7       13.159115   0.000000
    8       13.261260   0.000000
    9       14.979255   0.000000
   10       15.133719   0.000000
   11       18.540773   0.000000
   12       18.750483   0.000000
   13       20.465660   0.000000
   14       20.547654   0.000000
   15       21.106304   0.000000
   16       23.269983   0.000000
 
 -0.3636364E+00  0.3636364E+00  0.0000000E+00  0.1502630E-02
    1       -2.766286   1.000000
    2       -1.559942   1.000000
    3        1.262056   1.000000
    4        3.184944   1.000000
    5        6.792594   0.000000
    6        9.998914   0.000000
    7       12.487256   0.000000
    8       13.005120   0.000000
    9       13.187068   0.000000
   10       13.676258   0.000000
   11       19.875439   0.000000
   12       20.349224   0.000000
   13       20.642873   0.000000
   14       20.833501   0.000000
   15       20.913626   0.000000
   16       22.458187   0.000000
 
  0.4545455E+00  0.4545455E+00  0.0000000E+00  0.1502630E-02
    1       -2.903267   1.000000
    2       -1.545331   1.000000
    3        2.729430   1.000000
    4        2.729430   1.000000
    5        6.116801   0.000001
    6        6.444340   0.000000
    7       14.732051   0.000000
    8       14.732056   0.000000
    9       16.829152   0.000000
   10       16.829159   0.000000
   11       17.028425   0.000000
   12       17.277639   0.000000
   13       18.631029   0.000000
   14       18.711879   0.000000
   15       23.004322   0.000000
   16       23.777133   0.000000
 
 -0.4545455E+00  0.4545455E+00  0.0000000E+00  0.1502630E-02
    1       -2.280969   1.000000
    2       -2.168863   1.000000
    3        2.310208   1.000000
    4        2.753604   1.000000
    5        6.297201   0.000000
    6        6.860687   0.000000
    7       14.654380   0.000000
    8       14.860286   0.000000
    9       15.451443   0.000000
   10       15.671061   0.000000
   11       18.411758   0.000000
   12       18.453707   0.000000
   13       18.464688   0.000000
   14       19.013222   0.000000
   15       23.041366   0.000000
   16       23.364764   0.000000
 
  0.0000000E+00  0.0000000E+00  0.9090909E-01  0.1502630E-02
    1       -6.147723   1.000000
    2        4.462370   1.000000
    3        5.287231   1.000000
    4        5.287284   1.000000
    5        7.948630   0.000000
    6        8.235720   0.000000
    7        8.235748   0.000000
    8        9.253686   0.000000
    9       12.853829   0.000000
   10       12.853831   0.000000
   11       13.698991   0.000000
   12       16.215771   0.000000
   13       17.221000   0.000000
   14       17.221030   0.000000
   15       21.304432   0.000000
   16       26.968147   0.000000
 
  0.9090909E-01  0.0000000E+00  0.9090909E-01  0.3005259E-02
    1       -6.112590   1.000000
    2        4.613336   1.000000
    3        4.975770   1.000000
    4        4.975835   1.000000
    5        7.688820   0.000000
    6        8.642999   0.000000
    7        8.643024   0.000000
    8        9.157970   0.000000
    9       12.303506   0.000000
   10       13.308488   0.000000
   11       13.847204   0.000000
   12       16.821337   0.000000
   13       16.821391   0.000000
   14       17.166072   0.000000
   15       21.597055   0.000000
   16       26.522348   0.000000
 
  0.1818182E+00  0.0000000E+00  0.9090909E-01  0.3005259E-02
    1       -5.870172   1.000000
    2        3.290921   1.000000
    3        4.591694   1.000000
    4        4.754839   1.000000
    5        7.717733   0.000000
    6        8.626998   0.000000
    7        9.218712   0.000000
    8       10.220245   0.000000
    9       12.011716   0.000000
   10       13.267039   0.000000
   11       14.645372   0.000000
   12       16.421886   0.000000
   13       17.648581   0.000000
   14       18.532811   0.000000
   15       22.877591   0.000000
   16       24.493599   0.000000
 
  0.2727273E+00  0.0000000E+00  0.9090909E-01  0.3005259E-02
    1       -5.431805   1.000000
    2        1.714301   1.000000
    3        4.280781   1.000000
    4        4.389754   1.000000
    5        7.798113   0.000000
    6        8.655132   0.000000
    7        9.573021   0.000000
    8       10.751455   0.000000
    9       12.979826   0.000000
   10       13.444130   0.000000
   11       14.876581   0.000000
   12       17.098218   0.000000
   13       19.068422   0.000000
   14       20.250146   0.000000
   15       22.239631   0.000000
   16       22.739611   0.000000
 
  0.3636364E+00  0.0000000E+00  0.9090909E-01  0.3005259E-02
    1       -4.831982   1.000000
    2        0.251220   1.000000
    3        4.017357   1.000000
    4        4.097163   1.000000
    5        7.619929   0.000000
    6        8.737019   0.000000
    7        9.526263   0.000000
    8       11.511334   0.000000
    9       14.223415   0.000000
   10       14.318889   0.000000
   11       14.796360   0.000000
   12       18.614751   0.000000
   13       18.915542   0.000000
   14       20.364309   0.000000
   15       22.074096   0.000000
   16       22.361142   0.000000
 
  0.4545455E+00  0.0000000E+00  0.9090909E-01  0.3005259E-02
    1       -4.190561   1.000000
    2       -0.899875   1.000000
    3        3.727994   1.000000
    4        4.055468   1.000000
    5        7.471192   0.000000
    6        8.718353   0.000000
    7        9.307526   0.000000
    8       12.721753   0.000000
    9       14.156875   0.000000
   10       15.703072   0.000000
   11       16.289086   0.000000
   12       17.023980   0.000000
   13       17.755066   0.000000
   14       20.010407   0.000000
   15       22.569102   0.000000
   16       24.142678   0.000000
 
 -0.4545455E+00  0.0000000E+00  0.9090909E-01  0.3005259E-02
    1       -3.935161   1.000000
    2       -1.283445   1.000000
    3        3.557335   1.000000
    4        4.151925   1.000000
    5        7.438321   0.000000
    6        8.780220   0.000000
    7        9.130573   0.000000
    8       13.433695   0.000000
    9       14.659462   0.000000
   10       14.998020   0.000000
   11       16.210137   0.000000
   12       17.606596   0.000000
   13       17.910111   0.000000
   14       18.611821   0.000000
   15       23.939299   0.000000
   16       25.076758   0.000000
 
 -0.3636364E+00  0.0000000E+00  0.9090909E-01  0.3005259E-02
    1       -4.394360   1.000000
    2       -0.565606   1.000000
    3        3.525820   1.000000
    4        4.371222   1.000000
    5        7.533644   0.000000
    6        8.965567   0.000000
    7        9.049899   0.000000
    8       13.086771   0.000000
    9       13.396829   0.000000
   10       14.523472   0.000000
   11       16.444163   0.000000
   12       17.135867   0.000000
   13       19.566267   0.000000
   14       19.658479   0.000000
   15       21.837126   0.000000
   16       23.329093   0.000000
 
 -0.2727273E+00  0.0000000E+00  0.9090909E-01  0.3005259E-02
    1       -5.047269   1.000000
    2        0.718922   1.000000
    3        3.648518   1.000000
    4        4.685250   1.000000
    5        7.746157   0.000000
    6        8.969710   0.000000
    7        9.160541   0.000000
    8       12.015846   0.000000
    9       12.253874   0.000000
   10       14.696665   0.000000
   11       14.830383   0.000000
   12       17.978513   0.000000
   13       19.333865   0.000000
   14       21.149077   0.000000
   15       21.150150   0.000000
   16       22.737159   0.000000
 
 -0.1818182E+00  0.0000000E+00  0.9090909E-01  0.3005259E-02
    1       -5.599466   1.000000
    2        2.223851   1.000000
    3        3.943403   1.000000
    4        5.038889   1.000000
    5        8.041864   0.000000
    6        8.680618   0.000000
    7        9.016085   0.000000
    8       11.103134   0.000000
    9       11.855679   0.000000
   10       13.520753   0.000000
   11       14.990953   0.000000
   12       16.600257   0.000000
   13       18.385865   0.000000
   14       20.151654   0.000000
   15       22.262172   0.000000
   16       23.522016   0.000000
 
 -0.9090909E-01  0.0000000E+00  0.9090909E-01  0.3005259E-02
    1       -5.974218   1.000000
    2        3.658159   1.000000
    3        4.497001   1.000000
    4        5.306559   1.000000
    5        8.270372   0.000000
    6        8.287302   0.000000
    7        8.440572   0.000000
    8       10.165931   0.000000
    9       12.186382   0.000000
   10       13.005246   0.000000
   11       14.328964   0.000000
   12       16.411089   0.000000
   13       17.109726   0.000000
   14       18.502993   0.000000
   15       22.267490   0.000000
   16       24.633775   0.000000
 
  0.9090909E-01  0.9090909E-01  0.9090909E-01  0.1502630E-02
    1       -6.147722   1.000000
    2        4.462286   1.000000
    3        5.287279   1.000000
    4        5.287333   1.000000
    5        7.948675   0.000000
    6        8.235700   0.000000
    7        8.235734   0.000000
    8        9.253669   0.000000
    9       12.853818   0.000000
   10       12.853818   0.000000
   11       13.698989   0.000000
   12       16.215841   0.000000
   13       17.220968   0.000000
   14       17.221005   0.000000
   15       21.304441   0.000000
   16       26.968031   0.000000
 
  0.1818182E+00  0.9090909E-01  0.9090909E-01  0.3005259E-02
    1       -5.974217   1.000000
    2        3.658094   1.000000
    3        4.497009   1.000000
    4        5.306640   1.000000
    5        8.270384   0.000000
    6        8.287255   0.000000
    7        8.440606   0.000000
    8       10.165927   0.000000
    9       12.186373   0.000000
   10       13.005208   0.000000
   11       14.328959   0.000000
   12       16.411136   0.000000
   13       17.109733   0.000000
   14       18.502954   0.000000
   15       22.267504   0.000000
   16       24.633674   0.000000
 
  0.2727273E+00  0.9090909E-01  0.9090909E-01  0.3005259E-02
    1       -5.599464   1.000000
    2        2.223825   1.000000
    3        3.943374   1.000000
    4        5.038966   1.000000
    5        8.041867   0.000000
    6        8.680554   0.000000
    7        9.016133   0.000000
    8       11.103155   0.000000
    9       11.855692   0.000000
   10       13.520690   0.000000
   11       14.990939   0.000000
   12       16.600282   0.000000
   13       18.385894   0.000000
   14       20.151621   0.000000
   15       22.262090   0.000000
   16       23.522030   0.000000
 
  0.3636364E+00  0.9090909E-01  0.9090909E-01  0.3005259E-02
    1       -5.047266   1.000000
    2        0.718909   1.000000
    3        3.648476   1.000000
    4        4.685321   1.000000
    5        7.746160   0.000000
    6        8.969630   0.000000
    7        9.160598   0.000000
    8       12.015862   0.000000
    9       12.253909   0.000000
   10       14.696660   0.000000
   11       14.830311   0.000000
   12       17.978517   0.000000
   13       19.333841   0.000000
   14       21.149073   0.000000
   15       21.150173   0.000000
   16       22.737154   0.000000
 
  0.4545455E+00  0.9090909E-01  0.9090909E-01  0.3005259E-02
    1       -4.394358   1.000000
    2       -0.565613   1.000000
    3        3.525771   1.000000
    4        4.371289   1.000000
    5        7.533649   0.000000
    6        8.965624   0.000000
    7        9.049817   0.000000
    8       13.086791   0.000000
    9       13.396873   0.000000
   10       14.523453   0.000000
   11       16.444104   0.000000
   12       17.135809   0.000000
   13       19.566329   0.000000
   14       19.658496   0.000000
   15       21.837143   0.000000
   16       23.329089   0.000000
 
 -0.4545455E+00  0.9090909E-01  0.9090909E-01  0.3005259E-02
    1       -3.935159   1.000000
    2       -1.283446   1.000000
    3        3.557279   1.000000
    4        4.151988   1.000000
    5        7.438327   0.000000
    6        8.780277   0.000000
    7        9.130495   0.000000
    8       13.433692   0.000000
    9       14.659448   0.000000
   10       14.998064   0.000000
   11       16.210095   0.000000
   12       17.606660   0.000000
   13       17.910091   0.000000
   14       18.611795   0.000000
   15       23.939323   0.000000
   16       25.076734   0.000000
 
 -0.3636364E+00  0.9090909E-01  0.9090909E-01  0.3005259E-02
    1       -4.190562   1.000000
    2       -0.899871   1.000000
    3        3.727933   1.000000
    4        4.055526   1.000000
    5        7.471198   0.000000
    6        8.718413   0.000000
    7        9.307452   0.000000
    8       12.721700   0.000000
    9       14.156895   0.000000
   10       15.703118   0.000000
   11       16.289087   0.000000
   12       17.024041   0.000000
   13       17.755062   0.000000
   14       20.010339   0.000000
   15       22.569095   0.000000
   16       24.142628   0.000000
 
 -0.2727273E+00  0.9090909E-01  0.9090909E-01  0.3005259E-02
    1       -4.831983   1.000000
    2        0.251229   1.000000
    3        4.017289   1.000000
    4        4.097220   1.000000
    5        7.619933   0.000000
    6        8.737084   0.000000
    7        9.526196   0.000000
    8       11.511277   0.000000
    9       14.223449   0.000000
   10       14.318937   0.000000
   11       14.796360   0.000000
   12       18.614744   0.000000
   13       18.915583   0.000000
   14       20.364289   0.000000
   15       22.074068   0.000000
   16       22.361129   0.000000
 
 -0.1818182E+00  0.9090909E-01  0.9090909E-01  0.3005259E-02
    1       -5.431806   1.000000
    2        1.714315   1.000000
    3        4.280837   1.000000
    4        4.389676   1.000000
    5        7.798113   0.000000
    6        8.655187   0.000000
    7        9.572968   0.000000
    8       10.751412   0.000000
    9       12.979847   0.000000
   10       13.444167   0.000000
   11       14.876599   0.000000
   12       17.098201   0.000000
   13       19.068377   0.000000
   14       20.250191   0.000000
   15       22.239693   0.000000
   16       22.739618   0.000000
 
 -0.9090909E-01  0.9090909E-01  0.9090909E-01  0.3005259E-02
    1       -5.870172   1.000000
    2        3.290944   1.000000
    3        4.591752   1.000000
    4        4.754748   1.000000
    5        7.717739   0.000000
    6        8.627023   0.000000
    7        9.218678   0.000000
    8       10.220238   0.000000
    9       12.011729   0.000000
   10       13.267056   0.000000
   11       14.645380   0.000000
   12       16.421882   0.000000
   13       17.648525   0.000000
   14       18.532860   0.000000
   15       22.877585   0.000000
   16       24.493682   0.000000
 
  0.1818182E+00  0.1818182E+00  0.9090909E-01  0.1502630E-02
    1       -5.870171   1.000000
    2        3.290892   1.000000
    3        4.591720   1.000000
    4        4.754846   1.000000
    5        7.717738   0.000000
    6        8.627005   0.000000
    7        9.218714   0.000000
    8       10.220240   0.000000
    9       12.011705   0.000000
   10       13.267024   0.000000
   11       14.645370   0.000000
   12       16.421915   0.000000
   13       17.648561   0.000000
   14       18.532810   0.000000
   15       22.877596   0.000000
   16       24.493559   0.000000
 
  0.2727273E+00  0.1818182E+00  0.9090909E-01  0.3005259E-02
    1       -5.562147   1.000000
    2        2.436216   1.000000
    3        3.685555   1.000000
    4        4.647071   1.000000
    5        7.778737   0.000000
    6        8.930509   0.000000
    7        9.753245   0.000000
    8       10.189839   0.000000
    9       12.329970   0.000000
   10       13.766890   0.000000
   11       15.477564   0.000000
   12       16.828196   0.000000
   13       17.964133   0.000000
   14       19.836048   0.000000
   15       22.245466   0.000000
   16       23.873281   0.000000
 
  0.3636364E+00  0.1818182E+00  0.9090909E-01  0.3005259E-02
    1       -5.066300   1.000000
    2        1.155756   1.000000
    3        3.132630   1.000000
    4        4.340075   1.000000
    5        8.070700   0.000000
    6        8.914723   0.000000
    7       10.089388   0.000000
    8       10.307437   0.000000
    9       12.889210   0.000000
   10       15.105748   0.000000
   11       15.670276   0.000000
   12       17.544180   0.000000
   13       19.097724   0.000000
   14       20.506507   0.000000
   15       21.163964   0.000000
   16       23.123812   0.000000
 
  0.4545455E+00  0.1818182E+00  0.9090909E-01  0.3005259E-02
    1       -4.431953   1.000000
    2       -0.141409   1.000000
    3        2.873767   1.000000
    4        4.010213   1.000000
    5        8.077748   0.000000
    6        8.775555   0.000000
    7       10.177724   0.000000
    8       11.127208   0.000000
    9       13.959027   0.000000
   10       15.132319   0.000000
   11       16.818294   0.000000
   12       17.184783   0.000000
   13       19.348169   0.000000
   14       20.483170   0.000000
   15       21.999479   0.000000
   16       22.895850   0.000000
 
 -0.4545455E+00  0.1818182E+00  0.9090909E-01  0.3005259E-02
    1       -3.844936   1.000000
    2       -1.083933   1.000000
    3        2.771626   1.000000
    4        3.808898   1.000000
    5        8.034502   0.000000
    6        8.607122   0.000000
    7       10.119188   0.000000
    8       12.550131   0.000000
    9       14.061736   0.000000
   10       15.211678   0.000000
   11       16.418474   0.000000
   12       17.769677   0.000000
   13       18.641344   0.000000
   14       20.420031   0.000000
   15       22.846581   0.000000
   16       24.620587   0.000000
 
 -0.3636364E+00  0.1818182E+00  0.9090909E-01  0.3005259E-02
    1       -3.844937   1.000000
    2       -1.083930   1.000000
    3        2.771629   1.000000
    4        3.808891   1.000000
    5        8.034509   0.000000
    6        8.607117   0.000000
    7       10.119189   0.000000
    8       12.550096   0.000000
    9       14.061766   0.000000
   10       15.211678   0.000000
   11       16.418494   0.000000
   12       17.769668   0.000000
   13       18.641388   0.000000
   14       20.419983   0.000000
   15       22.846560   0.000000
   16       24.620603   0.000000
 
 -0.2727273E+00  0.1818182E+00  0.9090909E-01  0.3005259E-02
    1       -4.431955   1.000000
    2       -0.141400   1.000000
    3        2.873774   1.000000
    4        4.010194   1.000000
    5        8.077766   0.000000
    6        8.775545   0.000000
    7       10.177724   0.000000
    8       11.127175   0.000000
    9       13.959031   0.000000
   10       15.132333   0.000000
   11       16.818339   0.000000
   12       17.184813   0.000000
   13       19.348166   0.000000
   14       20.483149   0.000000
   15       21.999455   0.000000
   16       22.895831   0.000000
 
 -0.1818182E+00  0.1818182E+00  0.9090909E-01  0.3005259E-02
    1       -5.066302   1.000000
    2        1.155772   1.000000
    3        3.132634   1.000000
    4        4.340047   1.000000
    5        8.070718   0.000000
    6        8.914714   0.000000
    7       10.089376   0.000000
    8       10.307420   0.000000
    9       12.889211   0.000000
   10       15.105789   0.000000
   11       15.670293   0.000000
   12       17.544163   0.000000
   13       19.097740   0.000000
   14       20.506521   0.000000
   15       21.163973   0.000000
   16       23.123821   0.000000
 
 -0.9090909E-01  0.1818182E+00  0.9090909E-01  0.3005259E-02
    1       -5.562148   1.000000
    2        2.436244   1.000000
    3        3.685551   1.000000
    4        4.647038   1.000000
    5        7.778743   0.000000
    6        8.930500   0.000000
    7        9.753246   0.000000
    8       10.189825   0.000000
    9       12.329974   0.000000
   10       13.766929   0.000000
   11       15.477571   0.000000
   12       16.828173   0.000000
   13       17.964128   0.000000
   14       19.836060   0.000000
   15       22.245526   0.000000
   16       23.873282   0.000000
 
  0.2727273E+00  0.2727273E+00  0.9090909E-01  0.1502630E-02
    1       -5.320939   1.000000
    2        1.994262   1.000000
    3        3.759189   1.000000
    4        3.839198   1.000000
    5        7.111712   0.000000
    6        9.098857   0.000000
    7       10.235930   0.000000
    8       10.527075   0.000000
    9       13.174722   0.000000
   10       14.086017   0.000000
   11       16.046220   0.000000
   12       17.479729   0.000000
   13       18.414485   0.000000
   14       19.666583   0.000000
   15       22.175005   0.000000
   16       22.609006   0.000000
 
  0.3636364E+00  0.2727273E+00  0.9090909E-01  0.3005259E-02
    1       -4.886359   1.000000
    2        1.161479   1.000000
    3        2.992351   1.000000
    4        3.679551   1.000000
    5        7.235121   0.000000
    6        8.742013   0.000000
    7       10.336622   0.000000
    8       11.362848   0.000000
    9       13.762363   0.000000
   10       15.233383   0.000000
   11       16.712569   0.000000
   12       17.805830   0.000000
   13       19.052239   0.000000
   14       20.480485   0.000000
   15       20.555804   0.000000
   16       22.726167   0.000000
 
  0.4545455E+00  0.2727273E+00  0.9090909E-01  0.3005259E-02
    1       -4.290064   1.000000
    2        0.115370   1.000000
    3        2.431165   1.000000
    4        3.380475   1.000000
    5        7.590325   0.000000
    6        9.148828   0.000000
    7       10.026532   0.000000
    8       11.748826   0.000000
    9       14.625319   0.000000
   10       15.970667   0.000000
   11       17.033744   0.000000
   12       17.796801   0.000000
   13       19.348536   0.000000
   14       19.958022   0.000000
   15       21.565622   0.000000
   16       23.268819   0.000000
 
 -0.4545455E+00  0.2727273E+00  0.9090909E-01  0.3005259E-02
    1       -3.644063   1.000000
    2       -0.854096   1.000000
    3        2.052341   1.000000
    4        3.232099   1.000000
    5        7.721413   0.000000
    6        9.666000   0.000000
    7       10.461612   0.000000
    8       11.706690   0.000000
    9       14.323485   0.000000
   10       15.976790   0.000000
   11       16.979988   0.000000
   12       18.213002   0.000000
   13       18.938095   0.000000
   14       21.569726   0.000000
   15       22.886151   0.000000
   16       23.632513   0.000000
 
 -0.3636364E+00  0.2727273E+00  0.9090909E-01  0.3005259E-02
    1       -3.391108   1.000000
    2       -1.186322   1.000000
    3        1.830352   1.000000
    4        3.317778   1.000000
    5        7.924510   0.000000
    6        9.406172   0.000000
    7       11.591879   0.000000
    8       12.122555   0.000000
    9       12.587205   0.000000
   10       15.302022   0.000000
   11       17.443846   0.000000
   12       18.245296   0.000000
   13       20.718979   0.000000
   14       21.222568   0.000000
   15       22.452723   0.000000
   16       23.388967   0.000000
 
 -0.2727273E+00  0.2727273E+00  0.9090909E-01  0.3005259E-02
    1       -3.874517   1.000000
    2       -0.527532   1.000000
    3        1.826993   1.000000
    4        3.601248   1.000000
    5        8.267086   0.000000
    6        9.224519   0.000000
    7       10.906336   0.000000
    8       11.541149   0.000000
    9       13.804549   0.000000
   10       14.046653   0.000000
   11       17.682167   0.000000
   12       19.177061   0.000000
   13       19.786997   0.000000
   14       20.298018   0.000000
   15       22.618906   0.000000
   16       22.914103   0.000000
 
 -0.1818182E+00  0.2727273E+00  0.9090909E-01  0.3005259E-02
    1       -4.524712   1.000000
    2        0.421165   1.000000
    3        2.198494   1.000000
    4        3.998960   1.000000
    5        8.673827   0.000000
    6        8.813658   0.000000
    7       10.061968   0.000000
    8       11.081342   0.000000
    9       12.901452   0.000000
   10       15.713337   0.000000
   11       17.119870   0.000000
   12       17.799786   0.000000
   13       18.762845   0.000000
   14       21.015529   0.000000
   15       21.321589   0.000000
   16       23.793986   0.000000
 
 -0.9090909E-01  0.2727273E+00  0.9090909E-01  0.3005259E-02
    1       -5.066302   1.000000
    2        1.155763   1.000000
    3        3.132655   1.000000
    4        4.340034   1.000000
    5        8.070716   0.000000
    6        8.914668   0.000000
    7       10.089399   0.000000
    8       10.307488   0.000000
    9       12.889165   0.000000
   10       15.105788   0.000000
   11       15.670275   0.000000
   12       17.544177   0.000000
   13       19.097746   0.000000
   14       20.506547   0.000000
   15       21.163925   0.000000
   16       23.123787   0.000000
 
  0.3636364E+00  0.3636364E+00  0.9090909E-01  0.1502630E-02
    1       -4.513011   1.000000
    2        0.598834   1.000000
    3        2.954800   1.000000
    4        3.247653   1.000000
    5        6.620885   0.000000
    6        7.984484   0.000000
    7       11.739099   0.000000
    8       11.941481   0.000000
    9       15.055272   0.000000
   10       15.271825   0.000000
   11       17.328259   0.000000
   12       18.571810   0.000000
   13       19.035573   0.000000
   14       19.985383   0.000000
   15       21.060013   0.000000
   16       21.971410   0.000000
 
  0.4545455E+00  0.3636364E+00  0.9090909E-01  0.3005259E-02
    1       -3.966018   1.000000
    2       -0.181402   1.000000
    3        2.531867   1.000000
    4        2.911050   1.000000
    5        6.892219   0.000000
    6        7.744892   0.000000
    7       11.683260   0.000000
    8       13.062197   0.000000
    9       15.371277   0.000000
   10       16.507041   0.000000
   11       16.991565   0.000000
   12       18.493090   0.000000
   13       19.315509   0.000000
   14       20.013955   0.000000
   15       21.402931   0.000000
   16       21.979381   0.000000
 
 -0.4545455E+00  0.3636364E+00  0.9090909E-01  0.3005259E-02
    1       -3.310106   1.000000
    2       -0.979703   1.000000
    3        1.915646   1.000000
    4        2.739989   1.000000
    5        7.234860   0.000000
    6        8.530336   0.000000
    7       11.343709   0.000000
    8       13.411681   0.000000
    9       14.603658   0.000000
   10       16.425551   0.000000
   11       17.287000   0.000000
   12       18.959526   0.000000
   13       19.775272   0.000000
   14       20.303035   0.000000
   15       22.222888   0.000000
   16       22.750098   0.000000
 
 -0.3636364E+00  0.3636364E+00  0.9090909E-01  0.3005259E-02
    1       -2.863183   1.000000
    2       -1.457775   1.000000
    3        1.415919   1.000000
    4        2.851270   1.000000
    5        7.443586   0.000000
    6       10.070548   0.000000
    7       11.046713   0.000000
    8       12.613233   0.000000
    9       13.386067   0.000000
   10       15.391263   0.000000
   11       18.279515   0.000000
   12       19.522101   0.000000
   13       20.714861   0.000000
   14       21.181706   0.000000
   15       22.400367   0.000000
   16       23.284072   0.000000
 
 -0.2727273E+00  0.3636364E+00  0.9090909E-01  0.3005259E-02
    1       -3.235583   1.000000
    2       -1.068662   1.000000
    3        1.315724   1.000000
    4        3.162419   1.000000
    5        7.800534   0.000000
    6       10.463217   0.000000
    7       11.166047   0.000000
    8       12.050241   0.000000
    9       12.862362   0.000000
   10       14.075878   0.000000
   11       19.418569   0.000000
   12       19.675692   0.000000
   13       19.879537   0.000000
   14       21.612132   0.000000
   15       21.707017   0.000000
   16       22.798436   0.000000
 
 -0.1818182E+00  0.3636364E+00  0.9090909E-01  0.3005259E-02
    1       -3.874517   1.000000
    2       -0.527535   1.000000
    3        1.827009   1.000000
    4        3.601234   1.000000
    5        8.267094   0.000000
    6        9.224470   0.000000
    7       10.906358   0.000000
    8       11.541226   0.000000
    9       13.804499   0.000000
   10       14.046644   0.000000
   11       17.682151   0.000000
   12       19.177049   0.000000
   13       19.786966   0.000000
   14       20.298051   0.000000
   15       22.618947   0.000000
   16       22.914118   0.000000
 
 -0.9090909E-01  0.3636364E+00  0.9090909E-01  0.3005259E-02
    1       -4.431955   1.000000
    2       -0.141407   1.000000
    3        2.873810   1.000000
    4        4.010162   1.000000
    5        8.077766   0.000000
    6        8.775483   0.000000
    7       10.177792   0.000000
    8       11.127236   0.000000
    9       13.958960   0.000000
   10       15.132324   0.000000
   11       16.818340   0.000000
   12       17.184808   0.000000
   13       19.348123   0.000000
   14       20.483180   0.000000
   15       21.999460   0.000000
   16       22.895883   0.000000
 
  0.4545455E+00  0.4545455E+00  0.9090909E-01  0.1502630E-02
    1       -3.469349   1.000000
    2       -0.839908   1.000000
    3        2.470279   1.000000
    4        2.878556   1.000000
    5        6.355881   0.000000
    6        7.169249   0.000000
    7       13.399849   0.000000
    8       13.429856   0.000000
    9       16.671738   0.000000
   10       16.746833   0.000000
   11       17.029973   0.000000
   12       17.157414   0.000000
   13       19.690071   0.000000
   14       20.309755   0.000000
   15       20.950862   0.000000
   16       22.969712   0.000000
 
 -0.4545455E+00  0.4545455E+00  0.9090909E-01  0.3005259E-02
    1       -2.834115   1.000000
    2       -1.545086   1.000000
    3        2.347284   1.000000
    4        2.466030   1.000000
    5        6.831469   0.000000
    6        7.103358   0.000000
    7       13.184476   0.000000
    8       14.530505   0.000000
    9       15.216936   0.000000
   10       16.579732   0.000000
   11       17.289684   0.000000
   12       18.744621   0.000000
   13       18.908367   0.000000
   14       20.525175   0.000000
   15       21.808892   0.000000
   16       23.122646   0.000000
 
 -0.3636364E+00  0.4545455E+00  0.9090909E-01  0.3005259E-02
    1       -2.351701   1.000000
    2       -1.976397   1.000000
    3        1.718997   1.000000
    4        2.535406   1.000000
    5        7.108349   0.000000
    6        8.325303   0.000000
    7       12.745362   0.000000
    8       12.969912   0.000000
    9       14.976781   0.000000
   10       15.619719   0.000000
   11       18.161591   0.000000
   12       18.959484   0.000000
   13       20.647321   0.000000
   14       21.281648   0.000000
   15       21.898955   0.000000
   16       22.305744   0.000000
 
 -0.2727273E+00  0.4545455E+00  0.9090909E-01  0.3005259E-02
    1       -2.863189   1.000000
    2       -1.457766   1.000000
    3        1.415929   1.000000
    4        2.851255   1.000000
    5        7.443589   0.000000
    6       10.070549   0.000000
    7       11.046661   0.000000
    8       12.613262   0.000000
    9       13.386158   0.000000
   10       15.391193   0.000000
   11       18.279456   0.000000
   12       19.522099   0.000000
   13       20.714896   0.000000
   14       21.181818   0.000000
   15       22.400381   0.000000
   16       23.283964   0.000000
 
 -0.1818182E+00  0.4545455E+00  0.9090909E-01  0.3005259E-02
    1       -3.391111   1.000000
    2       -1.186320   1.000000
    3        1.830379   1.000000
    4        3.317747   1.000000
    5        7.924519   0.000000
    6        9.406118   0.000000
    7       11.591935   0.000000
    8       12.122546   0.000000
    9       12.587279   0.000000
   10       15.301948   0.000000
   11       17.443801   0.000000
   12       18.245273   0.000000
   13       20.719056   0.000000
   14       21.222574   0.000000
   15       22.452754   0.000000
   16       23.389026   0.000000
 
 -0.9090909E-01  0.4545455E+00  0.9090909E-01  0.3005259E-02
    1       -3.844938   1.000000
    2       -1.083932   1.000000
    3        2.771678   1.000000
    4        3.808839   1.000000
    5        8.034520   0.000000
    6        8.607048   0.000000
    7       10.119268   0.000000
    8       12.550150   0.000000
    9       14.061749   0.000000
   10       15.211631   0.000000
   11       16.418453   0.000000
   12       17.769644   0.000000
   13       18.641379   0.000000
   14       20.420056   0.000000
   15       22.846569   0.000000
   16       24.620623   0.000000
 
 -0.4545455E+00 -0.4545455E+00  0.9090909E-01  0.1502630E-02
    1       -2.280972   1.000000
    2       -2.168861   1.000000
    3        2.310208   1.000000
    4        2.753604   1.000000
    5        6.297206   0.000000
    6        6.860681   0.000000
    7       14.654386   0.000000
    8       14.860281   0.000000
    9       15.451438   0.000000
   10       15.671065   0.000000
   11       18.411762   0.000000
   12       18.453705   0.000000
   13       18.464693   0.000000
   14       19.013214   0.000000
   15       23.041379   0.000000
   16       23.364758   0.000000
 
 -0.3636364E+00 -0.4545455E+00  0.9090909E-01  0.3005259E-02
    1       -2.834127   1.000000
    2       -1.545067   1.000000
    3        2.347286   1.000000
    4        2.466017   1.000000
    5        6.831477   0.000000
    6        7.103353   0.000000
    7       13.184423   0.000000
    8       14.530503   0.000000
    9       15.217007   0.000000
   10       16.579720   0.000000
   11       17.289682   0.000000
   12       18.744621   0.000000
   13       18.908462   0.000000
   14       20.525076   0.000000
   15       21.808849   0.000000
   16       23.122666   0.000000
 
 -0.2727273E+00 -0.4545455E+00  0.9090909E-01  0.3005259E-02
    1       -3.310115   1.000000
    2       -0.979683   1.000000
    3        1.915659   1.000000
    4        2.739959   1.000000
    5        7.234868   0.000000
    6        8.530334   0.000000
    7       11.343654   0.000000
    8       13.411723   0.000000
    9       14.603736   0.000000
   10       16.425495   0.000000
   11       17.286933   0.000000
   12       18.959579   0.000000
   13       19.775320   0.000000
   14       20.303066   0.000000
   15       22.222819   0.000000
   16       22.750100   0.000000
 
 -0.1818182E+00 -0.4545455E+00  0.9090909E-01  0.3005259E-02
    1       -3.644069   1.000000
    2       -0.854085   1.000000
    3        2.052375   1.000000
    4        3.232052   1.000000
    5        7.721425   0.000000
    6        9.665945   0.000000
    7       10.461607   0.000000
    8       11.706758   0.000000
    9       14.323541   0.000000
   10       15.976718   0.000000
   11       16.979944   0.000000
   12       18.212980   0.000000
   13       18.938177   0.000000
   14       21.569741   0.000000
   15       22.886180   0.000000
   16       23.632545   0.000000
 
 -0.9090909E-01 -0.4545455E+00  0.9090909E-01  0.3005259E-02
    1       -3.844940   1.000000
    2       -1.083928   1.000000
    3        2.771681   1.000000
    4        3.808832   1.000000
    5        8.034526   0.000000
    6        8.607045   0.000000
    7       10.119268   0.000000
    8       12.550129   0.000000
    9       14.061768   0.000000
   10       15.211623   0.000000
   11       16.418476   0.000000
   12       17.769629   0.000000
   13       18.641405   0.000000
   14       20.420030   0.000000
   15       22.846563   0.000000
   16       24.620619   0.000000
 
 -0.3636364E+00 -0.3636364E+00  0.9090909E-01  0.1502630E-02
    1       -3.469358   1.000000
    2       -0.839882   1.000000
    3        2.470255   1.000000
    4        2.878557   1.000000
    5        6.355888   0.000000
    6        7.169249   0.000000
    7       13.399826   0.000000
    8       13.429786   0.000000
    9       16.671718   0.000000
   10       16.746917   0.000000
   11       17.030059   0.000000
   12       17.157513   0.000000
   13       19.690024   0.000000
   14       20.309653   0.000000
   15       20.950813   0.000000
   16       22.969695   0.000000
 
 -0.2727273E+00 -0.3636364E+00  0.9090909E-01  0.3005259E-02
    1       -3.966026   1.000000
    2       -0.181371   1.000000
    3        2.531864   1.000000
    4        2.911022   1.000000
    5        6.892230   0.000000
    6        7.744891   0.000000
    7       11.683203   0.000000
    8       13.062197   0.000000
    9       15.371287   0.000000
   10       16.507103   0.000000
   11       16.991637   0.000000
   12       18.493068   0.000000
   13       19.315525   0.000000
   14       20.013934   0.000000
   15       21.402913   0.000000
   16       21.979335   0.000000
 
 -0.1818182E+00 -0.3636364E+00  0.9090909E-01  0.3005259E-02
    1       -4.290070   1.000000
    2        0.115394   1.000000
    3        2.431191   1.000000
    4        3.380419   1.000000
    5        7.590341   0.000000
    6        9.148828   0.000000
    7       10.026470   0.000000
    8       11.748882   0.000000
    9       14.625273   0.000000
   10       15.970706   0.000000
   11       17.033819   0.000000
   12       17.796788   0.000000
   13       19.348493   0.000000
   14       19.958048   0.000000
   15       21.565613   0.000000
   16       23.268823   0.000000
 
 -0.9090909E-01 -0.3636364E+00  0.9090909E-01  0.3005259E-02
    1       -4.431957   1.000000
    2       -0.141397   1.000000
    3        2.873816   1.000000
    4        4.010142   1.000000
    5        8.077779   0.000000
    6        8.775479   0.000000
    7       10.177792   0.000000
    8       11.127211   0.000000
    9       13.958964   0.000000
   10       15.132331   0.000000
   11       16.818365   0.000000
   12       17.184825   0.000000
   13       19.348113   0.000000
   14       20.483159   0.000000
   15       21.999448   0.000000
   16       22.895891   0.000000
 
 -0.2727273E+00 -0.2727273E+00  0.9090909E-01  0.1502630E-02
    1       -4.513017   1.000000
    2        0.598878   1.000000
    3        2.954749   1.000000
    4        3.247656   1.000000
    5        6.620894   0.000000
    6        7.984490   0.000000
    7       11.739068   0.000000
    8       11.941417   0.000000
    9       15.055312   0.000000
   10       15.271910   0.000000
   11       17.328294   0.000000
   12       18.571842   0.000000
   13       19.035503   0.000000
   14       19.985374   0.000000
   15       21.060057   0.000000
   16       21.971475   0.000000
 
 -0.1818182E+00 -0.2727273E+00  0.9090909E-01  0.3005259E-02
    1       -4.886364   1.000000
    2        1.161525   1.000000
    3        2.992344   1.000000
    4        3.679504   1.000000
    5        7.235133   0.000000
    6        8.742023   0.000000
    7       10.336561   0.000000
    8       11.362851   0.000000
    9       13.762367   0.000000
   10       15.233464   0.000000
   11       16.712598   0.000000
   12       17.805779   0.000000
   13       19.052231   0.000000
   14       20.480490   0.000000
   15       20.555861   0.000000
   16       22.726199   0.000000
 
 -0.9090909E-01 -0.2727273E+00  0.9090909E-01  0.3005259E-02
    1       -5.066304   1.000000
    2        1.155781   1.000000
    3        3.132659   1.000000
    4        4.340005   1.000000
    5        8.070731   0.000000
    6        8.914665   0.000000
    7       10.089391   0.000000
    8       10.307473   0.000000
    9       12.889168   0.000000
   10       15.105815   0.000000
   11       15.670289   0.000000
   12       17.544163   0.000000
   13       19.097727   0.000000
   14       20.506558   0.000000
   15       21.163939   0.000000
   16       23.123800   0.000000
 
 -0.1818182E+00 -0.1818182E+00  0.9090909E-01  0.1502630E-02
    1       -5.320943   1.000000
    2        1.994329   1.000000
    3        3.759107   1.000000
    4        3.839202   1.000000
    5        7.111719   0.000000
    6        9.098883   0.000000
    7       10.235884   0.000000
    8       10.527025   0.000000
    9       13.174769   0.000000
   10       14.086085   0.000000
   11       16.046243   0.000000
   12       17.479659   0.000000
   13       18.414466   0.000000
   14       19.666617   0.000000
   15       22.175125   0.000000
   16       22.609049   0.000000
 
 -0.9090909E-01 -0.1818182E+00  0.9090909E-01  0.3005259E-02
    1       -5.562149   1.000000
    2        2.436274   1.000000
    3        3.685546   1.000000
    4        4.647004   1.000000
    5        7.778750   0.000000
    6        8.930493   0.000000
    7        9.753247   0.000000
    8       10.189815   0.000000
    9       12.329978   0.000000
   10       13.766958   0.000000
   11       15.477578   0.000000
   12       16.828149   0.000000
   13       17.964116   0.000000
   14       19.836075   0.000000
   15       22.245553   0.000000
   16       23.873282   0.000000
 
 -0.9090909E-01 -0.9090909E-01  0.9090909E-01  0.1502630E-02
    1       -5.870173   1.000000
    2        3.290973   1.000000
    3        4.591726   1.000000
    4        4.754741   1.000000
    5        7.717734   0.000000
    6        8.627015   0.000000
    7        9.218682   0.000000
    8       10.220242   0.000000
    9       12.011738   0.000000
   10       13.267067   0.000000
   11       14.645382   0.000000
   12       16.421847   0.000000
   13       17.648548   0.000000
   14       18.532861   0.000000
   15       22.877578   0.000000
   16       24.493696   0.000000
 
  0.0000000E+00  0.0000000E+00  0.1818182E+00  0.1502630E-02
    1       -5.837663   1.000000
    2        2.816834   1.000000
    3        4.957073   1.000000
    4        4.957121   1.000000
    5        7.615037   0.000000
    6        8.697468   0.000000
    7        8.697504   0.000000
    8       10.858181   0.000000
    9       12.508019   0.000000
   10       12.508033   0.000000
   11       14.442085   0.000000
   12       16.049975   0.000000
   13       18.669261   0.000000
   14       18.669286   0.000000
   15       22.759529   0.000000
   16       24.622140   0.000000
 
  0.9090909E-01  0.0000000E+00  0.1818182E+00  0.3005259E-02
    1       -5.870173   1.000000
    2        3.290962   1.000000
    3        4.591697   1.000000
    4        4.754786   1.000000
    5        7.717731   0.000000
    6        8.627005   0.000000
    7        9.218696   0.000000
    8       10.220247   0.000000
    9       12.011732   0.000000
   10       13.267056   0.000000
   11       14.645378   0.000000
   12       16.421849   0.000000
   13       17.648573   0.000000
   14       18.532839   0.000000
   15       22.877581   0.000000
   16       24.493637   0.000000
 
  0.1818182E+00  0.0000000E+00  0.1818182E+00  0.3005259E-02
    1       -5.695553   1.000000
    2        3.116745   1.000000
    3        4.172638   1.000000
    4        4.172685   1.000000
    5        7.061391   0.000000
    6        9.462129   0.000000
    7        9.952617   0.000000
    8        9.952624   0.000000
    9       12.024850   0.000000
   10       13.774711   0.000000
   11       15.288353   0.000000
   12       17.536925   0.000000
   13       17.536981   0.000000
   14       18.128235   0.000000
   15       23.988033   0.000000
   16       24.131753   0.000000
 
  0.2727273E+00  0.0000000E+00  0.1818182E+00  0.3005259E-02
    1       -5.320940   1.000000
    2        1.994282   1.000000
    3        3.759187   1.000000
    4        3.839178   1.000000
    5        7.111706   0.000000
    6        9.098869   0.000000
    7       10.235918   0.000000
    8       10.527062   0.000000
    9       13.174737   0.000000
   10       14.086038   0.000000
   11       16.046219   0.000000
   12       17.479705   0.000000
   13       18.414503   0.000000
   14       19.666580   0.000000
   15       22.175039   0.000000
   16       22.609033   0.000000
 
  0.3636364E+00  0.0000000E+00  0.1818182E+00  0.3005259E-02
    1       -4.769298   1.000000
    2        0.668683   1.000000
    3        3.237700   1.000000
    4        3.646893   1.000000
    5        7.342481   0.000000
    6        9.450656   0.000000
    7       10.037618   0.000000
    8       10.622547   0.000000
    9       14.872937   0.000000
   10       14.880659   0.000000
   11       15.834983   0.000000
   12       18.502768   0.000000
   13       18.679862   0.000000
   14       20.285922   0.000000
   15       21.241964   0.000000
   16       22.479838   0.000000
 
  0.4545455E+00  0.0000000E+00  0.1818182E+00  0.3005259E-02
    1       -4.115361   1.000000
    2       -0.524550   1.000000
    3        2.773183   1.000000
    4        3.613782   1.000000
    5        7.379342   0.000000
    6        9.788561   0.000000
    7       10.389287   0.000000
    8       10.661001   0.000000
    9       15.242300   0.000000
   10       16.177744   0.000000
   11       16.695844   0.000000
   12       16.930232   0.000000
   13       17.928549   0.000000
   14       21.283504   0.000000
   15       22.902160   0.000000
   16       23.006433   0.000000
 
 -0.4545455E+00  0.0000000E+00  0.1818182E+00  0.3005259E-02
    1       -3.656389   1.000000
    2       -1.203204   1.000000
    3        2.448633   1.000000
    4        3.739029   1.000000
    5        7.469505   0.000000
    6        9.672007   0.000000
    7       10.110525   0.000000
    8       12.244475   0.000000
    9       14.386762   0.000000
   10       14.872312   0.000000
   11       16.779819   0.000000
   12       18.029014   0.000000
   13       18.590625   0.000000
   14       20.805133   0.000000
   15       23.829717   0.000000
   16       24.074228   0.000000
 
 -0.3636364E+00  0.0000000E+00  0.1818182E+00  0.3005259E-02
    1       -3.927512   1.000000
    2       -0.810047   1.000000
    3        2.304536   1.000000
    4        4.006938   1.000000
    5        7.702556   0.000000
    6        9.672122   0.000000
    7        9.888204   0.000000
    8       13.020212   0.000000
    9       13.189491   0.000000
   10       13.964937   0.000000
   11       16.676615   0.000000
   12       18.965592   0.000000
   13       19.977600   0.000000
   14       20.120764   0.000000
   15       21.597772   0.000000
   16       23.916129   0.000000
 
 -0.2727273E+00  0.0000000E+00  0.1818182E+00  0.3005259E-02
    1       -4.571761   1.000000
    2        0.263796   1.000000
    3        2.392629   1.000000
    4        4.380662   1.000000
    5        8.042815   0.000000
    6        9.636072   0.000000
    7        9.733476   0.000000
    8       11.644377   0.000000
    9       11.983763   0.000000
   10       15.387342   0.000000
   11       17.021482   0.000000
   12       17.368812   0.000000
   13       19.142356   0.000000
   14       21.139992   0.000000
   15       21.809412   0.000000
   16       22.681822   0.000000
 
 -0.1818182E+00  0.0000000E+00  0.1818182E+00  0.3005259E-02
    1       -5.166607   1.000000
    2        1.417795   1.000000
    3        2.869331   1.000000
    4        4.780128   1.000000
    5        8.338008   0.000000
    6        9.149529   0.000000
    7        9.428566   0.000000
    8       10.983675   0.000000
    9       11.570635   0.000000
   10       15.191003   0.000000
   11       15.891466   0.000000
   12       16.988418   0.000000
   13       18.977880   0.000000
   14       20.214093   0.000000
   15       21.689613   0.000000
   16       23.619049   0.000000
 
 -0.9090909E-01  0.0000000E+00  0.1818182E+00  0.3005259E-02
    1       -5.599467   1.000000
    2        2.223874   1.000000
    3        3.943379   1.000000
    4        5.038894   1.000000
    5        8.041848   0.000000
    6        8.680600   0.000000
    7        9.016093   0.000000
    8       11.103147   0.000000
    9       11.855694   0.000000
   10       13.520760   0.000000
   11       14.990951   0.000000
   12       16.600238   0.000000
   13       18.385880   0.000000
   14       20.151649   0.000000
   15       22.262177   0.000000
   16       23.522008   0.000000
 
  0.9090909E-01  0.9090909E-01  0.1818182E+00  0.1502630E-02
    1       -5.974217   1.000000
    2        3.658127   1.000000
    3        4.497005   1.000000
    4        5.306599   1.000000
    5        8.270379   0.000000
    6        8.287281   0.000000
    7        8.440587   0.000000
    8       10.165929   0.000000
    9       12.186378   0.000000
   10       13.005224   0.000000
   11       14.328961   0.000000
   12       16.411110   0.000000
   13       17.109728   0.000000
   14       18.502975   0.000000
   15       22.267496   0.000000
   16       24.633699   0.000000
 
  0.1818182E+00  0.9090909E-01  0.1818182E+00  0.3005259E-02
    1       -5.870171   1.000000
    2        3.290904   1.000000
    3        4.591749   1.000000
    4        4.754799   1.000000
    5        7.717741   0.000000
    6        8.627019   0.000000
    7        9.218695   0.000000
    8       10.220237   0.000000
    9       12.011710   0.000000
   10       13.267031   0.000000
   11       14.645374   0.000000
   12       16.421913   0.000000
   13       17.648530   0.000000
   14       18.532836   0.000000
   15       22.877593   0.000000
   16       24.493582   0.000000
 
  0.2727273E+00  0.9090909E-01  0.1818182E+00  0.3005259E-02
    1       -5.562147   1.000000
    2        2.436216   1.000000
    3        3.685555   1.000000
    4        4.647071   1.000000
    5        7.778737   0.000000
    6        8.930510   0.000000
    7        9.753245   0.000000
    8       10.189839   0.000000
    9       12.329970   0.000000
   10       13.766890   0.000000
   11       15.477564   0.000000
   12       16.828196   0.000000
   13       17.964133   0.000000
   14       19.836048   0.000000
   15       22.245466   0.000000
   16       23.873281   0.000000
 
  0.3636364E+00  0.9090909E-01  0.1818182E+00  0.3005259E-02
    1       -5.066300   1.000000
    2        1.155751   1.000000
    3        3.132641   1.000000
    4        4.340068   1.000000
    5        8.070702   0.000000
    6        8.914699   0.000000
    7       10.089399   0.000000
    8       10.307468   0.000000
    9       12.889191   0.000000
   10       15.105747   0.000000
   11       15.670267   0.000000
   12       17.544188   0.000000
   13       19.097727   0.000000
   14       20.506520   0.000000
   15       21.163947   0.000000
   16       23.123800   0.000000
 
  0.4545455E+00  0.9090909E-01  0.1818182E+00  0.3005259E-02
    1       -4.431953   1.000000
    2       -0.141413   1.000000
    3        2.873786   1.000000
    4        4.010196   1.000000
    5        8.077752   0.000000
    6        8.775523   0.000000
    7       10.177755   0.000000
    8       11.127234   0.000000
    9       13.958998   0.000000
   10       15.132314   0.000000
   11       16.818294   0.000000
   12       17.184782   0.000000
   13       19.348153   0.000000
   14       20.483193   0.000000
   15       21.999477   0.000000
   16       22.895861   0.000000
 
 -0.4545455E+00  0.9090909E-01  0.1818182E+00  0.3005259E-02
    1       -3.844936   1.000000
    2       -1.083934   1.000000
    3        2.771651   1.000000
    4        3.808872   1.000000
    5        8.034510   0.000000
    6        8.607087   0.000000
    7       10.119224   0.000000
    8       12.550150   0.000000
    9       14.061725   0.000000
   10       15.211667   0.000000
   11       16.418456   0.000000
   12       17.769675   0.000000
   13       18.641336   0.000000
   14       20.420055   0.000000
   15       22.846582   0.000000
   16       24.620596   0.000000
 
 -0.3636364E+00  0.9090909E-01  0.1818182E+00  0.3005259E-02
    1       -3.844939   1.000000
    2       -1.083927   1.000000
    3        2.771657   1.000000
    4        3.808858   1.000000
    5        8.034523   0.000000
    6        8.607079   0.000000
    7       10.119225   0.000000
    8       12.550095   0.000000
    9       14.061774   0.000000
   10       15.211659   0.000000
   11       16.418499   0.000000
   12       17.769651   0.000000
   13       18.641406   0.000000
   14       20.419982   0.000000
   15       22.846554   0.000000
   16       24.620607   0.000000
 
 -0.2727273E+00  0.9090909E-01  0.1818182E+00  0.3005259E-02
    1       -4.431957   1.000000
    2       -0.141394   1.000000
    3        2.873798   1.000000
    4        4.010158   1.000000
    5        8.077782   0.000000
    6        8.775509   0.000000
    7       10.177756   0.000000
    8       11.127176   0.000000
    9       13.959007   0.000000
   10       15.132336   0.000000
   11       16.818365   0.000000
   12       17.184830   0.000000
   13       19.348139   0.000000
   14       20.483151   0.000000
   15       21.999442   0.000000
   16       22.895850   0.000000
 
 -0.1818182E+00  0.9090909E-01  0.1818182E+00  0.3005259E-02
    1       -5.066304   1.000000
    2        1.155785   1.000000
    3        3.132649   1.000000
    4        4.340012   1.000000
    5        8.070734   0.000000
    6        8.914686   0.000000
    7       10.089379   0.000000
    8       10.307435   0.000000
    9       12.889195   0.000000
   10       15.105816   0.000000
   11       15.670298   0.000000
   12       17.544157   0.000000
   13       19.097725   0.000000
   14       20.506545   0.000000
   15       21.163970   0.000000
   16       23.123821   0.000000
 
 -0.9090909E-01  0.9090909E-01  0.1818182E+00  0.3005259E-02
    1       -5.562149   1.000000
    2        2.436274   1.000000
    3        3.685546   1.000000
    4        4.647004   1.000000
    5        7.778750   0.000000
    6        8.930493   0.000000
    7        9.753247   0.000000
    8       10.189815   0.000000
    9       12.329978   0.000000
   10       13.766958   0.000000
   11       15.477578   0.000000
   12       16.828149   0.000000
   13       17.964116   0.000000
   14       19.836075   0.000000
   15       22.245553   0.000000
   16       23.873282   0.000000
 
  0.1818182E+00  0.1818182E+00  0.1818182E+00  0.1502630E-02
    1       -5.837660   1.000000
    2        2.816768   1.000000
    3        4.957110   1.000000
    4        4.957159   1.000000
    5        7.615073   0.000000
    6        8.697476   0.000000
    7        8.697515   0.000000
    8       10.858150   0.000000
    9       12.507985   0.000000
   10       12.507993   0.000000
   11       14.442076   0.000000
   12       16.050041   0.000000
   13       18.669237   0.000000
   14       18.669271   0.000000
   15       22.759554   0.000000
   16       24.622012   0.000000
 
  0.2727273E+00  0.1818182E+00  0.1818182E+00  0.3005259E-02
    1       -5.599463   1.000000
    2        2.223803   1.000000
    3        3.943399   1.000000
    4        5.038962   1.000000
    5        8.041880   0.000000
    6        8.680575   0.000000
    7        9.016131   0.000000
    8       11.103138   0.000000
    9       11.855671   0.000000
   10       13.520683   0.000000
   11       14.990941   0.000000
   12       16.600296   0.000000
   13       18.385883   0.000000
   14       20.151622   0.000000
   15       22.262084   0.000000
   16       23.522025   0.000000
 
  0.3636364E+00  0.1818182E+00  0.1818182E+00  0.3005259E-02
    1       -5.166601   1.000000
    2        1.417736   1.000000
    3        2.869340   1.000000
    4        4.780194   1.000000
    5        8.338049   0.000000
    6        9.149483   0.000000
    7        9.428590   0.000000
    8       10.983671   0.000000
    9       11.570637   0.000000
   10       15.190926   0.000000
   11       15.891443   0.000000
   12       16.988458   0.000000
   13       18.977890   0.000000
   14       20.214030   0.000000
   15       21.689602   0.000000
   16       23.619030   0.000000
 
  0.4545455E+00  0.1818182E+00  0.1818182E+00  0.3005259E-02
    1       -4.571754   1.000000
    2        0.263765   1.000000
    3        2.392609   1.000000
    4        4.380722   1.000000
    5        8.042863   0.000000
    6        9.636002   0.000000
    7        9.733480   0.000000
    8       11.644383   0.000000
    9       11.983797   0.000000
   10       15.387320   0.000000
   11       17.021433   0.000000
   12       17.368764   0.000000
   13       19.142359   0.000000
   14       21.140011   0.000000
   15       21.809468   0.000000
   16       22.681785   0.000000
 
 -0.4545455E+00  0.1818182E+00  0.1818182E+00  0.3005259E-02
    1       -3.927504   1.000000
    2       -0.810062   1.000000
    3        2.304499   1.000000
    4        4.006992   1.000000
    5        7.702606   0.000000
    6        9.672116   0.000000
    7        9.888132   0.000000
    8       13.020230   0.000000
    9       13.189536   0.000000
   10       13.964898   0.000000
   11       16.676597   0.000000
   12       18.965509   0.000000
   13       19.977671   0.000000
   14       20.120782   0.000000
   15       21.597794   0.000000
   16       23.916084   0.000000
 
 -0.3636364E+00  0.1818182E+00  0.1818182E+00  0.3005259E-02
    1       -3.656386   1.000000
    2       -1.203204   1.000000
    3        2.448583   1.000000
    4        3.739078   1.000000
    5        7.469556   0.000000
    6        9.671999   0.000000
    7       10.110458   0.000000
    8       12.244431   0.000000
    9       14.386793   0.000000
   10       14.872358   0.000000
   11       16.779798   0.000000
   12       18.029085   0.000000
   13       18.590637   0.000000
   14       20.805052   0.000000
   15       23.829756   0.000000
   16       24.074216   0.000000
 
 -0.2727273E+00  0.1818182E+00  0.1818182E+00  0.3005259E-02
    1       -4.115363   1.000000
    2       -0.524537   1.000000
    3        2.773122   1.000000
    4        3.613828   1.000000
    5        7.379392   0.000000
    6        9.788559   0.000000
    7       10.389226   0.000000
    8       10.660953   0.000000
    9       15.242339   0.000000
   10       16.177794   0.000000
   11       16.695849   0.000000
   12       16.930293   0.000000
   13       17.928538   0.000000
   14       21.283467   0.000000
   15       22.902097   0.000000
   16       23.006391   0.000000
 
 -0.1818182E+00  0.1818182E+00  0.1818182E+00  0.3005259E-02
    1       -4.769301   1.000000
    2        0.668705   1.000000
    3        3.237628   1.000000
    4        3.646938   1.000000
    5        7.342522   0.000000
    6        9.450649   0.000000
    7       10.037585   0.000000
    8       10.622495   0.000000
    9       14.872990   0.000000
   10       14.880684   0.000000
   11       15.835008   0.000000
   12       18.502744   0.000000
   13       18.679878   0.000000
   14       20.285921   0.000000
   15       21.241946   0.000000
   16       22.479881   0.000000
 
 -0.9090909E-01  0.1818182E+00  0.1818182E+00  0.3005259E-02
    1       -5.320942   1.000000
    2        1.994308   1.000000
    3        3.759109   1.000000
    4        3.839222   1.000000
    5        7.111723   0.000000
    6        9.098872   0.000000
    7       10.235897   0.000000
    8       10.527031   0.000000
    9       13.174758   0.000000
   10       14.086070   0.000000
   11       16.046243   0.000000
   12       17.479689   0.000000
   13       18.414444   0.000000
   14       19.666623   0.000000
   15       22.175107   0.000000
   16       22.609034   0.000000
 
  0.2727273E+00  0.2727273E+00  0.1818182E+00  0.1502630E-02
    1       -5.431803   1.000000
    2        1.714273   1.000000
    3        4.280804   1.000000
    4        4.389761   1.000000
    5        7.798130   0.000000
    6        8.655144   0.000000
    7        9.573034   0.000000
    8       10.751436   0.000000
    9       12.979804   0.000000
   10       13.444103   0.000000
   11       14.876585   0.000000
   12       17.098236   0.000000
   13       19.068408   0.000000
   14       20.250147   0.000000
   15       22.239591   0.000000
   16       22.739584   0.000000
 
  0.3636364E+00  0.2727273E+00  0.1818182E+00  0.3005259E-02
    1       -5.066298   1.000000
    2        1.155732   1.000000
    3        3.132660   1.000000
    4        4.340065   1.000000
    5        8.070724   0.000000
    6        8.914693   0.000000
    7       10.089397   0.000000
    8       10.307475   0.000000
    9       12.889162   0.000000
   10       15.105740   0.000000
   11       15.670272   0.000000
   12       17.544193   0.000000
   13       19.097727   0.000000
   14       20.506508   0.000000
   15       21.163934   0.000000
   16       23.123767   0.000000
 
  0.4545455E+00  0.2727273E+00  0.1818182E+00  0.3005259E-02
    1       -4.524707   1.000000
    2        0.421138   1.000000
    3        2.198497   1.000000
    4        3.998987   1.000000
    5        8.673856   0.000000
    6        8.813650   0.000000
    7       10.061966   0.000000
    8       11.081339   0.000000
    9       12.901449   0.000000
   10       15.713310   0.000000
   11       17.119834   0.000000
   12       17.799796   0.000000
   13       18.762813   0.000000
   14       21.015533   0.000000
   15       21.321590   0.000000
   16       23.793973   0.000000
 
 -0.4545455E+00  0.2727273E+00  0.1818182E+00  0.3005259E-02
    1       -3.874511   1.000000
    2       -0.527548   1.000000
    3        1.826987   1.000000
    4        3.601269   1.000000
    5        8.267118   0.000000
    6        9.224485   0.000000
    7       10.906351   0.000000
    8       11.541155   0.000000
    9       13.804549   0.000000
   10       14.046619   0.000000
   11       17.682166   0.000000
   12       19.177011   0.000000
   13       19.786990   0.000000
   14       20.298037   0.000000
   15       22.618950   0.000000
   16       22.914073   0.000000
 
 -0.3636364E+00  0.2727273E+00  0.1818182E+00  0.3005259E-02
    1       -3.391105   1.000000
    2       -1.186326   1.000000
    3        1.830341   1.000000
    4        3.317790   1.000000
    5        7.924543   0.000000
    6        9.406135   0.000000
    7       11.591870   0.000000
    8       12.122530   0.000000
    9       12.587241   0.000000
   10       15.302021   0.000000
   11       17.443840   0.000000
   12       18.245305   0.000000
   13       20.719019   0.000000
   14       21.222522   0.000000
   15       22.452738   0.000000
   16       23.388978   0.000000
 
 -0.2727273E+00  0.2727273E+00  0.1818182E+00  0.3005259E-02
    1       -3.644065   1.000000
    2       -0.854088   1.000000
    3        2.052329   1.000000
    4        3.232102   1.000000
    5        7.721445   0.000000
    6        9.665961   0.000000
    7       10.461592   0.000000
    8       11.706685   0.000000
    9       14.323523   0.000000
   10       15.976796   0.000000
   11       16.979996   0.000000
   12       18.212994   0.000000
   13       18.938148   0.000000
   14       21.569708   0.000000
   15       22.886115   0.000000
   16       23.632524   0.000000
 
 -0.1818182E+00  0.2727273E+00  0.1818182E+00  0.3005259E-02
    1       -4.290067   1.000000
    2        0.115387   1.000000
    3        2.431156   1.000000
    4        3.380464   1.000000
    5        7.590353   0.000000
    6        9.148809   0.000000
    7       10.026499   0.000000
    8       11.748824   0.000000
    9       14.625325   0.000000
   10       15.970698   0.000000
   11       17.033791   0.000000
   12       17.796811   0.000000
   13       19.348531   0.000000
   14       19.958015   0.000000
   15       21.565617   0.000000
   16       23.268799   0.000000
 
 -0.9090909E-01  0.2727273E+00  0.1818182E+00  0.3005259E-02
    1       -4.886361   1.000000
    2        1.161501   1.000000
    3        2.992348   1.000000
    4        3.679528   1.000000
    5        7.235127   0.000000
    6        8.742018   0.000000
    7       10.336587   0.000000
    8       11.362849   0.000000
    9       13.762364   0.000000
   10       15.233431   0.000000
   11       16.712584   0.000000
   12       17.805804   0.000000
   13       19.052249   0.000000
   14       20.480488   0.000000
   15       20.555833   0.000000
   16       22.726182   0.000000
 
  0.3636364E+00  0.3636364E+00  0.1818182E+00  0.1502630E-02
    1       -4.769295   1.000000
    2        0.668657   1.000000
    3        3.237705   1.000000
    4        3.646912   1.000000
    5        7.342504   0.000000
    6        9.450627   0.000000
    7       10.037631   0.000000
    8       10.622567   0.000000
    9       14.872904   0.000000
   10       14.880641   0.000000
   11       15.834988   0.000000
   12       18.502779   0.000000
   13       18.679843   0.000000
   14       20.285913   0.000000
   15       21.241939   0.000000
   16       22.479824   0.000000
 
  0.4545455E+00  0.3636364E+00  0.1818182E+00  0.3005259E-02
    1       -4.290061   1.000000
    2        0.115348   1.000000
    3        2.431199   1.000000
    4        3.380459   1.000000
    5        7.590334   0.000000
    6        9.148817   0.000000
    7       10.026527   0.000000
    8       11.748881   0.000000
    9       14.625262   0.000000
   10       15.970660   0.000000
   11       17.033739   0.000000
   12       17.796799   0.000000
   13       19.348505   0.000000
   14       19.958039   0.000000
   15       21.565618   0.000000
   16       23.268833   0.000000
 
 -0.4545455E+00  0.3636364E+00  0.1818182E+00  0.3005259E-02
    1       -3.668880   1.000000
    2       -0.560967   1.000000
    3        1.805160   1.000000
    4        2.936604   1.000000
    5        8.505455   0.000000
    6        9.169701   0.000000
    7        9.651671   0.000000
    8       12.966599   0.000000
    9       14.236426   0.000000
   10       14.791629   0.000000
   11       18.795963   0.000000
   12       19.020748   0.000000
   13       19.422087   0.000000
   14       19.830233   0.000000
   15       21.825069   0.000000
   16       23.192494   0.000000
 
 -0.3636364E+00  0.3636364E+00  0.1818182E+00  0.3005259E-02
    1       -3.059479   1.000000
    2       -1.238599   1.000000
    3        1.534038   1.000000
    4        2.630135   1.000000
    5        8.886434   0.000000
    6        9.209918   0.000000
    7       10.453250   0.000000
    8       12.274914   0.000000
    9       13.416817   0.000000
   10       15.907318   0.000000
   11       17.760428   0.000000
   12       19.233593   0.000000
   13       20.623944   0.000000
   14       21.424233   0.000000
   15       22.125121   0.000000
   16       23.635093   0.000000
 
 -0.2727273E+00  0.3636364E+00  0.1818182E+00  0.3005259E-02
    1       -3.059485   1.000000
    2       -1.238587   1.000000
    3        1.534039   1.000000
    4        2.630127   1.000000
    5        8.886465   0.000000
    6        9.209885   0.000000
    7       10.453227   0.000000
    8       12.274942   0.000000
    9       13.416819   0.000000
   10       15.907323   0.000000
   11       17.760425   0.000000
   12       19.233589   0.000000
   13       20.623935   0.000000
   14       21.424288   0.000000
   15       22.125125   0.000000
   16       23.635025   0.000000
 
 -0.1818182E+00  0.3636364E+00  0.1818182E+00  0.3005259E-02
    1       -3.668888   1.000000
    2       -0.560944   1.000000
    3        1.805160   1.000000
    4        2.936584   1.000000
    5        8.505462   0.000000
    6        9.169692   0.000000
    7        9.651647   0.000000
    8       12.966600   0.000000
    9       14.236463   0.000000
   10       14.791634   0.000000
   11       18.795938   0.000000
   12       19.020755   0.000000
   13       19.422104   0.000000
   14       19.830284   0.000000
   15       21.825075   0.000000
   16       23.192469   0.000000
 
 -0.9090909E-01  0.3636364E+00  0.1818182E+00  0.3005259E-02
    1       -4.290066   1.000000
    2        0.115375   1.000000
    3        2.431200   1.000000
    4        3.380430   1.000000
    5        7.590318   0.000000
    6        9.148842   0.000000
    7       10.026494   0.000000
    8       11.748884   0.000000
    9       14.625266   0.000000
   10       15.970688   0.000000
   11       17.033791   0.000000
   12       17.796784   0.000000
   13       19.348510   0.000000
   14       19.958056   0.000000
   15       21.565615   0.000000
   16       23.268832   0.000000
 
  0.4545455E+00  0.4545455E+00  0.1818182E+00  0.1502630E-02
    1       -3.876938   1.000000
    2       -0.395860   1.000000
    3        2.253133   1.000000
    4        3.187109   1.000000
    5        6.822494   0.000000
    6        8.709533   0.000000
    7       11.568871   0.000000
    8       11.826366   0.000000
    9       16.267020   0.000000
   10       16.589280   0.000000
   11       16.928155   0.000000
   12       16.965884   0.000000
   13       18.918916   0.000000
   14       20.799689   0.000000
   15       21.944657   0.000000
   16       23.523748   0.000000
 
 -0.4545455E+00  0.4545455E+00  0.1818182E+00  0.3005259E-02
    1       -3.310101   1.000000
    2       -0.979719   1.000000
    3        1.915669   1.000000
    4        2.739976   1.000000
    5        7.234866   0.000000
    6        8.530328   0.000000
    7       11.343707   0.000000
    8       13.411728   0.000000
    9       14.603669   0.000000
   10       16.425485   0.000000
   11       17.286942   0.000000
   12       18.959519   0.000000
   13       19.775296   0.000000
   14       20.303090   0.000000
   15       22.222894   0.000000
   16       22.750097   0.000000
 
 -0.3636364E+00  0.4545455E+00  0.1818182E+00  0.3005259E-02
    1       -2.659007   1.000000
    2       -1.590850   1.000000
    3        1.760751   1.000000
    4        2.131827   1.000000
    5        8.431712   0.000000
    6        8.643842   0.000000
    7       10.946705   0.000000
    8       12.505325   0.000000
    9       14.892266   0.000000
   10       16.317341   0.000000
   11       17.631674   0.000000
   12       18.932694   0.000000
   13       20.792904   0.000000
   14       21.514635   0.000000
   15       22.128613   0.000000
   16       23.238892   0.000000
 
 -0.2727273E+00  0.4545455E+00  0.1818182E+00  0.3005259E-02
    1       -2.469499   1.000000
    2       -1.749226   1.000000
    3        1.494888   1.000000
    4        2.166349   1.000000
    5        8.777990   0.000000
    6       10.054212   0.000000
    7       10.704960   0.000000
    8       10.730547   0.000000
    9       14.906549   0.000000
   10       15.979657   0.000000
   11       17.927063   0.000000
   12       19.085815   0.000000
   13       20.885349   0.000000
   14       21.889912   0.000000
   15       23.155239   0.000000
   16       23.341657   0.000000
 
 -0.1818182E+00  0.4545455E+00  0.1818182E+00  0.3005259E-02
    1       -3.059489   1.000000
    2       -1.238584   1.000000
    3        1.534069   1.000000
    4        2.630096   1.000000
    5        8.886395   0.000000
    6        9.209926   0.000000
    7       10.453254   0.000000
    8       12.274945   0.000000
    9       13.416882   0.000000
   10       15.907256   0.000000
   11       17.760362   0.000000
   12       19.233592   0.000000
   13       20.623992   0.000000
   14       21.424299   0.000000
   15       22.125149   0.000000
   16       23.635096   0.000000
 
 -0.9090909E-01  0.4545455E+00  0.1818182E+00  0.3005259E-02
    1       -3.644066   1.000000
    2       -0.854094   1.000000
    3        2.052387   1.000000
    4        3.232049   1.000000
    5        7.721398   0.000000
    6        9.665976   0.000000
    7       10.461619   0.000000
    8       11.706762   0.000000
    9       14.323519   0.000000
   10       15.976716   0.000000
   11       16.979932   0.000000
   12       18.212992   0.000000
   13       18.938152   0.000000
   14       21.569759   0.000000
   15       22.886181   0.000000
   16       23.632537   0.000000
 
 -0.4545455E+00 -0.4545455E+00  0.1818182E+00  0.1502630E-02
    1       -2.821263   1.000000
    2       -1.534422   1.000000
    3        1.726600   1.000000
    4        2.948836   1.000000
    5        6.525454   0.000000
    6        8.314962   0.000000
    7       13.159156   0.000000
    8       13.261270   0.000000
    9       14.979237   0.000000
   10       15.133685   0.000000
   11       18.540712   0.000000
   12       18.750462   0.000000
   13       20.465660   0.000000
   14       20.547724   0.000000
   15       21.106344   0.000000
   16       23.269969   0.000000
 
 -0.3636364E+00 -0.4545455E+00  0.1818182E+00  0.3005259E-02
    1       -2.351703   1.000000
    2       -1.976395   1.000000
    3        1.718997   1.000000
    4        2.535406   1.000000
    5        7.108355   0.000000
    6        8.325296   0.000000
    7       12.745364   0.000000
    8       12.969911   0.000000
    9       14.976781   0.000000
   10       15.619719   0.000000
   11       18.161592   0.000000
   12       18.959485   0.000000
   13       20.647321   0.000000
   14       21.281642   0.000000
   15       21.898968   0.000000
   16       22.305742   0.000000
 
 -0.2727273E+00 -0.4545455E+00  0.1818182E+00  0.3005259E-02
    1       -2.659031   1.000000
    2       -1.590813   1.000000
    3        1.760761   1.000000
    4        2.131801   1.000000
    5        8.431726   0.000000
    6        8.643830   0.000000
    7       10.946657   0.000000
    8       12.505372   0.000000
    9       14.892277   0.000000
   10       16.317339   0.000000
   11       17.631676   0.000000
   12       18.932691   0.000000
   13       20.792851   0.000000
   14       21.514744   0.000000
   15       22.128614   0.000000
   16       23.238868   0.000000
 
 -0.1818182E+00 -0.4545455E+00  0.1818182E+00  0.3005259E-02
    1       -3.059495   1.000000
    2       -1.238571   1.000000
    3        1.534070   1.000000
    4        2.630088   1.000000
    5        8.886419   0.000000
    6        9.209900   0.000000
    7       10.453241   0.000000
    8       12.274960   0.000000
    9       13.416884   0.000000
   10       15.907260   0.000000
   11       17.760363   0.000000
   12       19.233587   0.000000
   13       20.623977   0.000000
   14       21.424325   0.000000
   15       22.125158   0.000000
   16       23.635068   0.000000
 
 -0.9090909E-01 -0.4545455E+00  0.1818182E+00  0.3005259E-02
    1       -3.391114   1.000000
    2       -1.186315   1.000000
    3        1.830390   1.000000
    4        3.317734   1.000000
    5        7.924492   0.000000
    6        9.406147   0.000000
    7       11.591945   0.000000
    8       12.122560   0.000000
    9       12.587253   0.000000
   10       15.301948   0.000000
   11       17.443812   0.000000
   12       18.245262   0.000000
   13       20.719037   0.000000
   14       21.222590   0.000000
   15       22.452754   0.000000
   16       23.389014   0.000000
 
 -0.3636364E+00 -0.3636364E+00  0.1818182E+00  0.1502630E-02
    1       -2.821288   1.000000
    2       -1.534380   1.000000
    3        1.726579   1.000000
    4        2.948837   1.000000
    5        6.525457   0.000000
    6        8.314963   0.000000
    7       13.159083   0.000000
    8       13.261244   0.000000
    9       14.979263   0.000000
   10       15.133759   0.000000
   11       18.540838   0.000000
   12       18.750505   0.000000
   13       20.465656   0.000000
   14       20.547591   0.000000
   15       21.106261   0.000000
   16       23.270005   0.000000
 
 -0.2727273E+00 -0.3636364E+00  0.1818182E+00  0.3005259E-02
    1       -3.310121   1.000000
    2       -0.979667   1.000000
    3        1.915636   1.000000
    4        2.739972   1.000000
    5        7.234872   0.000000
    6        8.530328   0.000000
    7       11.343656   0.000000
    8       13.411678   0.000000
    9       14.603724   0.000000
   10       16.425561   0.000000
   11       17.286989   0.000000
   12       18.959587   0.000000
   13       19.775302   0.000000
   14       20.303011   0.000000
   15       22.222810   0.000000
   16       22.750091   0.000000
 
 -0.1818182E+00 -0.3636364E+00  0.1818182E+00  0.3005259E-02
    1       -3.668896   1.000000
    2       -0.560918   1.000000
    3        1.805160   1.000000
    4        2.936563   1.000000
    5        8.505471   0.000000
    6        9.169684   0.000000
    7        9.651631   0.000000
    8       12.966602   0.000000
    9       14.236481   0.000000
   10       14.791639   0.000000
   11       18.795921   0.000000
   12       19.020754   0.000000
   13       19.422115   0.000000
   14       19.830310   0.000000
   15       21.825074   0.000000
   16       23.192454   0.000000
 
 -0.9090909E-01 -0.3636364E+00  0.1818182E+00  0.3005259E-02
    1       -3.874523   1.000000
    2       -0.527518   1.000000
    3        1.827015   1.000000
    4        3.601213   1.000000
    5        8.267068   0.000000
    6        9.224498   0.000000
    7       10.906352   0.000000
    8       11.541219   0.000000
    9       13.804497   0.000000
   10       14.046662   0.000000
   11       17.682154   0.000000
   12       19.177078   0.000000
   13       19.786956   0.000000
   14       20.298036   0.000000
   15       22.618935   0.000000
   16       22.914138   0.000000
 
 -0.2727273E+00 -0.2727273E+00  0.1818182E+00  0.1502630E-02
    1       -3.876955   1.000000
    2       -0.395796   1.000000
    3        2.253074   1.000000
    4        3.187113   1.000000
    5        6.822499   0.000000
    6        8.709539   0.000000
    7       11.568842   0.000000
    8       11.826282   0.000000
    9       16.267037   0.000000
   10       16.589430   0.000000
   11       16.928205   0.000000
   12       16.965955   0.000000
   13       18.918883   0.000000
   14       20.799640   0.000000
   15       21.944593   0.000000
   16       23.523661   0.000000
 
 -0.1818182E+00 -0.2727273E+00  0.1818182E+00  0.3005259E-02
    1       -4.290073   1.000000
    2        0.115416   1.000000
    3        2.431157   1.000000
    4        3.380435   1.000000
    5        7.590341   0.000000
    6        9.148828   0.000000
    7       10.026475   0.000000
    8       11.748829   0.000000
    9       14.625329   0.000000
   10       15.970710   0.000000
   11       17.033823   0.000000
   12       17.796793   0.000000
   13       19.348524   0.000000
   14       19.958030   0.000000
   15       21.565616   0.000000
   16       23.268800   0.000000
 
 -0.9090909E-01 -0.2727273E+00  0.1818182E+00  0.3005259E-02
    1       -4.524717   1.000000
    2        0.421194   1.000000
    3        2.198491   1.000000
    4        3.998933   1.000000
    5        8.673804   0.000000
    6        8.813667   0.000000
    7       10.061969   0.000000
    8       11.081344   0.000000
    9       12.901455   0.000000
   10       15.713351   0.000000
   11       17.119892   0.000000
   12       17.799771   0.000000
   13       18.762858   0.000000
   14       21.015522   0.000000
   15       21.321588   0.000000
   16       23.794003   0.000000
 
 -0.1818182E+00 -0.1818182E+00  0.1818182E+00  0.1502630E-02
    1       -4.769305   1.000000
    2        0.668731   1.000000
    3        3.237623   1.000000
    4        3.646920   1.000000
    5        7.342504   0.000000
    6        9.450671   0.000000
    7       10.037572   0.000000
    8       10.622484   0.000000
    9       14.873013   0.000000
   10       14.880696   0.000000
   11       15.835002   0.000000
   12       18.502729   0.000000
   13       18.679883   0.000000
   14       20.285913   0.000000
   15       21.241978   0.000000
   16       22.479891   0.000000
 
 -0.9090909E-01 -0.1818182E+00  0.1818182E+00  0.3005259E-02
    1       -5.066306   1.000000
    2        1.155805   1.000000
    3        3.132630   1.000000
    4        4.340015   1.000000
    5        8.070714   0.000000
    6        8.914692   0.000000
    7       10.089381   0.000000
    8       10.307430   0.000000
    9       12.889215   0.000000
   10       15.105822   0.000000
   11       15.670293   0.000000
   12       17.544145   0.000000
   13       19.097728   0.000000
   14       20.506558   0.000000
   15       21.163964   0.000000
   16       23.123841   0.000000
 
 -0.9090909E-01 -0.9090909E-01  0.1818182E+00  0.1502630E-02
    1       -5.431809   1.000000
    2        1.714344   1.000000
    3        4.280815   1.000000
    4        4.389670   1.000000
    5        7.798097   0.000000
    6        8.655178   0.000000
    7        9.572962   0.000000
    8       10.751427   0.000000
    9       12.979864   0.000000
   10       13.444188   0.000000
   11       14.876594   0.000000
   12       17.098178   0.000000
   13       19.068390   0.000000
   14       20.250182   0.000000
   15       22.239717   0.000000
   16       22.739633   0.000000
 
  0.0000000E+00  0.0000000E+00  0.2727273E+00  0.1502630E-02
    1       -5.339054   1.000000
    2        1.200396   1.000000
    3        4.641634   1.000000
    4        4.641680   1.000000
    5        7.266910   0.000000
    6        8.955670   0.000000
    7        8.955718   0.000000
    8       12.433872   0.000000
    9       12.774573   0.000000
   10       12.774603   0.000000
   11       14.247630   0.000000
   12       17.516246   0.000000
   13       20.144132   0.000000
   14       20.144135   0.000000
   15       22.613771   0.000000
   16       22.613815   0.000000
 
  0.9090909E-01  0.0000000E+00  0.2727273E+00  0.3005259E-02
    1       -5.431808   1.000000
    2        1.714337   1.000000
    3        4.280787   1.000000
    4        4.389708   1.000000
    5        7.798094   0.000000
    6        8.655153   0.000000
    7        9.572988   0.000000
    8       10.751451   0.000000
    9       12.979852   0.000000
   10       13.444165   0.000000
   11       14.876585   0.000000
   12       17.098187   0.000000
   13       19.068406   0.000000
   14       20.250161   0.000000
   15       22.239675   0.000000
   16       22.739627   0.000000
 
  0.1818182E+00  0.0000000E+00  0.2727273E+00  0.3005259E-02
    1       -5.320942   1.000000
    2        1.994316   1.000000
    3        3.759145   1.000000
    4        3.839180   1.000000
    5        7.111710   0.000000
    6        9.098882   0.000000
    7       10.235897   0.000000
    8       10.527040   0.000000
    9       13.174759   0.000000
   10       14.086066   0.000000
   11       16.046231   0.000000
   12       17.479668   0.000000
   13       18.414490   0.000000
   14       19.666596   0.000000
   15       22.175079   0.000000
   16       22.609049   0.000000
 
  0.2727273E+00  0.0000000E+00  0.2727273E+00  0.3005259E-02
    1       -5.009738   1.000000
    2        1.526495   1.000000
    3        3.472961   1.000000
    4        3.472999   1.000000
    5        6.490410   0.000000
    6        8.265110   0.000000
    7       11.475940   0.000000
    8       11.475941   0.000000
    9       13.616487   0.000000
   10       14.552535   0.000000
   11       17.100750   0.000000
   12       18.528429   0.000000
   13       18.528483   0.000000
   14       19.340444   0.000000
   15       22.067554   0.000000
   16       22.067573   0.000000
 
  0.3636364E+00  0.0000000E+00  0.2727273E+00  0.3005259E-02
    1       -4.513013   1.000000
    2        0.598847   1.000000
    3        2.954805   1.000000
    4        3.247635   1.000000
    5        6.620876   0.000000
    6        7.984497   0.000000
    7       11.739092   0.000000
    8       11.941460   0.000000
    9       15.055285   0.000000
   10       15.271849   0.000000
   11       17.328259   0.000000
   12       18.571833   0.000000
   13       19.035554   0.000000
   14       19.985385   0.000000
   15       21.060032   0.000000
   16       21.971426   0.000000
 
  0.4545455E+00  0.0000000E+00  0.2727273E+00  0.3005259E-02
    1       -3.876945   1.000000
    2       -0.395838   1.000000
    3        2.253133   1.000000
    4        3.187092   1.000000
    5        6.822469   0.000000
    6        8.709562   0.000000
    7       11.568863   0.000000
    8       11.826344   0.000000
    9       16.267009   0.000000
   10       16.589334   0.000000
   11       16.928159   0.000000
   12       16.965921   0.000000
   13       18.918907   0.000000
   14       20.799680   0.000000
   15       21.944648   0.000000
   16       23.523718   0.000000
 
 -0.4545455E+00  0.0000000E+00  0.2727273E+00  0.3005259E-02
    1       -3.289643   1.000000
    2       -1.164435   1.000000
    3        1.699381   1.000000
    4        3.295105   1.000000
    5        6.952985   0.000000
    6       10.157382   0.000000
    7       11.395211   0.000000
    8       11.513010   0.000000
    9       14.738686   0.000000
   10       14.917920   0.000000
   11       18.395189   0.000000
   12       18.401047   0.000000
   13       18.801674   0.000000
   14       22.710102   0.000000
   15       22.754913   0.000000
   16       23.206381   0.000000
 
 -0.3636364E+00  0.0000000E+00  0.2727273E+00  0.3005259E-02
    1       -3.345212   1.000000
    2       -1.086805   1.000000
    3        1.427004   1.000000
    4        3.559994   1.000000
    5        7.229119   0.000000
    6       11.163220   0.000000
    7       11.174981   0.000000
    8       12.033172   0.000000
    9       13.044348   0.000000
   10       13.212443   0.000000
   11       18.354393   0.000000
   12       20.258060   0.000000
   13       20.349498   0.000000
   14       21.099416   0.000000
   15       21.711212   0.000000
   16       22.918224   0.000000
 
 -0.2727273E+00  0.0000000E+00  0.2727273E+00  0.3005259E-02
    1       -3.954082   1.000000
    2       -0.354042   1.000000
    3        1.585675   1.000000
    4        3.948250   1.000000
    5        7.649773   0.000000
    6       10.567352   0.000000
    7       10.907577   0.000000
    8       11.675340   0.000000
    9       12.162605   0.000000
   10       13.971671   0.000000
   11       18.312642   0.000000
   12       18.972192   0.000000
   13       19.358293   0.000000
   14       21.927119   0.000000
   15       22.051969   0.000000
   16       22.656827   0.000000
 
 -0.1818182E+00  0.0000000E+00  0.2727273E+00  0.3005259E-02
    1       -4.571764   1.000000
    2        0.263816   1.000000
    3        2.392611   1.000000
    4        4.380666   1.000000
    5        8.042814   0.000000
    6        9.636048   0.000000
    7        9.733463   0.000000
    8       11.644393   0.000000
    9       11.983785   0.000000
   10       15.387348   0.000000
   11       17.021478   0.000000
   12       17.368796   0.000000
   13       19.142372   0.000000
   14       21.140003   0.000000
   15       21.809426   0.000000
   16       22.681812   0.000000
 
 -0.9090909E-01  0.0000000E+00  0.2727273E+00  0.3005259E-02
    1       -5.047273   1.000000
    2        0.718949   1.000000
    3        3.648491   1.000000
    4        4.685258   1.000000
    5        7.746143   0.000000
    6        8.969674   0.000000
    7        9.160543   0.000000
    8       12.015864   0.000000
    9       12.253903   0.000000
   10       14.696663   0.000000
   11       14.830390   0.000000
   12       17.978495   0.000000
   13       19.333867   0.000000
   14       21.149101   0.000000
   15       21.150149   0.000000
   16       22.737155   0.000000
 
  0.9090909E-01  0.9090909E-01  0.2727273E+00  0.1502630E-02
    1       -5.599466   1.000000
    2        2.223861   1.000000
    3        3.943365   1.000000
    4        5.038932   1.000000
    5        8.041850   0.000000
    6        8.680570   0.000000
    7        9.016115   0.000000
    8       11.103159   0.000000
    9       11.855702   0.000000
   10       13.520723   0.000000
   11       14.990943   0.000000
   12       16.600251   0.000000
   13       18.385889   0.000000
   14       20.151636   0.000000
   15       22.262119   0.000000
   16       23.522017   0.000000
 
  0.1818182E+00  0.9090909E-01  0.2727273E+00  0.3005259E-02
    1       -5.562148   1.000000
    2        2.436245   1.000000
    3        3.685551   1.000000
    4        4.647037   1.000000
    5        7.778744   0.000000
    6        8.930502   0.000000
    7        9.753246   0.000000
    8       10.189828   0.000000
    9       12.329975   0.000000
   10       13.766918   0.000000
   11       15.477571   0.000000
   12       16.828172   0.000000
   13       17.964121   0.000000
   14       19.836063   0.000000
   15       22.245493   0.000000
   16       23.873281   0.000000
 
  0.2727273E+00  0.9090909E-01  0.2727273E+00  0.3005259E-02
    1       -5.320940   1.000000
    2        1.994276   1.000000
    3        3.759149   1.000000
    4        3.839220   1.000000
    5        7.111720   0.000000
    6        9.098859   0.000000
    7       10.235923   0.000000
    8       10.527060   0.000000
    9       13.174732   0.000000
   10       14.086031   0.000000
   11       16.046232   0.000000
   12       17.479721   0.000000
   13       18.414450   0.000000
   14       19.666605   0.000000
   15       22.175028   0.000000
   16       22.609007   0.000000
 
  0.3636364E+00  0.9090909E-01  0.2727273E+00  0.3005259E-02
    1       -4.886359   1.000000
    2        1.161479   1.000000
    3        2.992351   1.000000
    4        3.679551   1.000000
    5        7.235121   0.000000
    6        8.742014   0.000000
    7       10.336622   0.000000
    8       11.362848   0.000000
    9       13.762363   0.000000
   10       15.233383   0.000000
   11       16.712569   0.000000
   12       17.805830   0.000000
   13       19.052239   0.000000
   14       20.480485   0.000000
   15       20.555804   0.000000
   16       22.726167   0.000000
 
  0.4545455E+00  0.9090909E-01  0.2727273E+00  0.3005259E-02
    1       -4.290064   1.000000
    2        0.115364   1.000000
    3        2.431187   1.000000
    4        3.380458   1.000000
    5        7.590310   0.000000
    6        9.148842   0.000000
    7       10.026529   0.000000
    8       11.748851   0.000000
    9       14.625295   0.000000
   10       15.970660   0.000000
   11       17.033743   0.000000
   12       17.796792   0.000000
   13       19.348527   0.000000
   14       19.958048   0.000000
   15       21.565622   0.000000
   16       23.268816   0.000000
 
 -0.4545455E+00  0.9090909E-01  0.2727273E+00  0.3005259E-02
    1       -3.644063   1.000000
    2       -0.854100   1.000000
    3        2.052371   1.000000
    4        3.232073   1.000000
    5        7.721392   0.000000
    6        9.666008   0.000000
    7       10.461621   0.000000
    8       11.706722   0.000000
    9       14.323482   0.000000
   10       15.976763   0.000000
   11       16.979962   0.000000
   12       18.213005   0.000000
   13       18.938098   0.000000
   14       21.569749   0.000000
   15       22.886163   0.000000
   16       23.632514   0.000000
 
 -0.3636364E+00  0.9090909E-01  0.2727273E+00  0.3005259E-02
    1       -3.391112   1.000000
    2       -1.186317   1.000000
    3        1.830377   1.000000
    4        3.317749   1.000000
    5        7.924488   0.000000
    6        9.406178   0.000000
    7       11.591911   0.000000
    8       12.122561   0.000000
    9       12.587211   0.000000
   10       15.301995   0.000000
   11       17.443838   0.000000
   12       18.245280   0.000000
   13       20.718991   0.000000
   14       21.222581   0.000000
   15       22.452728   0.000000
   16       23.388970   0.000000
 
 -0.2727273E+00  0.9090909E-01  0.2727273E+00  0.3005259E-02
    1       -3.874523   1.000000
    2       -0.527516   1.000000
    3        1.827007   1.000000
    4        3.601220   1.000000
    5        8.267064   0.000000
    6        9.224526   0.000000
    7       10.906337   0.000000
    8       11.541175   0.000000
    9       13.804530   0.000000
   10       14.046666   0.000000
   11       17.682163   0.000000
   12       19.177083   0.000000
   13       19.786977   0.000000
   14       20.298028   0.000000
   15       22.618897   0.000000
   16       22.914117   0.000000
 
 -0.1818182E+00  0.9090909E-01  0.2727273E+00  0.3005259E-02
    1       -4.524717   1.000000
    2        0.421194   1.000000
    3        2.198491   1.000000
    4        3.998933   1.000000
    5        8.673804   0.000000
    6        8.813667   0.000000
    7       10.061969   0.000000
    8       11.081344   0.000000
    9       12.901455   0.000000
   10       15.713351   0.000000
   11       17.119892   0.000000
   12       17.799771   0.000000
   13       18.762858   0.000000
   14       21.015522   0.000000
   15       21.321588   0.000000
   16       23.794003   0.000000
 
 -0.9090909E-01  0.9090909E-01  0.2727273E+00  0.3005259E-02
    1       -5.066306   1.000000
    2        1.155801   1.000000
    3        3.132640   1.000000
    4        4.340009   1.000000
    5        8.070710   0.000000
    6        8.914671   0.000000
    7       10.089393   0.000000
    8       10.307467   0.000000
    9       12.889188   0.000000
   10       15.105822   0.000000
   11       15.670284   0.000000
   12       17.544151   0.000000
   13       19.097730   0.000000
   14       20.506571   0.000000
   15       21.163933   0.000000
   16       23.123820   0.000000
 
  0.1818182E+00  0.1818182E+00  0.2727273E+00  0.1502630E-02
    1       -5.599464   1.000000
    2        2.223816   1.000000
    3        3.943413   1.000000
    4        5.038923   1.000000
    5        8.041879   0.000000
    6        8.680608   0.000000
    7        9.016105   0.000000
    8       11.103130   0.000000
    9       11.855667   0.000000
   10       13.520709   0.000000
   11       14.990948   0.000000
   12       16.600284   0.000000
   13       18.385863   0.000000
   14       20.151641   0.000000
   15       22.262108   0.000000
   16       23.522021   0.000000
 
  0.2727273E+00  0.1818182E+00  0.2727273E+00  0.3005259E-02
    1       -5.431804   1.000000
    2        1.714280   1.000000
    3        4.280832   1.000000
    4        4.389721   1.000000
    5        7.798128   0.000000
    6        8.655174   0.000000
    7        9.573007   0.000000
    8       10.751418   0.000000
    9       12.979815   0.000000
   10       13.444118   0.000000
   11       14.876594   0.000000
   12       17.098228   0.000000
   13       19.068380   0.000000
   14       20.250171   0.000000
   15       22.239611   0.000000
   16       22.739585   0.000000
 
  0.3636364E+00  0.1818182E+00  0.2727273E+00  0.3005259E-02
    1       -5.066299   1.000000
    2        1.155737   1.000000
    3        3.132649   1.000000
    4        4.340072   1.000000
    5        8.070723   0.000000
    6        8.914718   0.000000
    7       10.089386   0.000000
    8       10.307444   0.000000
    9       12.889181   0.000000
   10       15.105741   0.000000
   11       15.670281   0.000000
   12       17.544185   0.000000
   13       19.097723   0.000000
   14       20.506495   0.000000
   15       21.163951   0.000000
   16       23.123779   0.000000
 
  0.4545455E+00  0.1818182E+00  0.2727273E+00  0.3005259E-02
    1       -4.524707   1.000000
    2        0.421138   1.000000
    3        2.198497   1.000000
    4        3.998987   1.000000
    5        8.673856   0.000000
    6        8.813650   0.000000
    7       10.061966   0.000000
    8       11.081339   0.000000
    9       12.901449   0.000000
   10       15.713310   0.000000
   11       17.119834   0.000000
   12       17.799796   0.000000
   13       18.762813   0.000000
   14       21.015533   0.000000
   15       21.321590   0.000000
   16       23.793973   0.000000
 
 -0.4545455E+00  0.1818182E+00  0.2727273E+00  0.3005259E-02
    1       -3.874511   1.000000
    2       -0.527550   1.000000
    3        1.826995   1.000000
    4        3.601261   1.000000
    5        8.267122   0.000000
    6        9.224464   0.000000
    7       10.906358   0.000000
    8       11.541189   0.000000
    9       13.804531   0.000000
   10       14.046613   0.000000
   11       17.682159   0.000000
   12       19.177004   0.000000
   13       19.786979   0.000000
   14       20.298062   0.000000
   15       22.618953   0.000000
   16       22.914068   0.000000
 
 -0.3636364E+00  0.1818182E+00  0.2727273E+00  0.3005259E-02
    1       -3.391106   1.000000
    2       -1.186325   1.000000
    3        1.830355   1.000000
    4        3.317775   1.000000
    5        7.924547   0.000000
    6        9.406112   0.000000
    7       11.591893   0.000000
    8       12.122523   0.000000
    9       12.587273   0.000000
   10       15.301994   0.000000
   11       17.443821   0.000000
   12       18.245301   0.000000
   13       20.719050   0.000000
   14       21.222518   0.000000
   15       22.452742   0.000000
   16       23.388993   0.000000
 
 -0.2727273E+00  0.1818182E+00  0.2727273E+00  0.3005259E-02
    1       -3.644069   1.000000
    2       -0.854082   1.000000
    3        2.052346   1.000000
    4        3.232078   1.000000
    5        7.721452   0.000000
    6        9.665937   0.000000
    7       10.461589   0.000000
    8       11.706714   0.000000
    9       14.323542   0.000000
   10       15.976770   0.000000
   11       16.979982   0.000000
   12       18.212985   0.000000
   13       18.938175   0.000000
   14       21.569712   0.000000
   15       22.886126   0.000000
   16       23.632533   0.000000
 
 -0.1818182E+00  0.1818182E+00  0.2727273E+00  0.3005259E-02
    1       -4.290070   1.000000
    2        0.115399   1.000000
    3        2.431170   1.000000
    4        3.380436   1.000000
    5        7.590361   0.000000
    6        9.148809   0.000000
    7       10.026472   0.000000
    8       11.748848   0.000000
    9       14.625308   0.000000
   10       15.970710   0.000000
   11       17.033819   0.000000
   12       17.796806   0.000000
   13       19.348505   0.000000
   14       19.958033   0.000000
   15       21.565614   0.000000
   16       23.268787   0.000000
 
 -0.9090909E-01  0.1818182E+00  0.2727273E+00  0.3005259E-02
    1       -4.886364   1.000000
    2        1.161525   1.000000
    3        2.992344   1.000000
    4        3.679504   1.000000
    5        7.235133   0.000000
    6        8.742023   0.000000
    7       10.336561   0.000000
    8       11.362851   0.000000
    9       13.762367   0.000000
   10       15.233464   0.000000
   11       16.712598   0.000000
   12       17.805779   0.000000
   13       19.052231   0.000000
   14       20.480490   0.000000
   15       20.555861   0.000000
   16       22.726199   0.000000
 
  0.2727273E+00  0.2727273E+00  0.2727273E+00  0.1502630E-02
    1       -5.339047   1.000000
    2        1.200335   1.000000
    3        4.641663   1.000000
    4        4.641710   1.000000
    5        7.266941   0.000000
    6        8.955702   0.000000
    7        8.955752   0.000000
    8       12.433846   0.000000
    9       12.774521   0.000000
   10       12.774539   0.000000
   11       14.247631   0.000000
   12       17.516285   0.000000
   13       20.144113   0.000000
   14       20.144136   0.000000
   15       22.613692   0.000000
   16       22.613711   0.000000
 
  0.3636364E+00  0.2727273E+00  0.2727273E+00  0.3005259E-02
    1       -5.047263   1.000000
    2        0.718883   1.000000
    3        3.648504   1.000000
    4        4.685314   1.000000
    5        7.746172   0.000000
    6        8.969672   0.000000
    7        9.160604   0.000000
    8       12.015838   0.000000
    9       12.253865   0.000000
   10       14.696661   0.000000
   11       14.830304   0.000000
   12       17.978528   0.000000
   13       19.333842   0.000000
   14       21.149050   0.000000
   15       21.150138   0.000000
   16       22.737133   0.000000
 
  0.4545455E+00  0.2727273E+00  0.2727273E+00  0.3005259E-02
    1       -4.571751   1.000000
    2        0.263746   1.000000
    3        2.392627   1.000000
    4        4.380719   1.000000
    5        8.042863   0.000000
    6        9.636033   0.000000
    7        9.733499   0.000000
    8       11.644361   0.000000
    9       11.983765   0.000000
   10       15.387315   0.000000
   11       17.021433   0.000000
   12       17.368782   0.000000
   13       19.142340   0.000000
   14       21.140000   0.000000
   15       21.809413   0.000000
   16       22.681779   0.000000
 
 -0.4545455E+00  0.2727273E+00  0.2727273E+00  0.3005259E-02
    1       -3.954065   1.000000
    2       -0.354099   1.000000
    3        1.585675   1.000000
    4        3.948298   1.000000
    5        7.649827   0.000000
    6       10.567307   0.000000
    7       10.907592   0.000000
    8       11.675315   0.000000
    9       12.162623   0.000000
   10       13.971629   0.000000
   11       18.312706   0.000000
   12       18.972154   0.000000
   13       19.358193   0.000000
   14       21.927160   0.000000
   15       22.051903   0.000000
   16       22.656835   0.000000
 
 -0.3636364E+00  0.2727273E+00  0.2727273E+00  0.3005259E-02
    1       -3.345195   1.000000
    2       -1.086834   1.000000
    3        1.426976   1.000000
    4        3.560037   1.000000
    5        7.229174   0.000000
    6       11.163154   0.000000
    7       11.174934   0.000000
    8       12.033165   0.000000
    9       13.044354   0.000000
   10       13.212491   0.000000
   11       18.354397   0.000000
   12       20.258066   0.000000
   13       20.349579   0.000000
   14       21.099403   0.000000
   15       21.711133   0.000000
   16       22.918147   0.000000
 
 -0.2727273E+00  0.2727273E+00  0.2727273E+00  0.3005259E-02
    1       -3.289640   1.000000
    2       -1.164432   1.000000
    3        1.699333   1.000000
    4        3.295146   1.000000
    5        6.953039   0.000000
    6       10.157320   0.000000
    7       11.395213   0.000000
    8       11.512950   0.000000
    9       14.738710   0.000000
   10       14.917968   0.000000
   11       18.395266   0.000000
   12       18.401045   0.000000
   13       18.801673   0.000000
   14       22.710087   0.000000
   15       22.754826   0.000000
   16       23.206340   0.000000
 
 -0.1818182E+00  0.2727273E+00  0.2727273E+00  0.3005259E-02
    1       -3.876948   1.000000
    2       -0.395819   1.000000
    3        2.253073   1.000000
    4        3.187130   1.000000
    5        6.822520   0.000000
    6        8.709517   0.000000
    7       11.568850   0.000000
    8       11.826292   0.000000
    9       16.267055   0.000000
   10       16.589392   0.000000
   11       16.928212   0.000000
   12       16.965923   0.000000
   13       18.918892   0.000000
   14       20.799659   0.000000
   15       21.944567   0.000000
   16       23.523688   0.000000
 
 -0.9090909E-01  0.2727273E+00  0.2727273E+00  0.3005259E-02
    1       -4.513015   1.000000
    2        0.598865   1.000000
    3        2.954745   1.000000
    4        3.247673   1.000000
    5        6.620901   0.000000
    6        7.984480   0.000000
    7       11.739076   0.000000
    8       11.941427   0.000000
    9       15.055304   0.000000
   10       15.271893   0.000000
   11       17.328295   0.000000
   12       18.571828   0.000000
   13       19.035528   0.000000
   14       19.985382   0.000000
   15       21.060028   0.000000
   16       21.971462   0.000000
 
  0.3636364E+00  0.3636364E+00  0.2727273E+00  0.1502630E-02
    1       -4.831976   1.000000
    2        0.251190   1.000000
    3        4.017362   1.000000
    4        4.097185   1.000000
    5        7.619946   0.000000
    6        8.737046   0.000000
    7        9.526279   0.000000
    8       11.511301   0.000000
    9       14.223417   0.000000
   10       14.318857   0.000000
   11       14.796338   0.000000
   12       18.614762   0.000000
   13       18.915521   0.000000
   14       20.364283   0.000000
   15       22.074068   0.000000
   16       22.361119   0.000000
 
  0.4545455E+00  0.3636364E+00  0.2727273E+00  0.3005259E-02
    1       -4.431947   1.000000
    2       -0.141440   1.000000
    3        2.873809   1.000000
    4        4.010193   1.000000
    5        8.077778   0.000000
    6        8.775525   0.000000
    7       10.177787   0.000000
    8       11.127204   0.000000
    9       13.958961   0.000000
   10       15.132307   0.000000
   11       16.818285   0.000000
   12       17.184799   0.000000
   13       19.348126   0.000000
   14       20.483163   0.000000
   15       21.999449   0.000000
   16       22.895839   0.000000
 
 -0.4545455E+00  0.3636364E+00  0.2727273E+00  0.3005259E-02
    1       -3.874506   1.000000
    2       -0.527570   1.000000
    3        1.827012   1.000000
    4        3.601260   1.000000
    5        8.267122   0.000000
    6        9.224492   0.000000
    7       10.906328   0.000000
    8       11.541219   0.000000
    9       13.804490   0.000000
   10       14.046619   0.000000
   11       17.682174   0.000000
   12       19.177008   0.000000
   13       19.786936   0.000000
   14       20.298034   0.000000
   15       22.618892   0.000000
   16       22.914110   0.000000
 
 -0.3636364E+00  0.3636364E+00  0.2727273E+00  0.3005259E-02
    1       -3.235570   1.000000
    2       -1.068689   1.000000
    3        1.315720   1.000000
    4        3.162439   1.000000
    5        7.800564   0.000000
    6       10.463204   0.000000
    7       11.166046   0.000000
    8       12.050209   0.000000
    9       12.862366   0.000000
   10       14.075878   0.000000
   11       19.418603   0.000000
   12       19.675697   0.000000
   13       19.879521   0.000000
   14       21.612066   0.000000
   15       21.707010   0.000000
   16       22.798411   0.000000
 
 -0.2727273E+00  0.3636364E+00  0.2727273E+00  0.3005259E-02
    1       -2.863177   1.000000
    2       -1.457781   1.000000
    3        1.415905   1.000000
    4        2.851285   1.000000
    5        7.443616   0.000000
    6       10.070510   0.000000
    7       11.046687   0.000000
    8       12.613251   0.000000
    9       13.386084   0.000000
   10       15.391260   0.000000
   11       18.279520   0.000000
   12       19.522100   0.000000
   13       20.714868   0.000000
   14       21.181750   0.000000
   15       22.400389   0.000000
   16       23.284011   0.000000
 
 -0.1818182E+00  0.3636364E+00  0.2727273E+00  0.3005259E-02
    1       -3.310110   1.000000
    2       -0.979691   1.000000
    3        1.915628   1.000000
    4        2.739996   1.000000
    5        7.234890   0.000000
    6        8.530308   0.000000
    7       11.343676   0.000000
    8       13.411674   0.000000
    9       14.603705   0.000000
   10       16.425559   0.000000
   11       17.286996   0.000000
   12       18.959555   0.000000
   13       19.775301   0.000000
   14       20.303025   0.000000
   15       22.222838   0.000000
   16       22.750078   0.000000
 
 -0.9090909E-01  0.3636364E+00  0.2727273E+00  0.3005259E-02
    1       -3.966022   1.000000
    2       -0.181387   1.000000
    3        2.531866   1.000000
    4        2.911036   1.000000
    5        6.892224   0.000000
    6        7.744892   0.000000
    7       11.683226   0.000000
    8       13.062197   0.000000
    9       15.371282   0.000000
   10       16.507082   0.000000
   11       16.991610   0.000000
   12       18.493075   0.000000
   13       19.315525   0.000000
   14       20.013949   0.000000
   15       21.402908   0.000000
   16       21.979355   0.000000
 
  0.4545455E+00  0.4545455E+00  0.2727273E+00  0.1502630E-02
    1       -4.115352   1.000000
    2       -0.524582   1.000000
    3        2.773188   1.000000
    4        3.613801   1.000000
    5        7.379368   0.000000
    6        9.788573   0.000000
    7       10.389305   0.000000
    8       10.660968   0.000000
    9       15.242310   0.000000
   10       16.177692   0.000000
   11       16.695805   0.000000
   12       16.930227   0.000000
   13       17.928556   0.000000
   14       21.283487   0.000000
   15       22.902145   0.000000
   16       23.006385   0.000000
 
 -0.4545455E+00  0.4545455E+00  0.2727273E+00  0.3005259E-02
    1       -3.644052   1.000000
    2       -0.854130   1.000000
    3        2.052384   1.000000
    4        3.232078   1.000000
    5        7.721422   0.000000
    6        9.666005   0.000000
    7       10.461587   0.000000
    8       11.706757   0.000000
    9       14.323486   0.000000
   10       15.976713   0.000000
   11       16.979943   0.000000
   12       18.213005   0.000000
   13       18.938086   0.000000
   14       21.569750   0.000000
   15       22.886123   0.000000
   16       23.632530   0.000000
 
 -0.3636364E+00  0.4545455E+00  0.2727273E+00  0.3005259E-02
    1       -3.059471   1.000000
    2       -1.238619   1.000000
    3        1.534063   1.000000
    4        2.630121   1.000000
    5        8.886429   0.000000
    6        9.209944   0.000000
    7       10.453222   0.000000
    8       12.274916   0.000000
    9       13.416877   0.000000
   10       15.907257   0.000000
   11       17.760367   0.000000
   12       19.233616   0.000000
   13       20.623992   0.000000
   14       21.424237   0.000000
   15       22.125113   0.000000
   16       23.635031   0.000000
 
 -0.2727273E+00  0.4545455E+00  0.2727273E+00  0.3005259E-02
    1       -2.469481   1.000000
    2       -1.749250   1.000000
    3        1.494877   1.000000
    4        2.166366   1.000000
    5        8.778021   0.000000
    6       10.054178   0.000000
    7       10.704958   0.000000
    8       10.730548   0.000000
    9       14.906547   0.000000
   10       15.979658   0.000000
   11       17.927062   0.000000
   12       19.085816   0.000000
   13       20.885384   0.000000
   14       21.889893   0.000000
   15       23.155228   0.000000
   16       23.341630   0.000000
 
 -0.1818182E+00  0.4545455E+00  0.2727273E+00  0.3005259E-02
    1       -2.659018   1.000000
    2       -1.590832   1.000000
    3        1.760756   1.000000
    4        2.131814   1.000000
    5        8.431719   0.000000
    6        8.643836   0.000000
    7       10.946675   0.000000
    8       12.505355   0.000000
    9       14.892272   0.000000
   10       16.317342   0.000000
   11       17.631671   0.000000
   12       18.932694   0.000000
   13       20.792875   0.000000
   14       21.514711   0.000000
   15       22.128615   0.000000
   16       23.238860   0.000000
 
 -0.9090909E-01  0.4545455E+00  0.2727273E+00  0.3005259E-02
    1       -3.310111   1.000000
    2       -0.979696   1.000000
    3        1.915677   1.000000
    4        2.739952   1.000000
    5        7.234843   0.000000
    6        8.530355   0.000000
    7       11.343676   0.000000
    8       13.411730   0.000000
    9       14.603706   0.000000
   10       16.425491   0.000000
   11       17.286929   0.000000
   12       18.959570   0.000000
   13       19.775305   0.000000
   14       20.303076   0.000000
   15       22.222850   0.000000
   16       22.750093   0.000000
 
 -0.4545455E+00 -0.4545455E+00  0.2727273E+00  0.1502630E-02
    1       -3.289627   1.000000
    2       -1.164471   1.000000
    3        1.699383   1.000000
    4        3.295124   1.000000
    5        6.953013   0.000000
    6       10.157350   0.000000
    7       11.395219   0.000000
    8       11.513028   0.000000
    9       14.738680   0.000000
   10       14.917895   0.000000
   11       18.395158   0.000000
   12       18.401054   0.000000
   13       18.801653   0.000000
   14       22.710119   0.000000
   15       22.754961   0.000000
   16       23.206322   0.000000
 
 -0.3636364E+00 -0.4545455E+00  0.2727273E+00  0.3005259E-02
    1       -2.863172   1.000000
    2       -1.457796   1.000000
    3        1.415938   1.000000
    4        2.851262   1.000000
    5        7.443593   0.000000
    6       10.070544   0.000000
    7       11.046704   0.000000
    8       12.613227   0.000000
    9       13.386135   0.000000
   10       15.391201   0.000000
   11       18.279448   0.000000
   12       19.522122   0.000000
   13       20.714880   0.000000
   14       21.181763   0.000000
   15       22.400358   0.000000
   16       23.284059   0.000000
 
 -0.2727273E+00 -0.4545455E+00  0.2727273E+00  0.3005259E-02
    1       -2.469501   1.000000
    2       -1.749224   1.000000
    3        1.494889   1.000000
    4        2.166349   1.000000
    5        8.777998   0.000000
    6       10.054203   0.000000
    7       10.704958   0.000000
    8       10.730546   0.000000
    9       14.906550   0.000000
   10       15.979655   0.000000
   11       17.927066   0.000000
   12       19.085813   0.000000
   13       20.885353   0.000000
   14       21.889912   0.000000
   15       23.155235   0.000000
   16       23.341654   0.000000
 
 -0.1818182E+00 -0.4545455E+00  0.2727273E+00  0.3005259E-02
    1       -2.469520   1.000000
    2       -1.749200   1.000000
    3        1.494900   1.000000
    4        2.166332   1.000000
    5        8.777967   0.000000
    6       10.054237   0.000000
    7       10.704960   0.000000
    8       10.730546   0.000000
    9       14.906552   0.000000
   10       15.979654   0.000000
   11       17.927067   0.000000
   12       19.085812   0.000000
   13       20.885317   0.000000
   14       21.889932   0.000000
   15       23.155245   0.000000
   16       23.341681   0.000000
 
 -0.9090909E-01 -0.4545455E+00  0.2727273E+00  0.3005259E-02
    1       -2.863195   1.000000
    2       -1.457760   1.000000
    3        1.415944   1.000000
    4        2.851240   1.000000
    5        7.443565   0.000000
    6       10.070575   0.000000
    7       11.046679   0.000000
    8       12.613257   0.000000
    9       13.386142   0.000000
   10       15.391194   0.000000
   11       18.279453   0.000000
   12       19.522100   0.000000
   13       20.714913   0.000000
   14       21.181777   0.000000
   15       22.400372   0.000000
   16       23.283984   0.000000
 
 -0.3636364E+00 -0.3636364E+00  0.2727273E+00  0.1502630E-02
    1       -2.766288   1.000000
    2       -1.559940   1.000000
    3        1.262056   1.000000
    4        3.184944   1.000000
    5        6.792600   0.000000
    6        9.998902   0.000000
    7       12.487261   0.000000
    8       13.005116   0.000000
    9       13.187066   0.000000
   10       13.676259   0.000000
   11       19.875435   0.000000
   12       20.349226   0.000000
   13       20.642886   0.000000
   14       20.833498   0.000000
   15       20.913631   0.000000
   16       22.458173   0.000000
 
 -0.2727273E+00 -0.3636364E+00  0.2727273E+00  0.3005259E-02
    1       -2.863202   1.000000
    2       -1.457742   1.000000
    3        1.415911   1.000000
    4        2.851263   1.000000
    5        7.443595   0.000000
    6       10.070531   0.000000
    7       11.046672   0.000000
    8       12.613269   0.000000
    9       13.386090   0.000000
   10       15.391253   0.000000
   11       18.279526   0.000000
   12       19.522079   0.000000
   13       20.714891   0.000000
   14       21.181753   0.000000
   15       22.400398   0.000000
   16       23.283968   0.000000
 
 -0.1818182E+00 -0.3636364E+00  0.2727273E+00  0.3005259E-02
    1       -3.059505   1.000000
    2       -1.238550   1.000000
    3        1.534045   1.000000
    4        2.630102   1.000000
    5        8.886439   0.000000
    6        9.209874   0.000000
    7       10.453249   0.000000
    8       12.274959   0.000000
    9       13.416826   0.000000
   10       15.907321   0.000000
   11       17.760424   0.000000
   12       19.233566   0.000000
   13       20.623935   0.000000
   14       21.424326   0.000000
   15       22.125140   0.000000
   16       23.635046   0.000000
 
 -0.9090909E-01 -0.3636364E+00  0.2727273E+00  0.3005259E-02
    1       -3.235597   1.000000
    2       -1.068634   1.000000
    3        1.315729   1.000000
    4        3.162398   1.000000
    5        7.800510   0.000000
    6       10.463229   0.000000
    7       11.166047   0.000000
    8       12.050261   0.000000
    9       12.862358   0.000000
   10       14.075878   0.000000
   11       19.418538   0.000000
   12       19.675690   0.000000
   13       19.879552   0.000000
   14       21.612163   0.000000
   15       21.707023   0.000000
   16       22.798455   0.000000
 
 -0.2727273E+00 -0.2727273E+00  0.2727273E+00  0.1502630E-02
    1       -3.289659   1.000000
    2       -1.164394   1.000000
    3        1.699331   1.000000
    4        3.295128   1.000000
    5        6.953016   0.000000
    6       10.157341   0.000000
    7       11.395206   0.000000
    8       11.512946   0.000000
    9       14.738709   0.000000
   10       14.917981   0.000000
   11       18.395280   0.000000
   12       18.401039   0.000000
   13       18.801686   0.000000
   14       22.710061   0.000000
   15       22.754823   0.000000
   16       23.206366   0.000000
 
 -0.1818182E+00 -0.2727273E+00  0.2727273E+00  0.3005259E-02
    1       -3.644080   1.000000
    2       -0.854049   1.000000
    3        2.052332   1.000000
    4        3.232074   1.000000
    5        7.721427   0.000000
    6        9.665939   0.000000
    7       10.461614   0.000000
    8       11.706692   0.000000
    9       14.323539   0.000000
   10       15.976797   0.000000
   11       16.979988   0.000000
   12       18.212979   0.000000
   13       18.938187   0.000000
   14       21.569712   0.000000
   15       22.886147   0.000000
   16       23.632517   0.000000
 
 -0.9090909E-01 -0.2727273E+00  0.2727273E+00  0.3005259E-02
    1       -3.874529   1.000000
    2       -0.527495   1.000000
    3        1.826991   1.000000
    4        3.601222   1.000000
    5        8.267064   0.000000
    6        9.224504   0.000000
    7       10.906358   0.000000
    8       11.541155   0.000000
    9       13.804558   0.000000
   10       14.046660   0.000000
   11       17.682146   0.000000
   12       19.177079   0.000000
   13       19.787011   0.000000
   14       20.298039   0.000000
   15       22.618927   0.000000
   16       22.914087   0.000000
 
 -0.1818182E+00 -0.1818182E+00  0.2727273E+00  0.1502630E-02
    1       -4.115374   1.000000
    2       -0.524502   1.000000
    3        2.773117   1.000000
    4        3.613810   1.000000
    5        7.379370   0.000000
    6        9.788548   0.000000
    7       10.389218   0.000000
    8       10.660976   0.000000
    9       15.242325   0.000000
   10       16.177830   0.000000
   11       16.695882   0.000000
   12       16.930287   0.000000
   13       17.928523   0.000000
   14       21.283467   0.000000
   15       22.902128   0.000000
   16       23.006403   0.000000
 
 -0.9090909E-01 -0.1818182E+00  0.2727273E+00  0.3005259E-02
    1       -4.431964   1.000000
    2       -0.141365   1.000000
    3        2.873774   1.000000
    4        4.010163   1.000000
    5        8.077757   0.000000
    6        8.775510   0.000000
    7       10.177733   0.000000
    8       11.127197   0.000000
    9       13.959029   0.000000
   10       15.132343   0.000000
   11       16.818373   0.000000
   12       17.184810   0.000000
   13       19.348154   0.000000
   14       20.483160   0.000000
   15       21.999461   0.000000
   16       22.895848   0.000000
 
 -0.9090909E-01 -0.9090909E-01  0.2727273E+00  0.1502630E-02
    1       -4.831989   1.000000
    2        0.251260   1.000000
    3        4.017285   1.000000
    4        4.097199   1.000000
    5        7.619917   0.000000
    6        8.737063   0.000000
    7        9.526188   0.000000
    8       11.511300   0.000000
    9       14.223441   0.000000
   10       14.318961   0.000000
   11       14.796379   0.000000
   12       18.614728   0.000000
   13       18.915586   0.000000
   14       20.364292   0.000000
   15       22.074100   0.000000
   16       22.361129   0.000000
 
  0.0000000E+00  0.0000000E+00  0.3636364E+00  0.1502630E-02
    1       -4.703347   1.000000
    2       -0.211551   1.000000
    3        4.414825   1.000000
    4        4.414870   1.000000
    5        7.007386   0.000000
    6        8.916939   0.000000
    7        8.916993   0.000000
    8       13.244025   0.000000
    9       13.790238   0.000000
   10       13.790277   0.000000
   11       14.656150   0.000000
   12       19.080063   0.000000
   13       19.207022   0.000000
   14       19.207075   0.000000
   15       21.695424   0.000000
   16       23.433203   0.000000
 
  0.9090909E-01  0.0000000E+00  0.3636364E+00  0.3005259E-02
    1       -4.831989   1.000000
    2        0.251256   1.000000
    3        4.017318   1.000000
    4        4.097171   1.000000
    5        7.619913   0.000000
    6        8.737032   0.000000
    7        9.526223   0.000000
    8       11.511334   0.000000
    9       14.223424   0.000000
   10       14.318930   0.000000
   11       14.796379   0.000000
   12       18.614733   0.000000
   13       18.915552   0.000000
   14       20.364298   0.000000
   15       22.074113   0.000000
   16       22.361150   0.000000
 
  0.1818182E+00  0.0000000E+00  0.3636364E+00  0.3005259E-02
    1       -4.769304   1.000000
    2        0.668721   1.000000
    3        3.237658   1.000000
    4        3.646898   1.000000
    5        7.342481   0.000000
    6        9.450678   0.000000
    7       10.037591   0.000000
    8       10.622512   0.000000
    9       14.872981   0.000000
   10       14.880684   0.000000
   11       15.834990   0.000000
   12       18.502742   0.000000
   13       18.679863   0.000000
   14       20.285909   0.000000
   15       21.241987   0.000000
   16       22.479877   0.000000
 
  0.2727273E+00  0.0000000E+00  0.3636364E+00  0.3005259E-02
    1       -4.513016   1.000000
    2        0.598869   1.000000
    3        2.954779   1.000000
    4        3.247637   1.000000
    5        6.620880   0.000000
    6        7.984500   0.000000
    7       11.739079   0.000000
    8       11.941435   0.000000
    9       15.055303   0.000000
   10       15.271884   0.000000
   11       17.328278   0.000000
   12       18.571833   0.000000
   13       19.035518   0.000000
   14       19.985372   0.000000
   15       21.060061   0.000000
   16       21.971462   0.000000
 
  0.3636364E+00  0.0000000E+00  0.3636364E+00  0.3005259E-02
    1       -4.070632   1.000000
    2       -0.048384   1.000000
    3        2.980999   1.000000
    4        2.981033   1.000000
    5        6.148569   0.000000
    6        7.164409   0.000000
    7       13.095430   0.000000
    8       13.095432   0.000000
    9       15.500696   0.000000
   10       15.637360   0.000000
   11       18.399838   0.000000
   12       18.399856   0.000000
   13       18.640466   0.000000
   14       20.678310   0.000000
   15       20.965498   0.000000
   16       21.834954   0.000000
 
  0.4545455E+00  0.0000000E+00  0.3636364E+00  0.3005259E-02
    1       -3.469352   1.000000
    2       -0.839900   1.000000
    3        2.470290   1.000000
    4        2.878539   1.000000
    5        6.355864   0.000000
    6        7.169268   0.000000
    7       13.399845   0.000000
    8       13.429834   0.000000
    9       16.671716   0.000000
   10       16.746855   0.000000
   11       17.030001   0.000000
   12       17.157465   0.000000
   13       19.690056   0.000000
   14       20.309718   0.000000
   15       20.950842   0.000000
   16       22.969721   0.000000
 
 -0.4545455E+00  0.0000000E+00  0.3636364E+00  0.3005259E-02
    1       -2.821277   1.000000
    2       -1.534401   1.000000
    3        1.726610   1.000000
    4        2.948819   1.000000
    5        6.525427   0.000000
    6        8.314990   0.000000
    7       13.159140   0.000000
    8       13.261263   0.000000
    9       14.979243   0.000000
   10       15.133701   0.000000
   11       18.540746   0.000000
   12       18.750495   0.000000
   13       20.465650   0.000000
   14       20.547678   0.000000
   15       21.106300   0.000000
   16       23.269979   0.000000
 
 -0.3636364E+00  0.0000000E+00  0.3636364E+00  0.3005259E-02
    1       -2.766307   1.000000
    2       -1.559913   1.000000
    3        1.262067   1.000000
    4        3.184926   1.000000
    5        6.792571   0.000000
    6        9.998936   0.000000
    7       12.487278   0.000000
    8       13.005104   0.000000
    9       13.187078   0.000000
   10       13.676244   0.000000
   11       19.875443   0.000000
   12       20.349200   0.000000
   13       20.642865   0.000000
   14       20.833515   0.000000
   15       20.913648   0.000000
   16       22.458146   0.000000
 
 -0.2727273E+00  0.0000000E+00  0.3636364E+00  0.3005259E-02
    1       -3.345222   1.000000
    2       -1.086779   1.000000
    3        1.426987   1.000000
    4        3.559995   1.000000
    5        7.229120   0.000000
    6       11.163194   0.000000
    7       11.174951   0.000000
    8       12.033203   0.000000
    9       13.044348   0.000000
   10       13.212467   0.000000
   11       18.354376   0.000000
   12       20.258074   0.000000
   13       20.349534   0.000000
   14       21.099415   0.000000
   15       21.711250   0.000000
   16       22.918192   0.000000
 
 -0.1818182E+00  0.0000000E+00  0.3636364E+00  0.3005259E-02
    1       -3.927523   1.000000
    2       -0.810013   1.000000
    3        2.304511   1.000000
    4        4.006943   1.000000
    5        7.702556   0.000000
    6        9.672108   0.000000
    7        9.888170   0.000000
    8       13.020231   0.000000
    9       13.189520   0.000000
   10       13.964944   0.000000
   11       16.676593   0.000000
   12       18.965599   0.000000
   13       19.977632   0.000000
   14       20.120786   0.000000
   15       21.597782   0.000000
   16       23.916112   0.000000
 
 -0.9090909E-01  0.0000000E+00  0.3636364E+00  0.3005259E-02
    1       -4.394371   1.000000
    2       -0.565572   1.000000
    3        3.525791   1.000000
    4        4.371232   1.000000
    5        7.533631   0.000000
    6        8.965570   0.000000
    7        9.049858   0.000000
    8       13.086777   0.000000
    9       13.396862   0.000000
   10       14.523487   0.000000
   11       16.444178   0.000000
   12       17.135849   0.000000
   13       19.566293   0.000000
   14       19.658483   0.000000
   15       21.837126   0.000000
   16       23.329106   0.000000
 
  0.9090909E-01  0.9090909E-01  0.3636364E+00  0.1502630E-02
    1       -5.047271   1.000000
    2        0.718943   1.000000
    3        3.648470   1.000000
    4        4.685293   1.000000
    5        7.746145   0.000000
    6        8.969635   0.000000
    7        9.160571   0.000000
    8       12.015873   0.000000
    9       12.253925   0.000000
   10       14.696660   0.000000
   11       14.830346   0.000000
   12       17.978499   0.000000
   13       19.333835   0.000000
   14       21.149100   0.000000
   15       21.150172   0.000000
   16       22.737158   0.000000
 
  0.1818182E+00  0.9090909E-01  0.3636364E+00  0.3005259E-02
    1       -5.066304   1.000000
    2        1.155789   1.000000
    3        3.132625   1.000000
    4        4.340043   1.000000
    5        8.070696   0.000000
    6        8.914701   0.000000
    7       10.089393   0.000000
    8       10.307447   0.000000
    9       12.889214   0.000000
   10       15.105782   0.000000
   11       15.670276   0.000000
   12       17.544162   0.000000
   13       19.097711   0.000000
   14       20.506544   0.000000
   15       21.163955   0.000000
   16       23.123833   0.000000
 
  0.2727273E+00  0.9090909E-01  0.3636364E+00  0.3005259E-02
    1       -4.886362   1.000000
    2        1.161503   1.000000
    3        2.992347   1.000000
    4        3.679527   1.000000
    5        7.235128   0.000000
    6        8.742018   0.000000
    7       10.336595   0.000000
    8       11.362849   0.000000
    9       13.762366   0.000000
   10       15.233416   0.000000
   11       16.712583   0.000000
   12       17.805805   0.000000
   13       19.052221   0.000000
   14       20.480487   0.000000
   15       20.555831   0.000000
   16       22.726184   0.000000
 
  0.3636364E+00  0.9090909E-01  0.3636364E+00  0.3005259E-02
    1       -4.513012   1.000000
    2        0.598844   1.000000
    3        2.954769   1.000000
    4        3.247672   1.000000
    5        6.620897   0.000000
    6        7.984477   0.000000
    7       11.739094   0.000000
    8       11.941464   0.000000
    9       15.055281   0.000000
   10       15.271842   0.000000
   11       17.328279   0.000000
   12       18.571797   0.000000
   13       19.035561   0.000000
   14       19.985378   0.000000
   15       21.060013   0.000000
   16       21.971434   0.000000
 
  0.4545455E+00  0.9090909E-01  0.3636364E+00  0.3005259E-02
    1       -3.966018   1.000000
    2       -0.181402   1.000000
    3        2.531867   1.000000
    4        2.911050   1.000000
    5        6.892219   0.000000
    6        7.744892   0.000000
    7       11.683260   0.000000
    8       13.062197   0.000000
    9       15.371277   0.000000
   10       16.507041   0.000000
   11       16.991565   0.000000
   12       18.493090   0.000000
   13       19.315509   0.000000
   14       20.013955   0.000000
   15       21.402931   0.000000
   16       21.979381   0.000000
 
 -0.4545455E+00  0.9090909E-01  0.3636364E+00  0.3005259E-02
    1       -3.310107   1.000000
    2       -0.979705   1.000000
    3        1.915671   1.000000
    4        2.739967   1.000000
    5        7.234839   0.000000
    6        8.530356   0.000000
    7       11.343709   0.000000
    8       13.411703   0.000000
    9       14.603657   0.000000
   10       16.425527   0.000000
   11       17.286974   0.000000
   12       18.959535   0.000000
   13       19.775276   0.000000
   14       20.303047   0.000000
   15       22.222892   0.000000
   16       22.750102   0.000000
 
 -0.3636364E+00  0.9090909E-01  0.3636364E+00  0.3005259E-02
    1       -2.863192   1.000000
    2       -1.457764   1.000000
    3        1.415939   1.000000
    4        2.851247   1.000000
    5        7.443563   0.000000
    6       10.070575   0.000000
    7       11.046709   0.000000
    8       12.613237   0.000000
    9       13.386089   0.000000
   10       15.391238   0.000000
   11       18.279492   0.000000
   12       19.522102   0.000000
   13       20.714879   0.000000
   14       21.181705   0.000000
   15       22.400364   0.000000
   16       23.284057   0.000000
 
 -0.2727273E+00  0.9090909E-01  0.3636364E+00  0.3005259E-02
    1       -3.235597   1.000000
    2       -1.068634   1.000000
    3        1.315729   1.000000
    4        3.162398   1.000000
    5        7.800510   0.000000
    6       10.463229   0.000000
    7       11.166047   0.000000
    8       12.050261   0.000000
    9       12.862358   0.000000
   10       14.075878   0.000000
   11       19.418538   0.000000
   12       19.675690   0.000000
   13       19.879552   0.000000
   14       21.612163   0.000000
   15       21.707023   0.000000
   16       22.798455   0.000000
 
 -0.1818182E+00  0.9090909E-01  0.3636364E+00  0.3005259E-02
    1       -3.874529   1.000000
    2       -0.527497   1.000000
    3        1.826998   1.000000
    4        3.601215   1.000000
    5        8.267068   0.000000
    6        9.224476   0.000000
    7       10.906373   0.000000
    8       11.541199   0.000000
    9       13.804526   0.000000
   10       14.046656   0.000000
   11       17.682137   0.000000
   12       19.177074   0.000000
   13       19.786991   0.000000
   14       20.298047   0.000000
   15       22.618965   0.000000
   16       22.914108   0.000000
 
 -0.9090909E-01  0.9090909E-01  0.3636364E+00  0.3005259E-02
    1       -4.431964   1.000000
    2       -0.141368   1.000000
    3        2.873792   1.000000
    4        4.010147   1.000000
    5        8.077754   0.000000
    6        8.775480   0.000000
    7       10.177770   0.000000
    8       11.127233   0.000000
    9       13.958987   0.000000
   10       15.132338   0.000000
   11       16.818374   0.000000
   12       17.184805   0.000000
   13       19.348127   0.000000
   14       20.483167   0.000000
   15       21.999467   0.000000
   16       22.895889   0.000000
 
  0.1818182E+00  0.1818182E+00  0.3636364E+00  0.1502630E-02
    1       -5.166604   1.000000
    2        1.417766   1.000000
    3        2.869335   1.000000
    4        4.780161   1.000000
    5        8.338031   0.000000
    6        9.149509   0.000000
    7        9.428576   0.000000
    8       10.983673   0.000000
    9       11.570636   0.000000
   10       15.190958   0.000000
   11       15.891454   0.000000
   12       16.988437   0.000000
   13       18.977870   0.000000
   14       20.214059   0.000000
   15       21.689610   0.000000
   16       23.619038   0.000000
 
  0.2727273E+00  0.1818182E+00  0.3636364E+00  0.3005259E-02
    1       -5.066300   1.000000
    2        1.155750   1.000000
    3        3.132664   1.000000
    4        4.340037   1.000000
    5        8.070739   0.000000
    6        8.914690   0.000000
    7       10.089389   0.000000
    8       10.307459   0.000000
    9       12.889165   0.000000
   10       15.105768   0.000000
   11       15.670286   0.000000
   12       17.544179   0.000000
   13       19.097708   0.000000
   14       20.506519   0.000000
   15       21.163948   0.000000
   16       23.123779   0.000000
 
  0.3636364E+00  0.1818182E+00  0.3636364E+00  0.3005259E-02
    1       -4.769296   1.000000
    2        0.668669   1.000000
    3        3.237669   1.000000
    4        3.646935   1.000000
    5        7.342522   0.000000
    6        9.450627   0.000000
    7       10.037616   0.000000
    8       10.622542   0.000000
    9       14.872925   0.000000
   10       14.880653   0.000000
   11       15.835002   0.000000
   12       18.502768   0.000000
   13       18.679839   0.000000
   14       20.285907   0.000000
   15       21.241930   0.000000
   16       22.479852   0.000000
 
  0.4545455E+00  0.1818182E+00  0.3636364E+00  0.3005259E-02
    1       -4.290061   1.000000
    2        0.115354   1.000000
    3        2.431176   1.000000
    4        3.380476   1.000000
    5        7.590349   0.000000
    6        9.148803   0.000000
    7       10.026529   0.000000
    8       11.748856   0.000000
    9       14.625285   0.000000
   10       15.970667   0.000000
   11       17.033740   0.000000
   12       17.796808   0.000000
   13       19.348514   0.000000
   14       19.958014   0.000000
   15       21.565619   0.000000
   16       23.268836   0.000000
 
 -0.4545455E+00  0.1818182E+00  0.3636364E+00  0.3005259E-02
    1       -3.668880   1.000000
    2       -0.560967   1.000000
    3        1.805160   1.000000
    4        2.936604   1.000000
    5        8.505455   0.000000
    6        9.169701   0.000000
    7        9.651671   0.000000
    8       12.966599   0.000000
    9       14.236426   0.000000
   10       14.791629   0.000000
   11       18.795963   0.000000
   12       19.020748   0.000000
   13       19.422087   0.000000
   14       19.830233   0.000000
   15       21.825069   0.000000
   16       23.192494   0.000000
 
 -0.3636364E+00  0.1818182E+00  0.3636364E+00  0.3005259E-02
    1       -3.059481   1.000000
    2       -1.238597   1.000000
    3        1.534054   1.000000
    4        2.630119   1.000000
    5        8.886402   0.000000
    6        9.209940   0.000000
    7       10.453258   0.000000
    8       12.274916   0.000000
    9       13.416842   0.000000
   10       15.907293   0.000000
   11       17.760405   0.000000
   12       19.233596   0.000000
   13       20.623962   0.000000
   14       21.424240   0.000000
   15       22.125126   0.000000
   16       23.635102   0.000000
 
 -0.2727273E+00  0.1818182E+00  0.3636364E+00  0.3005259E-02
    1       -3.059493   1.000000
    2       -1.238573   1.000000
    3        1.534055   1.000000
    4        2.630104   1.000000
    5        8.886457   0.000000
    6        9.209880   0.000000
    7       10.453222   0.000000
    8       12.274959   0.000000
    9       13.416846   0.000000
   10       15.907303   0.000000
   11       17.760402   0.000000
   12       19.233586   0.000000
   13       20.623937   0.000000
   14       21.424322   0.000000
   15       22.125140   0.000000
   16       23.635006   0.000000
 
 -0.1818182E+00  0.1818182E+00  0.3636364E+00  0.3005259E-02
    1       -3.668896   1.000000
    2       -0.560918   1.000000
    3        1.805160   1.000000
    4        2.936563   1.000000
    5        8.505471   0.000000
    6        9.169684   0.000000
    7        9.651631   0.000000
    8       12.966602   0.000000
    9       14.236481   0.000000
   10       14.791639   0.000000
   11       18.795921   0.000000
   12       19.020754   0.000000
   13       19.422115   0.000000
   14       19.830310   0.000000
   15       21.825074   0.000000
   16       23.192454   0.000000
 
 -0.9090909E-01  0.1818182E+00  0.3636364E+00  0.3005259E-02
    1       -4.290073   1.000000
    2        0.115411   1.000000
    3        2.431179   1.000000
    4        3.380419   1.000000
    5        7.590321   0.000000
    6        9.148847   0.000000
    7       10.026472   0.000000
    8       11.748862   0.000000
    9       14.625294   0.000000
   10       15.970707   0.000000
   11       17.033823   0.000000
   12       17.796775   0.000000
   13       19.348511   0.000000
   14       19.958046   0.000000
   15       21.565615   0.000000
   16       23.268836   0.000000
 
  0.2727273E+00  0.2727273E+00  0.3636364E+00  0.1502630E-02
    1       -5.047264   1.000000
    2        0.718889   1.000000
    3        3.648525   1.000000
    4        4.685278   1.000000
    5        7.746171   0.000000
    6        8.969712   0.000000
    7        9.160574   0.000000
    8       12.015830   0.000000
    9       12.253852   0.000000
   10       14.696663   0.000000
   11       14.830333   0.000000
   12       17.978527   0.000000
   13       19.333835   0.000000
   14       21.149053   0.000000
   15       21.150137   0.000000
   16       22.737141   0.000000
 
  0.3636364E+00  0.2727273E+00  0.3636364E+00  0.3005259E-02
    1       -4.831977   1.000000
    2        0.251195   1.000000
    3        4.017327   1.000000
    4        4.097213   1.000000
    5        7.619946   0.000000
    6        8.737080   0.000000
    7        9.526246   0.000000
    8       11.511277   0.000000
    9       14.223434   0.000000
   10       14.318875   0.000000
   11       14.796339   0.000000
   12       18.614761   0.000000
   13       18.915529   0.000000
   14       20.364269   0.000000
   15       22.074053   0.000000
   16       22.361126   0.000000
 
  0.4545455E+00  0.2727273E+00  0.3636364E+00  0.3005259E-02
    1       -4.431947   1.000000
    2       -0.141436   1.000000
    3        2.873791   1.000000
    4        4.010209   1.000000
    5        8.077775   0.000000
    6        8.775557   0.000000
    7       10.177756   0.000000
    8       11.127178   0.000000
    9       13.958989   0.000000
   10       15.132312   0.000000
   11       16.818285   0.000000
   12       17.184800   0.000000
   13       19.348143   0.000000
   14       20.483140   0.000000
   15       21.999451   0.000000
   16       22.895828   0.000000
 
 -0.4545455E+00  0.2727273E+00  0.3636364E+00  0.3005259E-02
    1       -3.874506   1.000000
    2       -0.527568   1.000000
    3        1.827003   1.000000
    4        3.601267   1.000000
    5        8.267117   0.000000
    6        9.224514   0.000000
    7       10.906321   0.000000
    8       11.541186   0.000000
    9       13.804507   0.000000
   10       14.046625   0.000000
   11       17.682181   0.000000
   12       19.177016   0.000000
   13       19.786947   0.000000
   14       20.298009   0.000000
   15       22.618889   0.000000
   16       22.914115   0.000000
 
 -0.3636364E+00  0.2727273E+00  0.3636364E+00  0.3005259E-02
    1       -3.235570   1.000000
    2       -1.068689   1.000000
    3        1.315720   1.000000
    4        3.162439   1.000000
    5        7.800564   0.000000
    6       10.463204   0.000000
    7       11.166046   0.000000
    8       12.050209   0.000000
    9       12.862366   0.000000
   10       14.075878   0.000000
   11       19.418603   0.000000
   12       19.675697   0.000000
   13       19.879521   0.000000
   14       21.612066   0.000000
   15       21.707010   0.000000
   16       22.798411   0.000000
 
 -0.2727273E+00  0.2727273E+00  0.3636364E+00  0.3005259E-02
    1       -2.863180   1.000000
    2       -1.457777   1.000000
    3        1.415910   1.000000
    4        2.851277   1.000000
    5        7.443618   0.000000
    6       10.070511   0.000000
    7       11.046665   0.000000
    8       12.613260   0.000000
    9       13.386121   0.000000
   10       15.391234   0.000000
   11       18.279501   0.000000
   12       19.522100   0.000000
   13       20.714871   0.000000
   14       21.181790   0.000000
   15       22.400395   0.000000
   16       23.283976   0.000000
 
 -0.1818182E+00  0.2727273E+00  0.3636364E+00  0.3005259E-02
    1       -3.310115   1.000000
    2       -0.979681   1.000000
    3        1.915635   1.000000
    4        2.739981   1.000000
    5        7.234894   0.000000
    6        8.530308   0.000000
    7       11.343654   0.000000
    8       13.411690   0.000000
    9       14.603734   0.000000
   10       16.425539   0.000000
   11       17.286974   0.000000
   12       18.959573   0.000000
   13       19.775320   0.000000
   14       20.303026   0.000000
   15       22.222811   0.000000
   16       22.750090   0.000000
 
 -0.9090909E-01  0.2727273E+00  0.3636364E+00  0.3005259E-02
    1       -3.966026   1.000000
    2       -0.181371   1.000000
    3        2.531864   1.000000
    4        2.911022   1.000000
    5        6.892230   0.000000
    6        7.744891   0.000000
    7       11.683203   0.000000
    8       13.062197   0.000000
    9       15.371287   0.000000
   10       16.507104   0.000000
   11       16.991637   0.000000
   12       18.493068   0.000000
   13       19.315525   0.000000
   14       20.013934   0.000000
   15       21.402913   0.000000
   16       21.979335   0.000000
 
  0.3636364E+00  0.3636364E+00  0.3636364E+00  0.1502630E-02
    1       -4.703331   1.000000
    2       -0.211618   1.000000
    3        4.414849   1.000000
    4        4.414895   1.000000
    5        7.007414   0.000000
    6        8.916980   0.000000
    7        8.917034   0.000000
    8       13.244044   0.000000
    9       13.790182   0.000000
   10       13.790203   0.000000
   11       14.656101   0.000000
   12       19.080094   0.000000
   13       19.206994   0.000000
   14       19.207013   0.000000
   15       21.695418   0.000000
   16       23.433153   0.000000
 
  0.4545455E+00  0.3636364E+00  0.3636364E+00  0.3005259E-02
    1       -4.394348   1.000000
    2       -0.565645   1.000000
    3        3.525800   1.000000
    4        4.371280   1.000000
    5        7.533659   0.000000
    6        8.965630   0.000000
    7        9.049867   0.000000
    8       13.086778   0.000000
    9       13.396818   0.000000
   10       14.523436   0.000000
   11       16.444090   0.000000
   12       17.135822   0.000000
   13       19.566261   0.000000
   14       19.658488   0.000000
   15       21.837120   0.000000
   16       23.329078   0.000000
 
 -0.4545455E+00  0.3636364E+00  0.3636364E+00  0.3005259E-02
    1       -3.927494   1.000000
    2       -0.810094   1.000000
    3        2.304524   1.000000
    4        4.006988   1.000000
    5        7.702605   0.000000
    6        9.672137   0.000000
    7        9.888178   0.000000
    8       13.020204   0.000000
    9       13.189484   0.000000
   10       13.964891   0.000000
   11       16.676616   0.000000
   12       18.965501   0.000000
   13       19.977595   0.000000
   14       20.120754   0.000000
   15       21.597769   0.000000
   16       23.916099   0.000000
 
 -0.3636364E+00  0.3636364E+00  0.3636364E+00  0.3005259E-02
    1       -3.345186   1.000000
    2       -1.086858   1.000000
    3        1.426993   1.000000
    4        3.560036   1.000000
    5        7.229173   0.000000
    6       11.163194   0.000000
    7       11.174968   0.000000
    8       12.033136   0.000000
    9       13.044347   0.000000
   10       13.212447   0.000000
   11       18.354414   0.000000
   12       20.258048   0.000000
   13       20.349497   0.000000
   14       21.099396   0.000000
   15       21.711093   0.000000
   16       22.918252   0.000000
 
 -0.2727273E+00  0.3636364E+00  0.3636364E+00  0.3005259E-02
    1       -2.766267   1.000000
    2       -1.559969   1.000000
    3        1.262046   1.000000
    4        3.184962   1.000000
    5        6.792623   0.000000
    6        9.998880   0.000000
    7       12.487239   0.000000
    8       13.005133   0.000000
    9       13.187057   0.000000
   10       13.676273   0.000000
   11       19.875431   0.000000
   12       20.349251   0.000000
   13       20.642894   0.000000
   14       20.833484   0.000000
   15       20.913610   0.000000
   16       22.458213   0.000000
 
 -0.1818182E+00  0.3636364E+00  0.3636364E+00  0.3005259E-02
    1       -2.821272   1.000000
    2       -1.534403   1.000000
    3        1.726569   1.000000
    4        2.948853   1.000000
    5        6.525479   0.000000
    6        8.314942   0.000000
    7       13.159084   0.000000
    8       13.261251   0.000000
    9       14.979265   0.000000
   10       15.133753   0.000000
   11       18.540821   0.000000
   12       18.750475   0.000000
   13       20.465675   0.000000
   14       20.547604   0.000000
   15       21.106295   0.000000
   16       23.269995   0.000000
 
 -0.9090909E-01  0.3636364E+00  0.3636364E+00  0.3005259E-02
    1       -3.469355   1.000000
    2       -0.839891   1.000000
    3        2.470245   1.000000
    4        2.878573   1.000000
    5        6.355902   0.000000
    6        7.169235   0.000000
    7       13.399832   0.000000
    8       13.429795   0.000000
    9       16.671749   0.000000
   10       16.746906   0.000000
   11       17.030042   0.000000
   12       17.157466   0.000000
   13       19.690044   0.000000
   14       20.309660   0.000000
   15       20.950829   0.000000
   16       22.969688   0.000000
 
  0.4545455E+00  0.4545455E+00  0.3636364E+00  0.1502630E-02
    1       -4.190548   1.000000
    2       -0.899912   1.000000
    3        3.727998   1.000000
    4        4.055489   1.000000
    5        7.471206   0.000000
    6        8.718384   0.000000
    7        9.307540   0.000000
    8       12.721725   0.000000
    9       14.156869   0.000000
   10       15.703028   0.000000
   11       16.289043   0.000000
   12       17.023969   0.000000
   13       17.755066   0.000000
   14       20.010368   0.000000
   15       22.569089   0.000000
   16       24.142658   0.000000
 
 -0.4545455E+00  0.4545455E+00  0.3636364E+00  0.3005259E-02
    1       -3.844921   1.000000
    2       -1.083973   1.000000
    3        2.771674   1.000000
    4        3.808871   1.000000
    5        8.034530   0.000000
    6        8.607094   0.000000
    7       10.119261   0.000000
    8       12.550115   0.000000
    9       14.061725   0.000000
   10       15.211615   0.000000
   11       16.418461   0.000000
   12       17.769632   0.000000
   13       18.641333   0.000000
   14       20.420004   0.000000
   15       22.846562   0.000000
   16       24.620599   0.000000
 
 -0.3636364E+00  0.4545455E+00  0.3636364E+00  0.3005259E-02
    1       -3.391090   1.000000
    2       -1.186363   1.000000
    3        1.830378   1.000000
    4        3.317774   1.000000
    5        7.924546   0.000000
    6        9.406145   0.000000
    7       11.591929   0.000000
    8       12.122500   0.000000
    9       12.587255   0.000000
   10       15.301952   0.000000
   11       17.443813   0.000000
   12       18.245276   0.000000
   13       20.719008   0.000000
   14       21.222477   0.000000
   15       22.452753   0.000000
   16       23.389034   0.000000
 
 -0.2727273E+00  0.4545455E+00  0.3636364E+00  0.3005259E-02
    1       -2.863166   1.000000
    2       -1.457803   1.000000
    3        1.415923   1.000000
    4        2.851277   1.000000
    5        7.443617   0.000000
    6       10.070517   0.000000
    7       11.046687   0.000000
    8       12.613232   0.000000
    9       13.386150   0.000000
   10       15.391199   0.000000
   11       18.279452   0.000000
   12       19.522122   0.000000
   13       20.714864   0.000000
   14       21.181804   0.000000
   15       22.400368   0.000000
   16       23.284039   0.000000
 
 -0.1818182E+00  0.4545455E+00  0.3636364E+00  0.3005259E-02
    1       -2.351676   1.000000
    2       -1.976423   1.000000
    3        1.718982   1.000000
    4        2.535424   1.000000
    5        7.108377   0.000000
    6        8.325275   0.000000
    7       12.745357   0.000000
    8       12.969914   0.000000
    9       14.976782   0.000000
   10       15.619725   0.000000
   11       18.161588   0.000000
   12       18.959479   0.000000
   13       20.647324   0.000000
   14       21.281657   0.000000
   15       21.898992   0.000000
   16       22.305719   0.000000
 
 -0.9090909E-01  0.4545455E+00  0.3636364E+00  0.3005259E-02
    1       -2.834121   1.000000
    2       -1.545077   1.000000
    3        2.347285   1.000000
    4        2.466023   1.000000
    5        6.831473   0.000000
    6        7.103355   0.000000
    7       13.184443   0.000000
    8       14.530507   0.000000
    9       15.216978   0.000000
   10       16.579727   0.000000
   11       17.289680   0.000000
   12       18.744623   0.000000
   13       18.908427   0.000000
   14       20.525110   0.000000
   15       21.808872   0.000000
   16       23.122648   0.000000
 
 -0.4545455E+00 -0.4545455E+00  0.3636364E+00  0.1502630E-02
    1       -3.656370   1.000000
    2       -1.203247   1.000000
    3        2.448638   1.000000
    4        3.739049   1.000000
    5        7.469532   0.000000
    6        9.672021   0.000000
    7       10.110539   0.000000
    8       12.244438   0.000000
    9       14.386757   0.000000
   10       14.872283   0.000000
   11       16.779817   0.000000
   12       18.028988   0.000000
   13       18.590604   0.000000
   14       20.805068   0.000000
   15       23.829698   0.000000
   16       24.074243   0.000000
 
 -0.3636364E+00 -0.4545455E+00  0.3636364E+00  0.3005259E-02
    1       -3.391094   1.000000
    2       -1.186358   1.000000
    3        1.830390   1.000000
    4        3.317760   1.000000
    5        7.924519   0.000000
    6        9.406174   0.000000
    7       11.591938   0.000000
    8       12.122514   0.000000
    9       12.587229   0.000000
   10       15.301952   0.000000
   11       17.443824   0.000000
   12       18.245265   0.000000
   13       20.718990   0.000000
   14       21.222493   0.000000
   15       22.452753   0.000000
   16       23.389022   0.000000
 
 -0.2727273E+00 -0.4545455E+00  0.3636364E+00  0.3005259E-02
    1       -3.059477   1.000000
    2       -1.238606   1.000000
    3        1.534064   1.000000
    4        2.630114   1.000000
    5        8.886453   0.000000
    6        9.209918   0.000000
    7       10.453209   0.000000
    8       12.274931   0.000000
    9       13.416878   0.000000
   10       15.907261   0.000000
   11       17.760367   0.000000
   12       19.233610   0.000000
   13       20.623977   0.000000
   14       21.424263   0.000000
   15       22.125123   0.000000
   16       23.635003   0.000000
 
 -0.1818182E+00 -0.4545455E+00  0.3636364E+00  0.3005259E-02
    1       -2.659020   1.000000
    2       -1.590831   1.000000
    3        1.760756   1.000000
    4        2.131814   1.000000
    5        8.431720   0.000000
    6        8.643836   0.000000
    7       10.946686   0.000000
    8       12.505342   0.000000
    9       14.892272   0.000000
   10       16.317339   0.000000
   11       17.631678   0.000000
   12       18.932691   0.000000
   13       20.792880   0.000000
   14       21.514668   0.000000
   15       22.128612   0.000000
   16       23.238900   0.000000
 
 -0.9090909E-01 -0.4545455E+00  0.3636364E+00  0.3005259E-02
    1       -2.351727   1.000000
    2       -1.976369   1.000000
    3        1.719012   1.000000
    4        2.535389   1.000000
    5        7.108326   0.000000
    6        8.325325   0.000000
    7       12.745369   0.000000
    8       12.969910   0.000000
    9       14.976781   0.000000
   10       15.619714   0.000000
   11       18.161595   0.000000
   12       18.959489   0.000000
   13       20.647319   0.000000
   14       21.281633   0.000000
   15       21.898931   0.000000
   16       22.305767   0.000000
 
 -0.3636364E+00 -0.3636364E+00  0.3636364E+00  0.1502630E-02
    1       -3.345195   1.000000
    2       -1.086843   1.000000
    3        1.427007   1.000000
    4        3.560014   1.000000
    5        7.229148   0.000000
    6       11.163226   0.000000
    7       11.174987   0.000000
    8       12.033133   0.000000
    9       13.044344   0.000000
   10       13.212429   0.000000
   11       18.354413   0.000000
   12       20.258044   0.000000
   13       20.349469   0.000000
   14       21.099403   0.000000
   15       21.711117   0.000000
   16       22.918274   0.000000
 
 -0.2727273E+00 -0.3636364E+00  0.3636364E+00  0.3005259E-02
    1       -3.235584   1.000000
    2       -1.068660   1.000000
    3        1.315725   1.000000
    4        3.162419   1.000000
    5        7.800540   0.000000
    6       10.463217   0.000000
    7       11.166046   0.000000
    8       12.050229   0.000000
    9       12.862362   0.000000
   10       14.075878   0.000000
   11       19.418572   0.000000
   12       19.675695   0.000000
   13       19.879535   0.000000
   14       21.612097   0.000000
   15       21.707017   0.000000
   16       22.798430   0.000000
 
 -0.1818182E+00 -0.3636364E+00  0.3636364E+00  0.3005259E-02
    1       -3.059499   1.000000
    2       -1.238561   1.000000
    3        1.534045   1.000000
    4        2.630109   1.000000
    5        8.886408   0.000000
    6        9.209907   0.000000
    7       10.453271   0.000000
    8       12.274930   0.000000
    9       13.416824   0.000000
   10       15.907315   0.000000
   11       17.760428   0.000000
   12       19.233571   0.000000
   13       20.623944   0.000000
   14       21.424271   0.000000
   15       22.125135   0.000000
   16       23.635113   0.000000
 
 -0.9090909E-01 -0.3636364E+00  0.3636364E+00  0.3005259E-02
    1       -2.863208   1.000000
    2       -1.457735   1.000000
    3        1.415926   1.000000
    4        2.851248   1.000000
    5        7.443564   0.000000
    6       10.070569   0.000000
    7       11.046698   0.000000
    8       12.613251   0.000000
    9       13.386073   0.000000
   10       15.391256   0.000000
   11       18.279521   0.000000
   12       19.522080   0.000000
   13       20.714884   0.000000
   14       21.181709   0.000000
   15       22.400377   0.000000
   16       23.284029   0.000000
 
 -0.2727273E+00 -0.2727273E+00  0.3636364E+00  0.1502630E-02
    1       -3.345214   1.000000
    2       -1.086793   1.000000
    3        1.426973   1.000000
    4        3.560017   1.000000
    5        7.229150   0.000000
    6       11.163160   0.000000
    7       11.174924   0.000000
    8       12.033193   0.000000
    9       13.044352   0.000000
   10       13.212497   0.000000
   11       18.354379   0.000000
   12       20.258076   0.000000
   13       20.349588   0.000000
   14       21.099408   0.000000
   15       21.711194   0.000000
   16       22.918137   0.000000
 
 -0.1818182E+00 -0.2727273E+00  0.3636364E+00  0.3005259E-02
    1       -3.391127   1.000000
    2       -1.186280   1.000000
    3        1.830342   1.000000
    4        3.317764   1.000000
    5        7.924522   0.000000
    6        9.406116   0.000000
    7       11.591879   0.000000
    8       12.122559   0.000000
    9       12.587253   0.000000
   10       15.302015   0.000000
   11       17.443832   0.000000
   12       18.245299   0.000000
   13       20.719044   0.000000
   14       21.222571   0.000000
   15       22.452741   0.000000
   16       23.388970   0.000000
 
 -0.9090909E-01 -0.2727273E+00  0.3636364E+00  0.3005259E-02
    1       -3.391130   1.000000
    2       -1.186276   1.000000
    3        1.830353   1.000000
    4        3.317751   1.000000
    5        7.924489   0.000000
    6        9.406153   0.000000
    7       11.591888   0.000000
    8       12.122584   0.000000
    9       12.587216   0.000000
   10       15.302017   0.000000
   11       17.443837   0.000000
   12       18.245290   0.000000
   13       20.719004   0.000000
   14       21.222617   0.000000
   15       22.452726   0.000000
   16       23.388959   0.000000
 
 -0.1818182E+00 -0.1818182E+00  0.3636364E+00  0.1502630E-02
    1       -3.656407   1.000000
    2       -1.203158   1.000000
    3        2.448578   1.000000
    4        3.739059   1.000000
    5        7.469534   0.000000
    6        9.671987   0.000000
    7       10.110453   0.000000
    8       12.244453   0.000000
    9       14.386791   0.000000
   10       14.872374   0.000000
   11       16.779799   0.000000
   12       18.029096   0.000000
   13       18.590644   0.000000
   14       20.805082   0.000000
   15       23.829764   0.000000
   16       24.074196   0.000000
 
 -0.9090909E-01 -0.1818182E+00  0.3636364E+00  0.3005259E-02
    1       -3.844956   1.000000
    2       -1.083886   1.000000
    3        2.771633   1.000000
    4        3.808860   1.000000
    5        8.034502   0.000000
    6        8.607079   0.000000
    7       10.119199   0.000000
    8       12.550116   0.000000
    9       14.061774   0.000000
   10       15.211692   0.000000
   11       16.418485   0.000000
   12       17.769676   0.000000
   13       18.641407   0.000000
   14       20.420005   0.000000
   15       22.846559   0.000000
   16       24.620615   0.000000
 
 -0.9090909E-01 -0.9090909E-01  0.3636364E+00  0.1502630E-02
    1       -4.190576   1.000000
    2       -0.899832   1.000000
    3        3.727930   1.000000
    4        4.055506   1.000000
    5        7.471183   0.000000
    6        8.718389   0.000000
    7        9.307447   0.000000
    8       12.721715   0.000000
    9       14.156893   0.000000
   10       15.703148   0.000000
   11       16.289124   0.000000
   12       17.024041   0.000000
   13       17.755048   0.000000
   14       20.010353   0.000000
   15       22.569087   0.000000
   16       24.142657   0.000000
 
  0.0000000E+00  0.0000000E+00  0.4545455E+00  0.1502630E-02
    1       -4.121313   1.000000
    2       -1.188809   1.000000
    3        4.298955   1.000000
    4        4.298999   1.000000
    5        6.872059   0.000000
    6        8.821065   0.000000
    7        8.821121   0.000000
    8       13.150789   0.000000
    9       15.286087   0.000000
   10       15.286131   0.000000
   11       16.085945   0.000000
   12       17.252186   0.000000
   13       17.252238   0.000000
   14       18.337427   0.000000
   15       23.341227   0.000000
   16       25.652522   0.000000
 
  0.9090909E-01  0.0000000E+00  0.4545455E+00  0.3005259E-02
    1       -4.190576   1.000000
    2       -0.899834   1.000000
    3        3.727960   1.000000
    4        4.055477   1.000000
    5        7.471178   0.000000
    6        8.718361   0.000000
    7        9.307484   0.000000
    8       12.721748   0.000000
    9       14.156885   0.000000
   10       15.703114   0.000000
   11       16.289122   0.000000
   12       17.024003   0.000000
   13       17.755052   0.000000
   14       20.010396   0.000000
   15       22.569095   0.000000
   16       24.142683   0.000000
 
  0.1818182E+00  0.0000000E+00  0.4545455E+00  0.3005259E-02
    1       -4.115373   1.000000
    2       -0.524509   1.000000
    3        2.773147   1.000000
    4        3.613787   1.000000
    5        7.379342   0.000000
    6        9.788552   0.000000
    7       10.389250   0.000000
    8       10.661005   0.000000
    9       15.242307   0.000000
   10       16.177793   0.000000
   11       16.695878   0.000000
   12       16.930250   0.000000
   13       17.928528   0.000000
   14       21.283482   0.000000
   15       22.902162   0.000000
   16       23.006447   0.000000
 
  0.2727273E+00  0.0000000E+00  0.4545455E+00  0.3005259E-02
    1       -3.876953   1.000000
    2       -0.395805   1.000000
    3        2.253103   1.000000
    4        3.187094   1.000000
    5        6.822471   0.000000
    6        8.709564   0.000000
    7       11.568851   0.000000
    8       11.826310   0.000000
    9       16.267016   0.000000
   10       16.589388   0.000000
   11       16.928171   0.000000
   12       16.965953   0.000000
   13       18.918888   0.000000
   14       20.799650   0.000000
   15       21.944645   0.000000
   16       23.523675   0.000000
 
  0.3636364E+00  0.0000000E+00  0.4545455E+00  0.3005259E-02
    1       -3.469357   1.000000
    2       -0.839887   1.000000
    3        2.470278   1.000000
    4        2.878540   1.000000
    5        6.355867   0.000000
    6        7.169268   0.000000
    7       13.399835   0.000000
    8       13.429808   0.000000
    9       16.671704   0.000000
   10       16.746886   0.000000
   11       17.030027   0.000000
   12       17.157511   0.000000
   13       19.690031   0.000000
   14       20.309695   0.000000
   15       20.950818   0.000000
   16       22.969707   0.000000
 
  0.4545455E+00  0.0000000E+00  0.4545455E+00  0.3005259E-02
    1       -2.903267   1.000000
    2       -1.545331   1.000000
    3        2.729414   1.000000
    4        2.729446   1.000000
    5        6.116801   0.000001
    6        6.444340   0.000000
    7       14.732052   0.000000
    8       14.732054   0.000000
    9       16.829153   0.000000
   10       16.829158   0.000000
   11       17.028425   0.000000
   12       17.277639   0.000000
   13       18.631029   0.000000
   14       18.711879   0.000000
   15       23.004322   0.000000
   16       23.777149   0.000000
 
 -0.4545455E+00  0.0000000E+00  0.4545455E+00  0.3005259E-02
    1       -2.280998   1.000000
    2       -2.168834   1.000000
    3        2.310224   1.000000
    4        2.753588   1.000000
    5        6.297179   0.000000
    6        6.860709   0.000000
    7       14.654394   0.000000
    8       14.860285   0.000000
    9       15.451435   0.000000
   10       15.671050   0.000000
   11       18.411801   0.000000
   12       18.453674   0.000000
   13       18.464723   0.000000
   14       19.013183   0.000000
   15       23.041338   0.000000
   16       23.364787   0.000000
 
 -0.3636364E+00  0.0000000E+00  0.4545455E+00  0.3005259E-02
    1       -2.821290   1.000000
    2       -1.534379   1.000000
    3        1.726599   1.000000
    4        2.948819   1.000000
    5        6.525428   0.000000
    6        8.314991   0.000000
    7       13.159113   0.000000
    8       13.261253   0.000000
    9       14.979253   0.000000
   10       15.133725   0.000000
   11       18.540789   0.000000
   12       18.750513   0.000000
   13       20.465641   0.000000
   14       20.547640   0.000000
   15       21.106270   0.000000
   16       23.269993   0.000000
 
 -0.2727273E+00  0.0000000E+00  0.4545455E+00  0.3005259E-02
    1       -3.289661   1.000000
    2       -1.164395   1.000000
    3        1.699355   1.000000
    4        3.295108   1.000000
    5        6.952987   0.000000
    6       10.157377   0.000000
    7       11.395208   0.000000
    8       11.512978   0.000000
    9       14.738698   0.000000
   10       14.917947   0.000000
   11       18.395231   0.000000
   12       18.401037   0.000000
   13       18.801687   0.000000
   14       22.710070   0.000000
   15       22.754884   0.000000
   16       23.206405   0.000000
 
 -0.1818182E+00  0.0000000E+00  0.4545455E+00  0.3005259E-02
    1       -3.656408   1.000000
    2       -1.203158   1.000000
    3        2.448602   1.000000
    4        3.739034   1.000000
    5        7.469505   0.000000
    6        9.671994   0.000000
    7       10.110488   0.000000
    8       12.244482   0.000000
    9       14.386778   0.000000
   10       14.872342   0.000000
   11       16.779807   0.000000
   12       18.029051   0.000000
   13       18.590640   0.000000
   14       20.805138   0.000000
   15       23.829735   0.000000
   16       24.074212   0.000000
 
 -0.9090909E-01  0.0000000E+00  0.4545455E+00  0.3005259E-02
    1       -3.935181   1.000000
    2       -1.283400   1.000000
    3        3.557304   1.000000
    4        4.151936   1.000000
    5        7.438308   0.000000
    6        8.780225   0.000000
    7        9.130532   0.000000
    8       13.433677   0.000000
    9       14.659509   0.000000
   10       14.998052   0.000000
   11       16.210118   0.000000
   12       17.606627   0.000000
   13       17.910165   0.000000
   14       18.611778   0.000000
   15       23.939304   0.000000
   16       25.076750   0.000000
 
  0.9090909E-01  0.9090909E-01  0.4545455E+00  0.1502630E-02
    1       -4.394369   1.000000
    2       -0.565575   1.000000
    3        3.525767   1.000000
    4        4.371265   1.000000
    5        7.533635   0.000000
    6        8.965597   0.000000
    7        9.049817   0.000000
    8       13.086787   0.000000
    9       13.396891   0.000000
   10       14.523474   0.000000
   11       16.444139   0.000000
   12       17.135812   0.000000
   13       19.566336   0.000000
   14       19.658487   0.000000
   15       21.837140   0.000000
   16       23.329102   0.000000
 
  0.1818182E+00  0.9090909E-01  0.4545455E+00  0.3005259E-02
    1       -4.431962   1.000000
    2       -0.141374   1.000000
    3        2.873768   1.000000
    4        4.010182   1.000000
    5        8.077740   0.000000
    6        8.775520   0.000000
    7       10.177733   0.000000
    8       11.127230   0.000000
    9       13.959025   0.000000
   10       15.132328   0.000000
   11       16.818328   0.000000
   12       17.184779   0.000000
   13       19.348157   0.000000
   14       20.483181   0.000000
   15       21.999484   0.000000
   16       22.895867   0.000000
 
  0.2727273E+00  0.9090909E-01  0.4545455E+00  0.3005259E-02
    1       -4.290070   1.000000
    2        0.115399   1.000000
    3        2.431166   1.000000
    4        3.380446   1.000000
    5        7.590313   0.000000
    6        9.148848   0.000000
    7       10.026507   0.000000
    8       11.748830   0.000000
    9       14.625323   0.000000
   10       15.970679   0.000000
   11       17.033775   0.000000
   12       17.796783   0.000000
   13       19.348529   0.000000
   14       19.958037   0.000000
   15       21.565621   0.000000
   16       23.268819   0.000000
 
  0.3636364E+00  0.9090909E-01  0.4545455E+00  0.3005259E-02
    1       -3.966022   1.000000
    2       -0.181386   1.000000
    3        2.531865   1.000000
    4        2.911035   1.000000
    5        6.892225   0.000000
    6        7.744891   0.000000
    7       11.683237   0.000000
    8       13.062197   0.000000
    9       15.371282   0.000000
   10       16.507063   0.000000
   11       16.991591   0.000000
   12       18.493082   0.000000
   13       19.315510   0.000000
   14       20.013940   0.000000
   15       21.402936   0.000000
   16       21.979360   0.000000
 
  0.4545455E+00  0.9090909E-01  0.4545455E+00  0.3005259E-02
    1       -3.469351   1.000000
    2       -0.839903   1.000000
    3        2.470256   1.000000
    4        2.878572   1.000000
    5        6.355899   0.000000
    6        7.169234   0.000000
    7       13.399846   0.000000
    8       13.429839   0.000000
    9       16.671756   0.000000
   10       16.746853   0.000000
   11       17.029981   0.000000
   12       17.157413   0.000000
   13       19.690066   0.000000
   14       20.309738   0.000000
   15       20.950853   0.000000
   16       22.969691   0.000000
 
 -0.4545455E+00  0.9090909E-01  0.4545455E+00  0.3005259E-02
    1       -2.834115   1.000000
    2       -1.545086   1.000000
    3        2.347284   1.000000
    4        2.466029   1.000000
    5        6.831469   0.000000
    6        7.103358   0.000000
    7       13.184476   0.000000
    8       14.530505   0.000000
    9       15.216936   0.000000
   10       16.579732   0.000000
   11       17.289684   0.000000
   12       18.744621   0.000000
   13       18.908367   0.000000
   14       20.525175   0.000000
   15       21.808892   0.000000
   16       23.122646   0.000000
 
 -0.3636364E+00  0.9090909E-01  0.4545455E+00  0.3005259E-02
    1       -2.351727   1.000000
    2       -1.976369   1.000000
    3        1.719012   1.000000
    4        2.535389   1.000000
    5        7.108326   0.000000
    6        8.325325   0.000000
    7       12.745369   0.000000
    8       12.969909   0.000000
    9       14.976781   0.000000
   10       15.619714   0.000000
   11       18.161595   0.000000
   12       18.959489   0.000000
   13       20.647319   0.000000
   14       21.281633   0.000000
   15       21.898931   0.000000
   16       22.305767   0.000000
 
 -0.2727273E+00  0.9090909E-01  0.4545455E+00  0.3005259E-02
    1       -2.863211   1.000000
    2       -1.457731   1.000000
    3        1.415930   1.000000
    4        2.851241   1.000000
    5        7.443566   0.000000
    6       10.070569   0.000000
    7       11.046668   0.000000
    8       12.613271   0.000000
    9       13.386126   0.000000
   10       15.391212   0.000000
   11       18.279482   0.000000
   12       19.522078   0.000000
   13       20.714917   0.000000
   14       21.181781   0.000000
   15       22.400384   0.000000
   16       23.283956   0.000000
 
 -0.1818182E+00  0.9090909E-01  0.4545455E+00  0.3005259E-02
    1       -3.391131   1.000000
    2       -1.186275   1.000000
    3        1.830366   1.000000
    4        3.317736   1.000000
    5        7.924494   0.000000
    6        9.406122   0.000000
    7       11.591921   0.000000
    8       12.122582   0.000000
    9       12.587258   0.000000
   10       15.301969   0.000000
   11       17.443811   0.000000
   12       18.245271   0.000000
   13       20.719050   0.000000
   14       21.222626   0.000000
   15       22.452752   0.000000
   16       23.389003   0.000000
 
 -0.9090909E-01  0.9090909E-01  0.4545455E+00  0.3005259E-02
    1       -3.844956   1.000000
    2       -1.083887   1.000000
    3        2.771657   1.000000
    4        3.808834   1.000000
    5        8.034505   0.000000
    6        8.607044   0.000000
    7       10.119242   0.000000
    8       12.550150   0.000000
    9       14.061768   0.000000
   10       15.211656   0.000000
   11       16.418463   0.000000
   12       17.769654   0.000000
   13       18.641406   0.000000
   14       20.420053   0.000000
   15       22.846567   0.000000
   16       24.620626   0.000000
 
  0.1818182E+00  0.1818182E+00  0.4545455E+00  0.1502630E-02
    1       -4.571761   1.000000
    2        0.263801   1.000000
    3        2.392601   1.000000
    4        4.380696   1.000000
    5        8.042840   0.000000
    6        9.636013   0.000000
    7        9.733462   0.000000
    8       11.644397   0.000000
    9       11.983805   0.000000
   10       15.387331   0.000000
   11       17.021447   0.000000
   12       17.368766   0.000000
   13       19.142366   0.000000
   14       21.140011   0.000000
   15       21.809466   0.000000
   16       22.681797   0.000000
 
  0.2727273E+00  0.1818182E+00  0.4545455E+00  0.3005259E-02
    1       -4.524713   1.000000
    2        0.421167   1.000000
    3        2.198493   1.000000
    4        3.998960   1.000000
    5        8.673833   0.000000
    6        8.813659   0.000000
    7       10.061968   0.000000
    8       11.081342   0.000000
    9       12.901453   0.000000
   10       15.713323   0.000000
   11       17.119856   0.000000
   12       17.799781   0.000000
   13       18.762827   0.000000
   14       21.015525   0.000000
   15       21.321590   0.000000
   16       23.793989   0.000000
 
  0.3636364E+00  0.1818182E+00  0.4545455E+00  0.3005259E-02
    1       -4.290064   1.000000
    2        0.115366   1.000000
    3        2.431190   1.000000
    4        3.380447   1.000000
    5        7.590358   0.000000
    6        9.148803   0.000000
    7       10.026502   0.000000
    8       11.748879   0.000000
    9       14.625268   0.000000
   10       15.970679   0.000000
   11       17.033768   0.000000
   12       17.796803   0.000000
   13       19.348488   0.000000
   14       19.958031   0.000000
   15       21.565616   0.000000
   16       23.268824   0.000000
 
  0.4545455E+00  0.1818182E+00  0.4545455E+00  0.3005259E-02
    1       -3.876940   1.000000
    2       -0.395850   1.000000
    3        2.253102   1.000000
    4        3.187128   1.000000
    5        6.822517   0.000000
    6        8.709515   0.000000
    7       11.568868   0.000000
    8       11.826342   0.000000
    9       16.267045   0.000000
   10       16.589296   0.000000
   11       16.928175   0.000000
   12       16.965884   0.000000
   13       18.918906   0.000000
   14       20.799678   0.000000
   15       21.944629   0.000000
   16       23.523732   0.000000
 
 -0.4545455E+00  0.1818182E+00  0.4545455E+00  0.3005259E-02
    1       -3.310100   1.000000
    2       -0.979716   1.000000
    3        1.915644   1.000000
    4        2.739998   1.000000
    5        7.234887   0.000000
    6        8.530308   0.000000
    7       11.343707   0.000000
    8       13.411705   0.000000
    9       14.603669   0.000000
   10       16.425509   0.000000
   11       17.286968   0.000000
   12       18.959510   0.000000
   13       19.775292   0.000000
   14       20.303078   0.000000
   15       22.222890   0.000000
   16       22.750092   0.000000
 
 -0.3636364E+00  0.1818182E+00  0.4545455E+00  0.3005259E-02
    1       -2.659007   1.000000
    2       -1.590850   1.000000
    3        1.760751   1.000000
    4        2.131827   1.000000
    5        8.431712   0.000000
    6        8.643842   0.000000
    7       10.946705   0.000000
    8       12.505325   0.000000
    9       14.892266   0.000000
   10       16.317341   0.000000
   11       17.631674   0.000000
   12       18.932694   0.000000
   13       20.792904   0.000000
   14       21.514635   0.000000
   15       22.128613   0.000000
   16       23.238892   0.000000
 
 -0.2727273E+00  0.1818182E+00  0.4545455E+00  0.3005259E-02
    1       -2.469520   1.000000
    2       -1.749200   1.000000
    3        1.494900   1.000000
    4        2.166332   1.000000
    5        8.777967   0.000000
    6       10.054237   0.000000
    7       10.704960   0.000000
    8       10.730546   0.000000
    9       14.906552   0.000000
   10       15.979654   0.000000
   11       17.927067   0.000000
   12       19.085812   0.000000
   13       20.885317   0.000000
   14       21.889932   0.000000
   15       23.155245   0.000000
   16       23.341681   0.000000
 
 -0.1818182E+00  0.1818182E+00  0.4545455E+00  0.3005259E-02
    1       -3.059507   1.000000
    2       -1.238548   1.000000
    3        1.534060   1.000000
    4        2.630086   1.000000
    5        8.886401   0.000000
    6        9.209894   0.000000
    7       10.453268   0.000000
    8       12.274960   0.000000
    9       13.416864   0.000000
   10       15.907278   0.000000
   11       17.760385   0.000000
   12       19.233567   0.000000
   13       20.623975   0.000000
   14       21.424330   0.000000
   15       22.125157   0.000000
   16       23.635107   0.000000
 
 -0.9090909E-01  0.1818182E+00  0.4545455E+00  0.3005259E-02
    1       -3.644081   1.000000
    2       -0.854052   1.000000
    3        2.052360   1.000000
    4        3.232048   1.000000
    5        7.721400   0.000000
    6        9.665946   0.000000
    7       10.461632   0.000000
    8       11.706736   0.000000
    9       14.323538   0.000000
   10       15.976745   0.000000
   11       16.979950   0.000000
   12       18.212975   0.000000
   13       18.938189   0.000000
   14       21.569741   0.000000
   15       22.886201   0.000000
   16       23.632529   0.000000
 
  0.2727273E+00  0.2727273E+00  0.4545455E+00  0.1502630E-02
    1       -4.571755   1.000000
    2        0.263762   1.000000
    3        2.392637   1.000000
    4        4.380689   1.000000
    5        8.042842   0.000000
    6        9.636069   0.000000
    7        9.733494   0.000000
    8       11.644358   0.000000
    9       11.983751   0.000000
   10       15.387321   0.000000
   11       17.021451   0.000000
   12       17.368800   0.000000
   13       19.142331   0.000000
   14       21.139989   0.000000
   15       21.809397   0.000000
   16       22.681800   0.000000
 
  0.3636364E+00  0.2727273E+00  0.4545455E+00  0.3005259E-02
    1       -4.431949   1.000000
    2       -0.141430   1.000000
    3        2.873816   1.000000
    4        4.010173   1.000000
    5        8.077791   0.000000
    6        8.775521   0.000000
    7       10.177787   0.000000
    8       11.127179   0.000000
    9       13.958965   0.000000
   10       15.132315   0.000000
   11       16.818311   0.000000
   12       17.184816   0.000000
   13       19.348116   0.000000
   14       20.483142   0.000000
   15       21.999437   0.000000
   16       22.895847   0.000000
 
  0.4545455E+00  0.2727273E+00  0.4545455E+00  0.3005259E-02
    1       -4.115353   1.000000
    2       -0.524575   1.000000
    3        2.773157   1.000000
    4        3.613824   1.000000
    5        7.379391   0.000000
    6        9.788575   0.000000
    7       10.389276   0.000000
    8       10.660949   0.000000
    9       15.242330   0.000000
   10       16.177704   0.000000
   11       16.695806   0.000000
   12       16.930251   0.000000
   13       17.928551   0.000000
   14       21.283465   0.000000
   15       22.902116   0.000000
   16       23.006387   0.000000
 
 -0.4545455E+00  0.2727273E+00  0.4545455E+00  0.3005259E-02
    1       -3.644052   1.000000
    2       -0.854127   1.000000
    3        2.052355   1.000000
    4        3.232105   1.000000
    5        7.721443   0.000000
    6        9.665998   0.000000
    7       10.461578   0.000000
    8       11.706725   0.000000
    9       14.323488   0.000000
   10       15.976740   0.000000
   11       16.979969   0.000000
   12       18.213002   0.000000
   13       18.938083   0.000000
   14       21.569727   0.000000
   15       22.886111   0.000000
   16       23.632528   0.000000
 
 -0.3636364E+00  0.2727273E+00  0.4545455E+00  0.3005259E-02
    1       -3.059469   1.000000
    2       -1.238621   1.000000
    3        1.534048   1.000000
    4        2.630137   1.000000
    5        8.886461   0.000000
    6        9.209922   0.000000
    7       10.453214   0.000000
    8       12.274914   0.000000
    9       13.416852   0.000000
   10       15.907282   0.000000
   11       17.760390   0.000000
   12       19.233613   0.000000
   13       20.623975   0.000000
   14       21.424230   0.000000
   15       22.125108   0.000000
   16       23.635022   0.000000
 
 -0.2727273E+00  0.2727273E+00  0.4545455E+00  0.3005259E-02
    1       -2.469481   1.000000
    2       -1.749250   1.000000
    3        1.494877   1.000000
    4        2.166366   1.000000
    5        8.778021   0.000000
    6       10.054178   0.000000
    7       10.704958   0.000000
    8       10.730548   0.000000
    9       14.906547   0.000000
   10       15.979658   0.000000
   11       17.927062   0.000000
   12       19.085816   0.000000
   13       20.885384   0.000000
   14       21.889893   0.000000
   15       23.155228   0.000000
   16       23.341630   0.000000
 
 -0.1818182E+00  0.2727273E+00  0.4545455E+00  0.3005259E-02
    1       -2.659031   1.000000
    2       -1.590813   1.000000
    3        1.760761   1.000000
    4        2.131801   1.000000
    5        8.431726   0.000000
    6        8.643830   0.000000
    7       10.946657   0.000000
    8       12.505372   0.000000
    9       14.892277   0.000000
   10       16.317339   0.000000
   11       17.631675   0.000000
   12       18.932691   0.000000
   13       20.792851   0.000000
   14       21.514744   0.000000
   15       22.128614   0.000000
   16       23.238868   0.000000
 
 -0.9090909E-01  0.2727273E+00  0.4545455E+00  0.3005259E-02
    1       -3.310121   1.000000
    2       -0.979669   1.000000
    3        1.915660   1.000000
    4        2.739951   1.000000
    5        7.234846   0.000000
    6        8.530355   0.000000
    7       11.343656   0.000000
    8       13.411711   0.000000
    9       14.603726   0.000000
   10       16.425518   0.000000
   11       17.286948   0.000000
   12       18.959593   0.000000
   13       19.775302   0.000000
   14       20.303050   0.000000
   15       22.222818   0.000000
   16       22.750102   0.000000
 
  0.3636364E+00  0.3636364E+00  0.4545455E+00  0.1502630E-02
    1       -4.394350   1.000000
    2       -0.565642   1.000000
    3        3.525824   1.000000
    4        4.371247   1.000000
    5        7.533657   0.000000
    6        8.965601   0.000000
    7        9.049907   0.000000
    8       13.086768   0.000000
    9       13.396803   0.000000
   10       14.523443   0.000000
   11       16.444111   0.000000
   12       17.135844   0.000000
   13       19.566242   0.000000
   14       19.658475   0.000000
   15       21.837118   0.000000
   16       23.329078   0.000000
 
  0.4545455E+00  0.3636364E+00  0.4545455E+00  0.3005259E-02
    1       -4.190548   1.000000
    2       -0.899909   1.000000
    3        3.727966   1.000000
    4        4.055519   1.000000
    5        7.471208   0.000000
    6        8.718415   0.000000
    7        9.307504   0.000000
    8       12.721704   0.000000
    9       14.156881   0.000000
   10       15.703040   0.000000
   11       16.289042   0.000000
   12       17.023992   0.000000
   13       17.755067   0.000000
   14       20.010344   0.000000
   15       22.569091   0.000000
   16       24.142634   0.000000
 
 -0.4545455E+00  0.3636364E+00  0.4545455E+00  0.3005259E-02
    1       -3.844921   1.000000
    2       -1.083972   1.000000
    3        2.771649   1.000000
    4        3.808898   1.000000
    5        8.034522   0.000000
    6        8.607129   0.000000
    7       10.119226   0.000000
    8       12.550095   0.000000
    9       14.061735   0.000000
   10       15.211626   0.000000
   11       16.418479   0.000000
   12       17.769633   0.000000
   13       18.641340   0.000000
   14       20.419980   0.000000
   15       22.846561   0.000000
   16       24.620590   0.000000
 
 -0.3636364E+00  0.3636364E+00  0.4545455E+00  0.3005259E-02
    1       -3.391089   1.000000
    2       -1.186364   1.000000
    3        1.830365   1.000000
    4        3.317789   1.000000
    5        7.924541   0.000000
    6        9.406168   0.000000
    7       11.591905   0.000000
    8       12.122507   0.000000
    9       12.587223   0.000000
   10       15.301979   0.000000
   11       17.443831   0.000000
   12       18.245280   0.000000
   13       20.718978   0.000000
   14       21.222480   0.000000
   15       22.452749   0.000000
   16       23.389018   0.000000
 
 -0.2727273E+00  0.3636364E+00  0.4545455E+00  0.3005259E-02
    1       -2.863163   1.000000
    2       -1.457807   1.000000
    3        1.415918   1.000000
    4        2.851284   1.000000
    5        7.443615   0.000000
    6       10.070516   0.000000
    7       11.046708   0.000000
    8       12.613224   0.000000
    9       13.386113   0.000000
   10       15.391226   0.000000
   11       18.279472   0.000000
   12       19.522121   0.000000
   13       20.714861   0.000000
   14       21.181763   0.000000
   15       22.400361   0.000000
   16       23.284074   0.000000
 
 -0.1818182E+00  0.3636364E+00  0.4545455E+00  0.3005259E-02
    1       -2.351676   1.000000
    2       -1.976423   1.000000
    3        1.718982   1.000000
    4        2.535424   1.000000
    5        7.108377   0.000000
    6        8.325275   0.000000
    7       12.745357   0.000000
    8       12.969914   0.000000
    9       14.976782   0.000000
   10       15.619725   0.000000
   11       18.161588   0.000000
   12       18.959479   0.000000
   13       20.647324   0.000000
   14       21.281657   0.000000
   15       21.898992   0.000000
   16       22.305719   0.000000
 
 -0.9090909E-01  0.3636364E+00  0.4545455E+00  0.3005259E-02
    1       -2.834127   1.000000
    2       -1.545067   1.000000
    3        2.347286   1.000000
    4        2.466017   1.000000
    5        6.831477   0.000000
    6        7.103353   0.000000
    7       13.184423   0.000000
    8       14.530503   0.000000
    9       15.217007   0.000000
   10       16.579720   0.000000
   11       17.289682   0.000000
   12       18.744621   0.000000
   13       18.908462   0.000000
   14       20.525076   0.000000
   15       21.808849   0.000000
   16       23.122666   0.000000
 
  0.4545455E+00  0.4545455E+00  0.4545455E+00  0.1502630E-02
    1       -4.121279   1.000000
    2       -1.188891   1.000000
    3        4.298976   1.000000
    4        4.299022   1.000000
    5        6.872085   0.000000
    6        8.821107   0.000000
    7        8.821161   0.000000
    8       13.150816   0.000000
    9       15.286023   0.000000
   10       15.286039   0.000000
   11       16.085847   0.000000
   12       17.252155   0.000000
   13       17.252185   0.000000
   14       18.337484   0.000000
   15       23.341217   0.000000
   16       25.652481   0.000000
 
 -0.4545455E+00  0.4545455E+00  0.4545455E+00  0.3005259E-02
    1       -3.935141   1.000000
    2       -1.283488   1.000000
    3        3.557310   1.000000
    4        4.151979   1.000000
    5        7.438336   0.000000
    6        8.780282   0.000000
    7        9.130546   0.000000
    8       13.433707   0.000000
    9       14.659398   0.000000
   10       14.997999   0.000000
   11       16.210105   0.000000
   12       17.606598   0.000000
   13       17.910033   0.000000
   14       18.611831   0.000000
   15       23.939289   0.000000
   16       25.076745   0.000000
 
 -0.3636364E+00  0.4545455E+00  0.4545455E+00  0.3005259E-02
    1       -3.656369   1.000000
    2       -1.203246   1.000000
    3        2.448613   1.000000
    4        3.739074   1.000000
    5        7.469555   0.000000
    6        9.672019   0.000000
    7       10.110507   0.000000
    8       12.244423   0.000000
    9       14.386773   0.000000
   10       14.872296   0.000000
   11       16.779803   0.000000
   12       18.029013   0.000000
   13       18.590612   0.000000
   14       20.805043   0.000000
   15       23.829708   0.000000
   16       24.074247   0.000000
 
 -0.2727273E+00  0.4545455E+00  0.4545455E+00  0.3005259E-02
    1       -3.289625   1.000000
    2       -1.164470   1.000000
    3        1.699358   1.000000
    4        3.295144   1.000000
    5        6.953037   0.000000
    6       10.157324   0.000000
    7       11.395223   0.000000
    8       11.513000   0.000000
    9       14.738693   0.000000
   10       14.917910   0.000000
   11       18.395185   0.000000
   12       18.401049   0.000000
   13       18.801653   0.000000
   14       22.710112   0.000000
   15       22.754935   0.000000
   16       23.206321   0.000000
 
 -0.1818182E+00  0.4545455E+00  0.4545455E+00  0.3005259E-02
    1       -2.821260   1.000000
    2       -1.534423   1.000000
    3        1.726579   1.000000
    4        2.948853   1.000000
    5        6.525478   0.000000
    6        8.314941   0.000000
    7       13.159131   0.000000
    8       13.261267   0.000000
    9       14.979249   0.000000
   10       15.133703   0.000000
   11       18.540738   0.000000
   12       18.750450   0.000000
   13       20.465670   0.000000
   14       20.547700   0.000000
   15       21.106348   0.000000
   16       23.269972   0.000000
 
 -0.9090909E-01  0.4545455E+00  0.4545455E+00  0.3005259E-02
    1       -2.280943   1.000000
    2       -2.168890   1.000000
    3        2.310192   1.000000
    4        2.753620   1.000000
    5        6.297229   0.000000
    6        6.860659   0.000000
    7       14.654372   0.000000
    8       14.860283   0.000000
    9       15.451447   0.000000
   10       15.671076   0.000000
   11       18.411720   0.000000
   12       18.453739   0.000000
   13       18.464658   0.000000
   14       19.013253   0.000000
   15       23.041407   0.000000
   16       23.364735   0.000000
 
 -0.4545455E+00 -0.4545455E+00  0.4545455E+00  0.1502630E-02
    1       -3.935142   1.000000
    2       -1.283487   1.000000
    3        3.557338   1.000000
    4        4.151948   1.000000
    5        7.438334   0.000000
    6        8.780252   0.000000
    7        9.130584   0.000000
    8       13.433707   0.000000
    9       14.659395   0.000000
   10       14.997987   0.000000
   11       16.210128   0.000000
   12       17.606574   0.000000
   13       17.910033   0.000000
   14       18.611843   0.000000
   15       23.939282   0.000000
   16       25.076745   0.000000
 
 -0.3636364E+00 -0.4545455E+00  0.4545455E+00  0.3005259E-02
    1       -3.844923   1.000000
    2       -1.083969   1.000000
    3        2.771677   1.000000
    4        3.808864   1.000000
    5        8.034536   0.000000
    6        8.607091   0.000000
    7       10.119262   0.000000
    8       12.550094   0.000000
    9       14.061744   0.000000
   10       15.211607   0.000000
   11       16.418484   0.000000
   12       17.769617   0.000000
   13       18.641358   0.000000
   14       20.419979   0.000000
   15       22.846556   0.000000
   16       24.620595   0.000000
 
 -0.2727273E+00 -0.4545455E+00  0.4545455E+00  0.3005259E-02
    1       -3.644055   1.000000
    2       -0.854121   1.000000
    3        2.052372   1.000000
    4        3.232081   1.000000
    5        7.721449   0.000000
    6        9.665974   0.000000
    7       10.461576   0.000000
    8       11.706753   0.000000
    9       14.323507   0.000000
   10       15.976714   0.000000
   11       16.979955   0.000000
   12       18.212993   0.000000
   13       18.938110   0.000000
   14       21.569731   0.000000
   15       22.886122   0.000000
   16       23.632537   0.000000
 
 -0.1818182E+00 -0.4545455E+00  0.4545455E+00  0.3005259E-02
    1       -3.310105   1.000000
    2       -0.979706   1.000000
    3        1.915651   1.000000
    4        2.739983   1.000000
    5        7.234891   0.000000
    6        8.530307   0.000000
    7       11.343685   0.000000
    8       13.411721   0.000000
    9       14.603699   0.000000
   10       16.425489   0.000000
   11       17.286945   0.000000
   12       18.959529   0.000000
   13       19.775310   0.000000
   14       20.303080   0.000000
   15       22.222863   0.000000
   16       22.750104   0.000000
 
 -0.9090909E-01 -0.4545455E+00  0.4545455E+00  0.3005259E-02
    1       -2.834121   1.000000
    2       -1.545076   1.000000
    3        2.347285   1.000000
    4        2.466023   1.000000
    5        6.831473   0.000000
    6        7.103355   0.000000
    7       13.184457   0.000000
    8       14.530501   0.000000
    9       15.216965   0.000000
   10       16.579725   0.000000
   11       17.289686   0.000000
   12       18.744620   0.000000
   13       18.908402   0.000000
   14       20.525141   0.000000
   15       21.808869   0.000000
   16       23.122664   0.000000
 
 -0.3636364E+00 -0.3636364E+00  0.4545455E+00  0.1502630E-02
    1       -3.927498   1.000000
    2       -0.810086   1.000000
    3        2.304543   1.000000
    4        4.006960   1.000000
    5        7.702583   0.000000
    6        9.672137   0.000000
    7        9.888213   0.000000
    8       13.020195   0.000000
    9       13.189468   0.000000
   10       13.964902   0.000000
   11       16.676626   0.000000
   12       18.965528   0.000000
   13       19.977572   0.000000
   14       20.120740   0.000000
   15       21.597766   0.000000
   16       23.916111   0.000000
 
 -0.2727273E+00 -0.3636364E+00  0.4545455E+00  0.3005259E-02
    1       -3.874512   1.000000
    2       -0.527553   1.000000
    3        1.827017   1.000000
    4        3.601239   1.000000
    5        8.267095   0.000000
    6        9.224520   0.000000
    7       10.906322   0.000000
    8       11.541212   0.000000
    9       13.804488   0.000000
   10       14.046638   0.000000
   11       17.682177   0.000000
   12       19.177037   0.000000
   13       19.786927   0.000000
   14       20.298019   0.000000
   15       22.618881   0.000000
   16       22.914130   0.000000
 
 -0.1818182E+00 -0.3636364E+00  0.4545455E+00  0.3005259E-02
    1       -3.668888   1.000000
    2       -0.560942   1.000000
    3        1.805160   1.000000
    4        2.936584   1.000000
    5        8.505463   0.000000
    6        9.169693   0.000000
    7        9.651655   0.000000
    8       12.966601   0.000000
    9       14.236445   0.000000
   10       14.791634   0.000000
   11       18.795946   0.000000
   12       19.020746   0.000000
   13       19.422099   0.000000
   14       19.830258   0.000000
   15       21.825068   0.000000
   16       23.192479   0.000000
 
 -0.9090909E-01 -0.3636364E+00  0.4545455E+00  0.3005259E-02
    1       -3.310117   1.000000
    2       -0.979678   1.000000
    3        1.915654   1.000000
    4        2.739965   1.000000
    5        7.234842   0.000000
    6        8.530356   0.000000
    7       11.343689   0.000000
    8       13.411684   0.000000
    9       14.603676   0.000000
   10       16.425554   0.000000
   11       17.286992   0.000000
   12       18.959558   0.000000
   13       19.775273   0.000000
   14       20.303021   0.000000
   15       22.222860   0.000000
   16       22.750111   0.000000
 
 -0.2727273E+00 -0.2727273E+00  0.4545455E+00  0.1502630E-02
    1       -3.954074   1.000000
    2       -0.354070   1.000000
    3        1.585675   1.000000
    4        3.948274   1.000000
    5        7.649803   0.000000
    6       10.567332   0.000000
    7       10.907582   0.000000
    8       11.675326   0.000000
    9       12.162614   0.000000
   10       13.971642   0.000000
   11       18.312676   0.000000
   12       18.972171   0.000000
   13       19.358228   0.000000
   14       21.927141   0.000000
   15       22.051934   0.000000
   16       22.656819   0.000000
 
 -0.1818182E+00 -0.2727273E+00  0.4545455E+00  0.3005259E-02
    1       -3.874523   1.000000
    2       -0.527511   1.000000
    3        1.826985   1.000000
    4        3.601243   1.000000
    5        8.267096   0.000000
    6        9.224470   0.000000
    7       10.906373   0.000000
    8       11.541161   0.000000
    9       13.804558   0.000000
   10       14.046626   0.000000
   11       17.682145   0.000000
   12       19.177029   0.000000
   13       19.787004   0.000000
   14       20.298058   0.000000
   15       22.618971   0.000000
   16       22.914058   0.000000
 
 -0.9090909E-01 -0.2727273E+00  0.4545455E+00  0.3005259E-02
    1       -3.644078   1.000000
    2       -0.854058   1.000000
    3        2.052344   1.000000
    4        3.232071   1.000000
    5        7.721394   0.000000
    6        9.665979   0.000000
    7       10.461634   0.000000
    8       11.706696   0.000000
    9       14.323501   0.000000
   10       15.976792   0.000000
   11       16.979980   0.000000
   12       18.212988   0.000000
   13       18.938134   0.000000
   14       21.569730   0.000000
   15       22.886183   0.000000
   16       23.632506   0.000000
 
 -0.1818182E+00 -0.1818182E+00  0.4545455E+00  0.1502630E-02
    1       -3.927520   1.000000
    2       -0.810020   1.000000
    3        2.304492   1.000000
    4        4.006970   1.000000
    5        7.702583   0.000000
    6        9.672102   0.000000
    7        9.888133   0.000000
    8       13.020240   0.000000
    9       13.189550   0.000000
   10       13.964916   0.000000
   11       16.676585   0.000000
   12       18.965543   0.000000
   13       19.977680   0.000000
   14       20.120789   0.000000
   15       21.597800   0.000000
   16       23.916079   0.000000
 
 -0.9090909E-01 -0.1818182E+00  0.4545455E+00  0.3005259E-02
    1       -3.844955   1.000000
    2       -1.083889   1.000000
    3        2.771630   1.000000
    4        3.808867   1.000000
    5        8.034495   0.000000
    6        8.607084   0.000000
    7       10.119198   0.000000
    8       12.550151   0.000000
    9       14.061744   0.000000
   10       15.211691   0.000000
   11       16.418466   0.000000
   12       17.769686   0.000000
   13       18.641363   0.000000
   14       20.420052   0.000000
   15       22.846580   0.000000
   16       24.620599   0.000000
 
 -0.9090909E-01 -0.9090909E-01  0.4545455E+00  0.1502630E-02
    1       -3.935180   1.000000
    2       -1.283401   1.000000
    3        3.557277   1.000000
    4        4.151966   1.000000
    5        7.438313   0.000000
    6        8.780252   0.000000
    7        9.130492   0.000000
    8       13.433675   0.000000
    9       14.659493   0.000000
   10       14.998085   0.000000
   11       16.210099   0.000000
   12       17.606669   0.000000
   13       17.910144   0.000000
   14       18.611764   0.000000
   15       23.939322   0.000000
   16       25.076725   0.000000
