       N       E                     dE             d eps       ncg     rms          rms(c)
DAV:   1    -0.428892105821E+01   -0.42889E+01   -0.26847E+03 11872   0.296E+02
DAV:   2    -0.109633019038E+02   -0.66744E+01   -0.66155E+01 17504   0.303E+01
DAV:   3    -0.110010895532E+02   -0.37788E-01   -0.37788E-01 12912   0.278E+00
DAV:   4    -0.110011851252E+02   -0.95572E-04   -0.95572E-04 22016   0.148E-01
DAV:   5    -0.110011851285E+02   -0.33349E-08   -0.33290E-08 12704   0.746E-04    0.292E+00
DAV:   6    -0.108922214160E+02    0.10896E+00   -0.70375E-02 15872   0.690E-01    0.173E+00
DAV:   7    -0.108410277295E+02    0.51194E-01   -0.13282E-01 17616   0.101E+00    0.144E-01
DAV:   8    -0.108423160031E+02   -0.12883E-02   -0.30982E-03 14368   0.205E-01    0.253E-02
DAV:   9    -0.108424180019E+02   -0.10200E-03   -0.92237E-05 20752   0.388E-02    0.126E-02
DAV:  10    -0.108424350245E+02   -0.17023E-04   -0.22576E-05 15200   0.187E-02    0.204E-03
DAV:  11    -0.108424342313E+02    0.79322E-06   -0.87121E-07 19616   0.294E-03
   1 F= -.10842434E+02 E0= -.10842434E+02  d E =-.108424E+02
       N       E                     dE             d eps       ncg     rms          rms(c)
DAV:   1    -0.108444972463E+02   -0.20622E-02   -0.79889E-02 12768   0.910E-01    0.539E-02
DAV:   2    -0.108447021931E+02   -0.20495E-03   -0.20815E-03 20544   0.211E-01    0.342E-02
DAV:   3    -0.108447038363E+02   -0.16433E-05   -0.28733E-05 13712   0.194E-02    0.481E-03
DAV:   4    -0.108447042765E+02   -0.44017E-06   -0.19283E-06 19632   0.717E-03
   2 F= -.10844704E+02 E0= -.10844704E+02  d E =-.227005E-02
       N       E                     dE             d eps       ncg     rms          rms(c)
DAV:   1    -0.108448101265E+02   -0.10629E-03   -0.24629E-03 12640   0.160E-01    0.963E-03
DAV:   2    -0.108448164253E+02   -0.62988E-05   -0.64454E-05 20624   0.370E-02    0.607E-03
DAV:   3    -0.108448164322E+02   -0.68831E-08   -0.85468E-07 13696   0.333E-03
   3 F= -.10844816E+02 E0= -.10844816E+02  d E =-.238220E-02
       N       E                     dE             d eps       ncg     rms          rms(c)
DAV:   1    -0.108448164434E+02   -0.18152E-07   -0.68325E-08 11088   0.132E-03    0.322E-04
DAV:   2    -0.108448164405E+02    0.29835E-08   -0.91248E-09  7744   0.358E-04
   4 F= -.10844816E+02 E0= -.10844816E+02  d E =-.238221E-02
       N       E                     dE             d eps       ncg     rms          rms(c)
DAV:   1    -0.108448177277E+02   -0.12842E-05   -0.45199E-05 12704   0.219E-02    0.128E-03
DAV:   2    -0.108448178468E+02   -0.11915E-06   -0.11999E-06 19696   0.507E-03
   5 F= -.10844818E+02 E0= -.10844818E+02  d E =-.140637E-05
       N       E                     dE             d eps       ncg     rms          rms(c)
DAV:   1    -0.108448178887E+02   -0.16105E-06   -0.11047E-06 12240   0.337E-03    0.881E-05
DAV:   2    -0.108448178914E+02   -0.26893E-08   -0.29112E-08  6288   0.819E-04
   6 F= -.10844818E+02 E0= -.10844818E+02  d E =-.145095E-05
       N       E                     dE             d eps       ncg     rms          rms(c)
DAV:   1    -0.108448178915E+02   -0.27648E-08   -0.22998E-09  6080   0.234E-04    0.162E-05
DAV:   2    -0.108448178915E+02   -0.24670E-10   -0.24079E-10  6128   0.767E-05
   7 F= -.10844818E+02 E0= -.10844818E+02  d E =-.145105E-05
       N       E                     dE             d eps       ncg     rms          rms(c)
DAV:   1    -0.108448178915E+02   -0.29672E-10   -0.11418E-10  6000   0.429E-05    0.236E-06
DAV:   2    -0.108448178915E+02   -0.16769E-11   -0.13479E-11  6064   0.179E-05
   8 F= -.10844818E+02 E0= -.10844818E+02  d E =-.145106E-05
       N       E                     dE             d eps       ncg     rms          rms(c)
DAV:   1    -0.108448178915E+02   -0.15632E-11   -0.25984E-12  6048   0.738E-06    0.602E-07
DAV:   2    -0.108448178915E+02   -0.68212E-12   -0.10957E-13  5968   0.239E-06
   9 F= -.10844818E+02 E0= -.10844818E+02  d E =-.145106E-05
       N       E                     dE             d eps       ncg     rms          rms(c)
DAV:   1    -0.108448178915E+02   -0.11369E-12   -0.23606E-13  6016   0.192E-06    0.123E-07
DAV:   2    -0.108448178915E+02    0.31264E-12    0.10482E-13  5904   0.777E-07
  10 F= -.10844818E+02 E0= -.10844818E+02  d E =-.145106E-05
