<?xml version="1.0" encoding="ISO-8859-1"?>
<modeling>
 <generator>
  <i name="program" type="string">vasp </i>
  <i name="version" type="string">5.4.4.18Apr17-6-g9f103f2a35  </i>
  <i name="subversion" type="string">(build Mar 07 2019 17:46:06) complex            parallel </i>
  <i name="platform" type="string">Magnus_Intel_PSXE_2016U4 </i>
  <i name="date" type="string">2025 10 01 </i>
  <i name="time" type="string">11:14:32 </i>
 </generator>
 <incar>
  <i type="string" name="SYSTEM"> perturbed cd Si</i>
  <i type="int" name="ISTART">     0</i>
  <i type="string" name="PREC">normal</i>
  <i type="int" name="ICHARG">     2</i>
  <i type="int" name="IBRION">     2</i>
  <i name="EDIFF">      0.00000100</i>
  <i name="EDIFFG">     -0.00010000</i>
  <i type="int" name="NSW">    10</i>
  <i type="int" name="ISIF">     2</i>
  <i name="ENCUT">    360.00000000</i>
  <i type="int" name="ISMEAR">     0</i>
  <i name="SIGMA">      0.10000000</i>
  <v type="int" name="KPOINT_BSE">    -1     0     0     0</v>
 </incar>
 <structure name="primitive_cell" >
  <crystal>
   <varray name="basis" >
    <v>       0.00000000       2.75000000       2.75000000 </v>
    <v>       2.75000000       0.00000000       2.75000000 </v>
    <v>       2.75000000       2.75000000       0.00000000 </v>
   </varray>
   <i name="volume">     41.59375000 </i>
   <varray name="rec_basis" >
    <v>      -0.18181818       0.18181818       0.18181818 </v>
    <v>       0.18181818      -0.18181818       0.18181818 </v>
    <v>       0.18181818       0.18181818      -0.18181818 </v>
   </varray>
  </crystal>
  <varray name="positions" >
   <v>      -0.12500000      -0.12500000      -0.12500000 </v>
   <v>       0.12500000       0.12500000       0.13000000 </v>
  </varray>
 </structure>
 <varray name="primitive_index" >
  <v type="int" >        1 </v>
  <v type="int" >        2 </v>
 </varray>
 <kpoints>
  <generation param="Monkhorst-Pack">
   <v type="int" name="divisions">      11       11       11 </v>
   <v name="usershift">      0.00000000       0.00000000       0.00000000 </v>
   <v name="genvec1">      0.09090909       0.00000000       0.00000000 </v>
   <v name="genvec2">      0.00000000       0.09090909       0.00000000 </v>
   <v name="genvec3">      0.00000000       0.00000000       0.09090909 </v>
   <v name="shift">      0.00000000       0.00000000       0.00000000 </v>
  </generation>
  <varray name="kpointlist" >
   <v>       0.00000000       0.00000000       0.00000000 </v>
   <v>       0.09090909       0.00000000       0.00000000 </v>
   <v>       0.18181818       0.00000000       0.00000000 </v>
   <v>       0.27272727       0.00000000       0.00000000 </v>
   <v>       0.36363636       0.00000000       0.00000000 </v>
   <v>       0.45454545       0.00000000       0.00000000 </v>
   <v>       0.09090909       0.09090909       0.00000000 </v>
   <v>       0.18181818       0.09090909       0.00000000 </v>
   <v>       0.27272727       0.09090909       0.00000000 </v>
   <v>       0.36363636       0.09090909       0.00000000 </v>
   <v>       0.45454545       0.09090909       0.00000000 </v>
   <v>      -0.45454545       0.09090909       0.00000000 </v>
   <v>      -0.36363636       0.09090909       0.00000000 </v>
   <v>      -0.27272727       0.09090909       0.00000000 </v>
   <v>      -0.18181818       0.09090909       0.00000000 </v>
   <v>      -0.09090909       0.09090909       0.00000000 </v>
   <v>       0.18181818       0.18181818       0.00000000 </v>
   <v>       0.27272727       0.18181818       0.00000000 </v>
   <v>       0.36363636       0.18181818       0.00000000 </v>
   <v>       0.45454545       0.18181818       0.00000000 </v>
   <v>      -0.45454545       0.18181818       0.00000000 </v>
   <v>      -0.36363636       0.18181818       0.00000000 </v>
   <v>      -0.27272727       0.18181818       0.00000000 </v>
   <v>      -0.18181818       0.18181818       0.00000000 </v>
   <v>       0.27272727       0.27272727       0.00000000 </v>
   <v>       0.36363636       0.27272727       0.00000000 </v>
   <v>       0.45454545       0.27272727       0.00000000 </v>
   <v>      -0.45454545       0.27272727       0.00000000 </v>
   <v>      -0.36363636       0.27272727       0.00000000 </v>
   <v>      -0.27272727       0.27272727       0.00000000 </v>
   <v>       0.36363636       0.36363636       0.00000000 </v>
   <v>       0.45454545       0.36363636       0.00000000 </v>
   <v>      -0.45454545       0.36363636       0.00000000 </v>
   <v>      -0.36363636       0.36363636       0.00000000 </v>
   <v>       0.45454545       0.45454545       0.00000000 </v>
   <v>      -0.45454545       0.45454545       0.00000000 </v>
   <v>       0.00000000       0.00000000       0.09090909 </v>
   <v>       0.09090909       0.00000000       0.09090909 </v>
   <v>       0.18181818       0.00000000       0.09090909 </v>
   <v>       0.27272727       0.00000000       0.09090909 </v>
   <v>       0.36363636       0.00000000       0.09090909 </v>
   <v>       0.45454545       0.00000000       0.09090909 </v>
   <v>      -0.45454545       0.00000000       0.09090909 </v>
   <v>      -0.36363636       0.00000000       0.09090909 </v>
   <v>      -0.27272727       0.00000000       0.09090909 </v>
   <v>      -0.18181818       0.00000000       0.09090909 </v>
   <v>      -0.09090909       0.00000000       0.09090909 </v>
   <v>       0.09090909       0.09090909       0.09090909 </v>
   <v>       0.18181818       0.09090909       0.09090909 </v>
   <v>       0.27272727       0.09090909       0.09090909 </v>
   <v>       0.36363636       0.09090909       0.09090909 </v>
   <v>       0.45454545       0.09090909       0.09090909 </v>
   <v>      -0.45454545       0.09090909       0.09090909 </v>
   <v>      -0.36363636       0.09090909       0.09090909 </v>
   <v>      -0.27272727       0.09090909       0.09090909 </v>
   <v>      -0.18181818       0.09090909       0.09090909 </v>
   <v>      -0.09090909       0.09090909       0.09090909 </v>
   <v>       0.18181818       0.18181818       0.09090909 </v>
   <v>       0.27272727       0.18181818       0.09090909 </v>
   <v>       0.36363636       0.18181818       0.09090909 </v>
   <v>       0.45454545       0.18181818       0.09090909 </v>
   <v>      -0.45454545       0.18181818       0.09090909 </v>
   <v>      -0.36363636       0.18181818       0.09090909 </v>
   <v>      -0.27272727       0.18181818       0.09090909 </v>
   <v>      -0.18181818       0.18181818       0.09090909 </v>
   <v>      -0.09090909       0.18181818       0.09090909 </v>
   <v>       0.27272727       0.27272727       0.09090909 </v>
   <v>       0.36363636       0.27272727       0.09090909 </v>
   <v>       0.45454545       0.27272727       0.09090909 </v>
   <v>      -0.45454545       0.27272727       0.09090909 </v>
   <v>      -0.36363636       0.27272727       0.09090909 </v>
   <v>      -0.27272727       0.27272727       0.09090909 </v>
   <v>      -0.18181818       0.27272727       0.09090909 </v>
   <v>      -0.09090909       0.27272727       0.09090909 </v>
   <v>       0.36363636       0.36363636       0.09090909 </v>
   <v>       0.45454545       0.36363636       0.09090909 </v>
   <v>      -0.45454545       0.36363636       0.09090909 </v>
   <v>      -0.36363636       0.36363636       0.09090909 </v>
   <v>      -0.27272727       0.36363636       0.09090909 </v>
   <v>      -0.18181818       0.36363636       0.09090909 </v>
   <v>      -0.09090909       0.36363636       0.09090909 </v>
   <v>       0.45454545       0.45454545       0.09090909 </v>
   <v>      -0.45454545       0.45454545       0.09090909 </v>
   <v>      -0.36363636       0.45454545       0.09090909 </v>
   <v>      -0.27272727       0.45454545       0.09090909 </v>
   <v>      -0.18181818       0.45454545       0.09090909 </v>
   <v>      -0.09090909       0.45454545       0.09090909 </v>
   <v>      -0.45454545      -0.45454545       0.09090909 </v>
   <v>      -0.36363636      -0.45454545       0.09090909 </v>
   <v>      -0.27272727      -0.45454545       0.09090909 </v>
   <v>      -0.18181818      -0.45454545       0.09090909 </v>
   <v>      -0.09090909      -0.45454545       0.09090909 </v>
   <v>      -0.36363636      -0.36363636       0.09090909 </v>
   <v>      -0.27272727      -0.36363636       0.09090909 </v>
   <v>      -0.18181818      -0.36363636       0.09090909 </v>
   <v>      -0.09090909      -0.36363636       0.09090909 </v>
   <v>      -0.27272727      -0.27272727       0.09090909 </v>
   <v>      -0.18181818      -0.27272727       0.09090909 </v>
   <v>      -0.09090909      -0.27272727       0.09090909 </v>
   <v>      -0.18181818      -0.18181818       0.09090909 </v>
   <v>      -0.09090909      -0.18181818       0.09090909 </v>
   <v>      -0.09090909      -0.09090909       0.09090909 </v>
   <v>       0.00000000       0.00000000       0.18181818 </v>
   <v>       0.09090909       0.00000000       0.18181818 </v>
   <v>       0.18181818       0.00000000       0.18181818 </v>
   <v>       0.27272727       0.00000000       0.18181818 </v>
   <v>       0.36363636       0.00000000       0.18181818 </v>
   <v>       0.45454545       0.00000000       0.18181818 </v>
   <v>      -0.45454545       0.00000000       0.18181818 </v>
   <v>      -0.36363636       0.00000000       0.18181818 </v>
   <v>      -0.27272727       0.00000000       0.18181818 </v>
   <v>      -0.18181818       0.00000000       0.18181818 </v>
   <v>      -0.09090909       0.00000000       0.18181818 </v>
   <v>       0.09090909       0.09090909       0.18181818 </v>
   <v>       0.18181818       0.09090909       0.18181818 </v>
   <v>       0.27272727       0.09090909       0.18181818 </v>
   <v>       0.36363636       0.09090909       0.18181818 </v>
   <v>       0.45454545       0.09090909       0.18181818 </v>
   <v>      -0.45454545       0.09090909       0.18181818 </v>
   <v>      -0.36363636       0.09090909       0.18181818 </v>
   <v>      -0.27272727       0.09090909       0.18181818 </v>
   <v>      -0.18181818       0.09090909       0.18181818 </v>
   <v>      -0.09090909       0.09090909       0.18181818 </v>
   <v>       0.18181818       0.18181818       0.18181818 </v>
   <v>       0.27272727       0.18181818       0.18181818 </v>
   <v>       0.36363636       0.18181818       0.18181818 </v>
   <v>       0.45454545       0.18181818       0.18181818 </v>
   <v>      -0.45454545       0.18181818       0.18181818 </v>
   <v>      -0.36363636       0.18181818       0.18181818 </v>
   <v>      -0.27272727       0.18181818       0.18181818 </v>
   <v>      -0.18181818       0.18181818       0.18181818 </v>
   <v>      -0.09090909       0.18181818       0.18181818 </v>
   <v>       0.27272727       0.27272727       0.18181818 </v>
   <v>       0.36363636       0.27272727       0.18181818 </v>
   <v>       0.45454545       0.27272727       0.18181818 </v>
   <v>      -0.45454545       0.27272727       0.18181818 </v>
   <v>      -0.36363636       0.27272727       0.18181818 </v>
   <v>      -0.27272727       0.27272727       0.18181818 </v>
   <v>      -0.18181818       0.27272727       0.18181818 </v>
   <v>      -0.09090909       0.27272727       0.18181818 </v>
   <v>       0.36363636       0.36363636       0.18181818 </v>
   <v>       0.45454545       0.36363636       0.18181818 </v>
   <v>      -0.45454545       0.36363636       0.18181818 </v>
   <v>      -0.36363636       0.36363636       0.18181818 </v>
   <v>      -0.27272727       0.36363636       0.18181818 </v>
   <v>      -0.18181818       0.36363636       0.18181818 </v>
   <v>      -0.09090909       0.36363636       0.18181818 </v>
   <v>       0.45454545       0.45454545       0.18181818 </v>
   <v>      -0.45454545       0.45454545       0.18181818 </v>
   <v>      -0.36363636       0.45454545       0.18181818 </v>
   <v>      -0.27272727       0.45454545       0.18181818 </v>
   <v>      -0.18181818       0.45454545       0.18181818 </v>
   <v>      -0.09090909       0.45454545       0.18181818 </v>
   <v>      -0.45454545      -0.45454545       0.18181818 </v>
   <v>      -0.36363636      -0.45454545       0.18181818 </v>
   <v>      -0.27272727      -0.45454545       0.18181818 </v>
   <v>      -0.18181818      -0.45454545       0.18181818 </v>
   <v>      -0.09090909      -0.45454545       0.18181818 </v>
   <v>      -0.36363636      -0.36363636       0.18181818 </v>
   <v>      -0.27272727      -0.36363636       0.18181818 </v>
   <v>      -0.18181818      -0.36363636       0.18181818 </v>
   <v>      -0.09090909      -0.36363636       0.18181818 </v>
   <v>      -0.27272727      -0.27272727       0.18181818 </v>
   <v>      -0.18181818      -0.27272727       0.18181818 </v>
   <v>      -0.09090909      -0.27272727       0.18181818 </v>
   <v>      -0.18181818      -0.18181818       0.18181818 </v>
   <v>      -0.09090909      -0.18181818       0.18181818 </v>
   <v>      -0.09090909      -0.09090909       0.18181818 </v>
   <v>       0.00000000       0.00000000       0.27272727 </v>
   <v>       0.09090909       0.00000000       0.27272727 </v>
   <v>       0.18181818       0.00000000       0.27272727 </v>
   <v>       0.27272727       0.00000000       0.27272727 </v>
   <v>       0.36363636       0.00000000       0.27272727 </v>
   <v>       0.45454545       0.00000000       0.27272727 </v>
   <v>      -0.45454545       0.00000000       0.27272727 </v>
   <v>      -0.36363636       0.00000000       0.27272727 </v>
   <v>      -0.27272727       0.00000000       0.27272727 </v>
   <v>      -0.18181818       0.00000000       0.27272727 </v>
   <v>      -0.09090909       0.00000000       0.27272727 </v>
   <v>       0.09090909       0.09090909       0.27272727 </v>
   <v>       0.18181818       0.09090909       0.27272727 </v>
   <v>       0.27272727       0.09090909       0.27272727 </v>
   <v>       0.36363636       0.09090909       0.27272727 </v>
   <v>       0.45454545       0.09090909       0.27272727 </v>
   <v>      -0.45454545       0.09090909       0.27272727 </v>
   <v>      -0.36363636       0.09090909       0.27272727 </v>
   <v>      -0.27272727       0.09090909       0.27272727 </v>
   <v>      -0.18181818       0.09090909       0.27272727 </v>
   <v>      -0.09090909       0.09090909       0.27272727 </v>
   <v>       0.18181818       0.18181818       0.27272727 </v>
   <v>       0.27272727       0.18181818       0.27272727 </v>
   <v>       0.36363636       0.18181818       0.27272727 </v>
   <v>       0.45454545       0.18181818       0.27272727 </v>
   <v>      -0.45454545       0.18181818       0.27272727 </v>
   <v>      -0.36363636       0.18181818       0.27272727 </v>
   <v>      -0.27272727       0.18181818       0.27272727 </v>
   <v>      -0.18181818       0.18181818       0.27272727 </v>
   <v>      -0.09090909       0.18181818       0.27272727 </v>
   <v>       0.27272727       0.27272727       0.27272727 </v>
   <v>       0.36363636       0.27272727       0.27272727 </v>
   <v>       0.45454545       0.27272727       0.27272727 </v>
   <v>      -0.45454545       0.27272727       0.27272727 </v>
   <v>      -0.36363636       0.27272727       0.27272727 </v>
   <v>      -0.27272727       0.27272727       0.27272727 </v>
   <v>      -0.18181818       0.27272727       0.27272727 </v>
   <v>      -0.09090909       0.27272727       0.27272727 </v>
   <v>       0.36363636       0.36363636       0.27272727 </v>
   <v>       0.45454545       0.36363636       0.27272727 </v>
   <v>      -0.45454545       0.36363636       0.27272727 </v>
   <v>      -0.36363636       0.36363636       0.27272727 </v>
   <v>      -0.27272727       0.36363636       0.27272727 </v>
   <v>      -0.18181818       0.36363636       0.27272727 </v>
   <v>      -0.09090909       0.36363636       0.27272727 </v>
   <v>       0.45454545       0.45454545       0.27272727 </v>
   <v>      -0.45454545       0.45454545       0.27272727 </v>
   <v>      -0.36363636       0.45454545       0.27272727 </v>
   <v>      -0.27272727       0.45454545       0.27272727 </v>
   <v>      -0.18181818       0.45454545       0.27272727 </v>
   <v>      -0.09090909       0.45454545       0.27272727 </v>
   <v>      -0.45454545      -0.45454545       0.27272727 </v>
   <v>      -0.36363636      -0.45454545       0.27272727 </v>
   <v>      -0.27272727      -0.45454545       0.27272727 </v>
   <v>      -0.18181818      -0.45454545       0.27272727 </v>
   <v>      -0.09090909      -0.45454545       0.27272727 </v>
   <v>      -0.36363636      -0.36363636       0.27272727 </v>
   <v>      -0.27272727      -0.36363636       0.27272727 </v>
   <v>      -0.18181818      -0.36363636       0.27272727 </v>
   <v>      -0.09090909      -0.36363636       0.27272727 </v>
   <v>      -0.27272727      -0.27272727       0.27272727 </v>
   <v>      -0.18181818      -0.27272727       0.27272727 </v>
   <v>      -0.09090909      -0.27272727       0.27272727 </v>
   <v>      -0.18181818      -0.18181818       0.27272727 </v>
   <v>      -0.09090909      -0.18181818       0.27272727 </v>
   <v>      -0.09090909      -0.09090909       0.27272727 </v>
   <v>       0.00000000       0.00000000       0.36363636 </v>
   <v>       0.09090909       0.00000000       0.36363636 </v>
   <v>       0.18181818       0.00000000       0.36363636 </v>
   <v>       0.27272727       0.00000000       0.36363636 </v>
   <v>       0.36363636       0.00000000       0.36363636 </v>
   <v>       0.45454545       0.00000000       0.36363636 </v>
   <v>      -0.45454545       0.00000000       0.36363636 </v>
   <v>      -0.36363636       0.00000000       0.36363636 </v>
   <v>      -0.27272727       0.00000000       0.36363636 </v>
   <v>      -0.18181818       0.00000000       0.36363636 </v>
   <v>      -0.09090909       0.00000000       0.36363636 </v>
   <v>       0.09090909       0.09090909       0.36363636 </v>
   <v>       0.18181818       0.09090909       0.36363636 </v>
   <v>       0.27272727       0.09090909       0.36363636 </v>
   <v>       0.36363636       0.09090909       0.36363636 </v>
   <v>       0.45454545       0.09090909       0.36363636 </v>
   <v>      -0.45454545       0.09090909       0.36363636 </v>
   <v>      -0.36363636       0.09090909       0.36363636 </v>
   <v>      -0.27272727       0.09090909       0.36363636 </v>
   <v>      -0.18181818       0.09090909       0.36363636 </v>
   <v>      -0.09090909       0.09090909       0.36363636 </v>
   <v>       0.18181818       0.18181818       0.36363636 </v>
   <v>       0.27272727       0.18181818       0.36363636 </v>
   <v>       0.36363636       0.18181818       0.36363636 </v>
   <v>       0.45454545       0.18181818       0.36363636 </v>
   <v>      -0.45454545       0.18181818       0.36363636 </v>
   <v>      -0.36363636       0.18181818       0.36363636 </v>
   <v>      -0.27272727       0.18181818       0.36363636 </v>
   <v>      -0.18181818       0.18181818       0.36363636 </v>
   <v>      -0.09090909       0.18181818       0.36363636 </v>
   <v>       0.27272727       0.27272727       0.36363636 </v>
   <v>       0.36363636       0.27272727       0.36363636 </v>
   <v>       0.45454545       0.27272727       0.36363636 </v>
   <v>      -0.45454545       0.27272727       0.36363636 </v>
   <v>      -0.36363636       0.27272727       0.36363636 </v>
   <v>      -0.27272727       0.27272727       0.36363636 </v>
   <v>      -0.18181818       0.27272727       0.36363636 </v>
   <v>      -0.09090909       0.27272727       0.36363636 </v>
   <v>       0.36363636       0.36363636       0.36363636 </v>
   <v>       0.45454545       0.36363636       0.36363636 </v>
   <v>      -0.45454545       0.36363636       0.36363636 </v>
   <v>      -0.36363636       0.36363636       0.36363636 </v>
   <v>      -0.27272727       0.36363636       0.36363636 </v>
   <v>      -0.18181818       0.36363636       0.36363636 </v>
   <v>      -0.09090909       0.36363636       0.36363636 </v>
   <v>       0.45454545       0.45454545       0.36363636 </v>
   <v>      -0.45454545       0.45454545       0.36363636 </v>
   <v>      -0.36363636       0.45454545       0.36363636 </v>
   <v>      -0.27272727       0.45454545       0.36363636 </v>
   <v>      -0.18181818       0.45454545       0.36363636 </v>
   <v>      -0.09090909       0.45454545       0.36363636 </v>
   <v>      -0.45454545      -0.45454545       0.36363636 </v>
   <v>      -0.36363636      -0.45454545       0.36363636 </v>
   <v>      -0.27272727      -0.45454545       0.36363636 </v>
   <v>      -0.18181818      -0.45454545       0.36363636 </v>
   <v>      -0.09090909      -0.45454545       0.36363636 </v>
   <v>      -0.36363636      -0.36363636       0.36363636 </v>
   <v>      -0.27272727      -0.36363636       0.36363636 </v>
   <v>      -0.18181818      -0.36363636       0.36363636 </v>
   <v>      -0.09090909      -0.36363636       0.36363636 </v>
   <v>      -0.27272727      -0.27272727       0.36363636 </v>
   <v>      -0.18181818      -0.27272727       0.36363636 </v>
   <v>      -0.09090909      -0.27272727       0.36363636 </v>
   <v>      -0.18181818      -0.18181818       0.36363636 </v>
   <v>      -0.09090909      -0.18181818       0.36363636 </v>
   <v>      -0.09090909      -0.09090909       0.36363636 </v>
   <v>       0.00000000       0.00000000       0.45454545 </v>
   <v>       0.09090909       0.00000000       0.45454545 </v>
   <v>       0.18181818       0.00000000       0.45454545 </v>
   <v>       0.27272727       0.00000000       0.45454545 </v>
   <v>       0.36363636       0.00000000       0.45454545 </v>
   <v>       0.45454545       0.00000000       0.45454545 </v>
   <v>      -0.45454545       0.00000000       0.45454545 </v>
   <v>      -0.36363636       0.00000000       0.45454545 </v>
   <v>      -0.27272727       0.00000000       0.45454545 </v>
   <v>      -0.18181818       0.00000000       0.45454545 </v>
   <v>      -0.09090909       0.00000000       0.45454545 </v>
   <v>       0.09090909       0.09090909       0.45454545 </v>
   <v>       0.18181818       0.09090909       0.45454545 </v>
   <v>       0.27272727       0.09090909       0.45454545 </v>
   <v>       0.36363636       0.09090909       0.45454545 </v>
   <v>       0.45454545       0.09090909       0.45454545 </v>
   <v>      -0.45454545       0.09090909       0.45454545 </v>
   <v>      -0.36363636       0.09090909       0.45454545 </v>
   <v>      -0.27272727       0.09090909       0.45454545 </v>
   <v>      -0.18181818       0.09090909       0.45454545 </v>
   <v>      -0.09090909       0.09090909       0.45454545 </v>
   <v>       0.18181818       0.18181818       0.45454545 </v>
   <v>       0.27272727       0.18181818       0.45454545 </v>
   <v>       0.36363636       0.18181818       0.45454545 </v>
   <v>       0.45454545       0.18181818       0.45454545 </v>
   <v>      -0.45454545       0.18181818       0.45454545 </v>
   <v>      -0.36363636       0.18181818       0.45454545 </v>
   <v>      -0.27272727       0.18181818       0.45454545 </v>
   <v>      -0.18181818       0.18181818       0.45454545 </v>
   <v>      -0.09090909       0.18181818       0.45454545 </v>
   <v>       0.27272727       0.27272727       0.45454545 </v>
   <v>       0.36363636       0.27272727       0.45454545 </v>
   <v>       0.45454545       0.27272727       0.45454545 </v>
   <v>      -0.45454545       0.27272727       0.45454545 </v>
   <v>      -0.36363636       0.27272727       0.45454545 </v>
   <v>      -0.27272727       0.27272727       0.45454545 </v>
   <v>      -0.18181818       0.27272727       0.45454545 </v>
   <v>      -0.09090909       0.27272727       0.45454545 </v>
   <v>       0.36363636       0.36363636       0.45454545 </v>
   <v>       0.45454545       0.36363636       0.45454545 </v>
   <v>      -0.45454545       0.36363636       0.45454545 </v>
   <v>      -0.36363636       0.36363636       0.45454545 </v>
   <v>      -0.27272727       0.36363636       0.45454545 </v>
   <v>      -0.18181818       0.36363636       0.45454545 </v>
   <v>      -0.09090909       0.36363636       0.45454545 </v>
   <v>       0.45454545       0.45454545       0.45454545 </v>
   <v>      -0.45454545       0.45454545       0.45454545 </v>
   <v>      -0.36363636       0.45454545       0.45454545 </v>
   <v>      -0.27272727       0.45454545       0.45454545 </v>
   <v>      -0.18181818       0.45454545       0.45454545 </v>
   <v>      -0.09090909       0.45454545       0.45454545 </v>
   <v>      -0.45454545      -0.45454545       0.45454545 </v>
   <v>      -0.36363636      -0.45454545       0.45454545 </v>
   <v>      -0.27272727      -0.45454545       0.45454545 </v>
   <v>      -0.18181818      -0.45454545       0.45454545 </v>
   <v>      -0.09090909      -0.45454545       0.45454545 </v>
   <v>      -0.36363636      -0.36363636       0.45454545 </v>
   <v>      -0.27272727      -0.36363636       0.45454545 </v>
   <v>      -0.18181818      -0.36363636       0.45454545 </v>
   <v>      -0.09090909      -0.36363636       0.45454545 </v>
   <v>      -0.27272727      -0.27272727       0.45454545 </v>
   <v>      -0.18181818      -0.27272727       0.45454545 </v>
   <v>      -0.09090909      -0.27272727       0.45454545 </v>
   <v>      -0.18181818      -0.18181818       0.45454545 </v>
   <v>      -0.09090909      -0.18181818       0.45454545 </v>
   <v>      -0.09090909      -0.09090909       0.45454545 </v>
  </varray>
  <varray name="weights" >
   <v>       0.00075131 </v>
   <v>       0.00300526 </v>
   <v>       0.00300526 </v>
   <v>       0.00300526 </v>
   <v>       0.00300526 </v>
   <v>       0.00300526 </v>
   <v>       0.00150263 </v>
   <v>       0.00300526 </v>
   <v>       0.00300526 </v>
   <v>       0.00300526 </v>
   <v>       0.00300526 </v>
   <v>       0.00300526 </v>
   <v>       0.00300526 </v>
   <v>       0.00300526 </v>
   <v>       0.00300526 </v>
   <v>       0.00150263 </v>
   <v>       0.00150263 </v>
   <v>       0.00300526 </v>
   <v>       0.00300526 </v>
   <v>       0.00300526 </v>
   <v>       0.00300526 </v>
   <v>       0.00300526 </v>
   <v>       0.00300526 </v>
   <v>       0.00150263 </v>
   <v>       0.00150263 </v>
   <v>       0.00300526 </v>
   <v>       0.00300526 </v>
   <v>       0.00300526 </v>
   <v>       0.00300526 </v>
   <v>       0.00150263 </v>
   <v>       0.00150263 </v>
   <v>       0.00300526 </v>
   <v>       0.00300526 </v>
   <v>       0.00150263 </v>
   <v>       0.00150263 </v>
   <v>       0.00150263 </v>
   <v>       0.00150263 </v>
   <v>       0.00300526 </v>
   <v>       0.00300526 </v>
   <v>       0.00300526 </v>
   <v>       0.00300526 </v>
   <v>       0.00300526 </v>
   <v>       0.00300526 </v>
   <v>       0.00300526 </v>
   <v>       0.00300526 </v>
   <v>       0.00300526 </v>
   <v>       0.00300526 </v>
   <v>       0.00150263 </v>
   <v>       0.00300526 </v>
   <v>       0.00300526 </v>
   <v>       0.00300526 </v>
   <v>       0.00300526 </v>
   <v>       0.00300526 </v>
   <v>       0.00300526 </v>
   <v>       0.00300526 </v>
   <v>       0.00300526 </v>
   <v>       0.00300526 </v>
   <v>       0.00150263 </v>
   <v>       0.00300526 </v>
   <v>       0.00300526 </v>
   <v>       0.00300526 </v>
   <v>       0.00300526 </v>
   <v>       0.00300526 </v>
   <v>       0.00300526 </v>
   <v>       0.00300526 </v>
   <v>       0.00300526 </v>
   <v>       0.00150263 </v>
   <v>       0.00300526 </v>
   <v>       0.00300526 </v>
   <v>       0.00300526 </v>
   <v>       0.00300526 </v>
   <v>       0.00300526 </v>
   <v>       0.00300526 </v>
   <v>       0.00300526 </v>
   <v>       0.00150263 </v>
   <v>       0.00300526 </v>
   <v>       0.00300526 </v>
   <v>       0.00300526 </v>
   <v>       0.00300526 </v>
   <v>       0.00300526 </v>
   <v>       0.00300526 </v>
   <v>       0.00150263 </v>
   <v>       0.00300526 </v>
   <v>       0.00300526 </v>
   <v>       0.00300526 </v>
   <v>       0.00300526 </v>
   <v>       0.00300526 </v>
   <v>       0.00150263 </v>
   <v>       0.00300526 </v>
   <v>       0.00300526 </v>
   <v>       0.00300526 </v>
   <v>       0.00300526 </v>
   <v>       0.00150263 </v>
   <v>       0.00300526 </v>
   <v>       0.00300526 </v>
   <v>       0.00300526 </v>
   <v>       0.00150263 </v>
   <v>       0.00300526 </v>
   <v>       0.00300526 </v>
   <v>       0.00150263 </v>
   <v>       0.00300526 </v>
   <v>       0.00150263 </v>
   <v>       0.00150263 </v>
   <v>       0.00300526 </v>
   <v>       0.00300526 </v>
   <v>       0.00300526 </v>
   <v>       0.00300526 </v>
   <v>       0.00300526 </v>
   <v>       0.00300526 </v>
   <v>       0.00300526 </v>
   <v>       0.00300526 </v>
   <v>       0.00300526 </v>
   <v>       0.00300526 </v>
   <v>       0.00150263 </v>
   <v>       0.00300526 </v>
   <v>       0.00300526 </v>
   <v>       0.00300526 </v>
   <v>       0.00300526 </v>
   <v>       0.00300526 </v>
   <v>       0.00300526 </v>
   <v>       0.00300526 </v>
   <v>       0.00300526 </v>
   <v>       0.00300526 </v>
   <v>       0.00150263 </v>
   <v>       0.00300526 </v>
   <v>       0.00300526 </v>
   <v>       0.00300526 </v>
   <v>       0.00300526 </v>
   <v>       0.00300526 </v>
   <v>       0.00300526 </v>
   <v>       0.00300526 </v>
   <v>       0.00300526 </v>
   <v>       0.00150263 </v>
   <v>       0.00300526 </v>
   <v>       0.00300526 </v>
   <v>       0.00300526 </v>
   <v>       0.00300526 </v>
   <v>       0.00300526 </v>
   <v>       0.00300526 </v>
   <v>       0.00300526 </v>
   <v>       0.00150263 </v>
   <v>       0.00300526 </v>
   <v>       0.00300526 </v>
   <v>       0.00300526 </v>
   <v>       0.00300526 </v>
   <v>       0.00300526 </v>
   <v>       0.00300526 </v>
   <v>       0.00150263 </v>
   <v>       0.00300526 </v>
   <v>       0.00300526 </v>
   <v>       0.00300526 </v>
   <v>       0.00300526 </v>
   <v>       0.00300526 </v>
   <v>       0.00150263 </v>
   <v>       0.00300526 </v>
   <v>       0.00300526 </v>
   <v>       0.00300526 </v>
   <v>       0.00300526 </v>
   <v>       0.00150263 </v>
   <v>       0.00300526 </v>
   <v>       0.00300526 </v>
   <v>       0.00300526 </v>
   <v>       0.00150263 </v>
   <v>       0.00300526 </v>
   <v>       0.00300526 </v>
   <v>       0.00150263 </v>
   <v>       0.00300526 </v>
   <v>       0.00150263 </v>
   <v>       0.00150263 </v>
   <v>       0.00300526 </v>
   <v>       0.00300526 </v>
   <v>       0.00300526 </v>
   <v>       0.00300526 </v>
   <v>       0.00300526 </v>
   <v>       0.00300526 </v>
   <v>       0.00300526 </v>
   <v>       0.00300526 </v>
   <v>       0.00300526 </v>
   <v>       0.00300526 </v>
   <v>       0.00150263 </v>
   <v>       0.00300526 </v>
   <v>       0.00300526 </v>
   <v>       0.00300526 </v>
   <v>       0.00300526 </v>
   <v>       0.00300526 </v>
   <v>       0.00300526 </v>
   <v>       0.00300526 </v>
   <v>       0.00300526 </v>
   <v>       0.00300526 </v>
   <v>       0.00150263 </v>
   <v>       0.00300526 </v>
   <v>       0.00300526 </v>
   <v>       0.00300526 </v>
   <v>       0.00300526 </v>
   <v>       0.00300526 </v>
   <v>       0.00300526 </v>
   <v>       0.00300526 </v>
   <v>       0.00300526 </v>
   <v>       0.00150263 </v>
   <v>       0.00300526 </v>
   <v>       0.00300526 </v>
   <v>       0.00300526 </v>
   <v>       0.00300526 </v>
   <v>       0.00300526 </v>
   <v>       0.00300526 </v>
   <v>       0.00300526 </v>
   <v>       0.00150263 </v>
   <v>       0.00300526 </v>
   <v>       0.00300526 </v>
   <v>       0.00300526 </v>
   <v>       0.00300526 </v>
   <v>       0.00300526 </v>
   <v>       0.00300526 </v>
   <v>       0.00150263 </v>
   <v>       0.00300526 </v>
   <v>       0.00300526 </v>
   <v>       0.00300526 </v>
   <v>       0.00300526 </v>
   <v>       0.00300526 </v>
   <v>       0.00150263 </v>
   <v>       0.00300526 </v>
   <v>       0.00300526 </v>
   <v>       0.00300526 </v>
   <v>       0.00300526 </v>
   <v>       0.00150263 </v>
   <v>       0.00300526 </v>
   <v>       0.00300526 </v>
   <v>       0.00300526 </v>
   <v>       0.00150263 </v>
   <v>       0.00300526 </v>
   <v>       0.00300526 </v>
   <v>       0.00150263 </v>
   <v>       0.00300526 </v>
   <v>       0.00150263 </v>
   <v>       0.00150263 </v>
   <v>       0.00300526 </v>
   <v>       0.00300526 </v>
   <v>       0.00300526 </v>
   <v>       0.00300526 </v>
   <v>       0.00300526 </v>
   <v>       0.00300526 </v>
   <v>       0.00300526 </v>
   <v>       0.00300526 </v>
   <v>       0.00300526 </v>
   <v>       0.00300526 </v>
   <v>       0.00150263 </v>
   <v>       0.00300526 </v>
   <v>       0.00300526 </v>
   <v>       0.00300526 </v>
   <v>       0.00300526 </v>
   <v>       0.00300526 </v>
   <v>       0.00300526 </v>
   <v>       0.00300526 </v>
   <v>       0.00300526 </v>
   <v>       0.00300526 </v>
   <v>       0.00150263 </v>
   <v>       0.00300526 </v>
   <v>       0.00300526 </v>
   <v>       0.00300526 </v>
   <v>       0.00300526 </v>
   <v>       0.00300526 </v>
   <v>       0.00300526 </v>
   <v>       0.00300526 </v>
   <v>       0.00300526 </v>
   <v>       0.00150263 </v>
   <v>       0.00300526 </v>
   <v>       0.00300526 </v>
   <v>       0.00300526 </v>
   <v>       0.00300526 </v>
   <v>       0.00300526 </v>
   <v>       0.00300526 </v>
   <v>       0.00300526 </v>
   <v>       0.00150263 </v>
   <v>       0.00300526 </v>
   <v>       0.00300526 </v>
   <v>       0.00300526 </v>
   <v>       0.00300526 </v>
   <v>       0.00300526 </v>
   <v>       0.00300526 </v>
   <v>       0.00150263 </v>
   <v>       0.00300526 </v>
   <v>       0.00300526 </v>
   <v>       0.00300526 </v>
   <v>       0.00300526 </v>
   <v>       0.00300526 </v>
   <v>       0.00150263 </v>
   <v>       0.00300526 </v>
   <v>       0.00300526 </v>
   <v>       0.00300526 </v>
   <v>       0.00300526 </v>
   <v>       0.00150263 </v>
   <v>       0.00300526 </v>
   <v>       0.00300526 </v>
   <v>       0.00300526 </v>
   <v>       0.00150263 </v>
   <v>       0.00300526 </v>
   <v>       0.00300526 </v>
   <v>       0.00150263 </v>
   <v>       0.00300526 </v>
   <v>       0.00150263 </v>
   <v>       0.00150263 </v>
   <v>       0.00300526 </v>
   <v>       0.00300526 </v>
   <v>       0.00300526 </v>
   <v>       0.00300526 </v>
   <v>       0.00300526 </v>
   <v>       0.00300526 </v>
   <v>       0.00300526 </v>
   <v>       0.00300526 </v>
   <v>       0.00300526 </v>
   <v>       0.00300526 </v>
   <v>       0.00150263 </v>
   <v>       0.00300526 </v>
   <v>       0.00300526 </v>
   <v>       0.00300526 </v>
   <v>       0.00300526 </v>
   <v>       0.00300526 </v>
   <v>       0.00300526 </v>
   <v>       0.00300526 </v>
   <v>       0.00300526 </v>
   <v>       0.00300526 </v>
   <v>       0.00150263 </v>
   <v>       0.00300526 </v>
   <v>       0.00300526 </v>
   <v>       0.00300526 </v>
   <v>       0.00300526 </v>
   <v>       0.00300526 </v>
   <v>       0.00300526 </v>
   <v>       0.00300526 </v>
   <v>       0.00300526 </v>
   <v>       0.00150263 </v>
   <v>       0.00300526 </v>
   <v>       0.00300526 </v>
   <v>       0.00300526 </v>
   <v>       0.00300526 </v>
   <v>       0.00300526 </v>
   <v>       0.00300526 </v>
   <v>       0.00300526 </v>
   <v>       0.00150263 </v>
   <v>       0.00300526 </v>
   <v>       0.00300526 </v>
   <v>       0.00300526 </v>
   <v>       0.00300526 </v>
   <v>       0.00300526 </v>
   <v>       0.00300526 </v>
   <v>       0.00150263 </v>
   <v>       0.00300526 </v>
   <v>       0.00300526 </v>
   <v>       0.00300526 </v>
   <v>       0.00300526 </v>
   <v>       0.00300526 </v>
   <v>       0.00150263 </v>
   <v>       0.00300526 </v>
   <v>       0.00300526 </v>
   <v>       0.00300526 </v>
   <v>       0.00300526 </v>
   <v>       0.00150263 </v>
   <v>       0.00300526 </v>
   <v>       0.00300526 </v>
   <v>       0.00300526 </v>
   <v>       0.00150263 </v>
   <v>       0.00300526 </v>
   <v>       0.00300526 </v>
   <v>       0.00150263 </v>
   <v>       0.00300526 </v>
   <v>       0.00150263 </v>
  </varray>
 </kpoints>
 <parameters>
  <separator name="general" >
   <i type="string" name="SYSTEM">perturbed cd Si</i>
   <i type="logical" name="LCOMPAT"> F  </i>
  </separator>
  <separator name="electronic" >
   <i type="string" name="PREC">normal</i>
   <i name="ENMAX">    360.00000000</i>
   <i name="ENAUG">    322.06900000</i>
   <i name="EDIFF">      0.00000100</i>
   <i type="int" name="IALGO">    38</i>
   <i type="int" name="IWAVPR">    11</i>
   <i type="int" name="NBANDS">    16</i>
   <i name="NELECT">      8.00000000</i>
   <i type="int" name="TURBO">     0</i>
   <i type="int" name="IRESTART">     0</i>
   <i type="int" name="NREBOOT">     0</i>
   <i type="int" name="NMIN">     0</i>
   <i name="EREF">      0.00000000</i>
   <separator name="electronic smearing" >
    <i type="int" name="ISMEAR">     0</i>
    <i name="SIGMA">      0.10000000</i>
    <i name="KSPACING">      0.50000000</i>
    <i type="logical" name="KGAMMA"> T  </i>
   </separator>
   <separator name="electronic projectors" >
    <i type="logical" name="LREAL"> F  </i>
    <v name="ROPT">      0.00000000</v>
    <i type="int" name="LMAXPAW">  -100</i>
    <i type="int" name="LMAXMIX">     2</i>
    <i type="logical" name="NLSPLINE"> F  </i>
   </separator>
   <separator name="electronic startup" >
    <i type="int" name="ISTART">     0</i>
    <i type="int" name="ICHARG">     2</i>
    <i type="int" name="INIWAV">     1</i>
   </separator>
   <separator name="electronic spin" >
    <i type="int" name="ISPIN">     1</i>
    <i type="logical" name="LNONCOLLINEAR"> F  </i>
    <v name="MAGMOM">      1.00000000      1.00000000</v>
    <i name="NUPDOWN">     -1.00000000</i>
    <i type="logical" name="LSORBIT"> F  </i>
    <v name="SAXIS">      0.00000000      0.00000000      1.00000000</v>
    <i type="logical" name="LSPIRAL"> F  </i>
    <v name="QSPIRAL">      0.00000000      0.00000000      0.00000000</v>
    <i type="logical" name="LZEROZ"> F  </i>
   </separator>
   <separator name="electronic exchange-correlation" >
    <i type="logical" name="LASPH"> F  </i>
    <i type="logical" name="LMETAGGA"> F  </i>
   </separator>
   <separator name="electronic convergence" >
    <i type="int" name="NELM">    60</i>
    <i type="int" name="NELMDL">    -5</i>
    <i type="int" name="NELMIN">     2</i>
    <i name="ENINI">    360.00000000</i>
    <separator name="electronic convergence detail" >
     <i type="logical" name="LDIAG"> T  </i>
     <i type="logical" name="LSUBROT"> F  </i>
     <i name="WEIMIN">      0.00100000</i>
     <i name="EBREAK">      0.00000002</i>
     <i name="DEPER">      0.30000000</i>
     <i type="int" name="NRMM">     4</i>
     <i name="TIME">      0.40000000</i>
    </separator>
   </separator>
   <separator name="electronic mixer" >
    <i name="AMIX">      0.40000000</i>
    <i name="BMIX">      1.00000000</i>
    <i name="AMIN">      0.10000000</i>
    <i name="AMIX_MAG">      1.60000000</i>
    <i name="BMIX_MAG">      1.00000000</i>
    <separator name="electronic mixer details" >
     <i type="int" name="IMIX">     4</i>
     <i type="logical" name="MIXFIRST"> F  </i>
     <i type="int" name="MAXMIX">   -45</i>
     <i name="WC">    100.00000000</i>
     <i type="int" name="INIMIX">     1</i>
     <i type="int" name="MIXPRE">     1</i>
     <i type="int" name="MREMOVE">     5</i>
    </separator>
   </separator>
   <separator name="electronic dipolcorrection" >
    <i type="logical" name="LDIPOL"> F  </i>
    <i type="logical" name="LMONO"> F  </i>
    <i type="int" name="IDIPOL">     0</i>
    <i name="EPSILON">      1.00000000</i>
    <v name="DIPOL">   -100.00000000   -100.00000000   -100.00000000</v>
    <i name="EFIELD">      0.00000000</i>
   </separator>
  </separator>
  <separator name="grids" >
   <i type="int" name="NGX">    18</i>
   <i type="int" name="NGY">    18</i>
   <i type="int" name="NGZ">    18</i>
   <i type="int" name="NGXF">    36</i>
   <i type="int" name="NGYF">    36</i>
   <i type="int" name="NGZF">    36</i>
   <i type="logical" name="ADDGRID"> F  </i>
  </separator>
  <separator name="ionic" >
   <i type="int" name="NSW">    10</i>
   <i type="int" name="IBRION">     2</i>
   <i type="int" name="MDALGO">     0</i>
   <i type="int" name="ISIF">     2</i>
   <i name="PSTRESS">      0.00000000</i>
   <i name="EDIFFG">     -0.00010000</i>
   <i type="int" name="NFREE">     1</i>
   <i name="POTIM">      0.50000000</i>
   <i name="SMASS">     -3.00000000</i>
   <i name="SCALEE">      1.00000000</i>
  </separator>
  <separator name="ionic md" >
   <i name="TEBEG">      0.00010000</i>
   <i name="TEEND">      0.00010000</i>
   <i type="int" name="NBLOCK">     1</i>
   <i type="int" name="KBLOCK">    10</i>
   <i type="int" name="NPACO">   256</i>
   <i name="APACO">     16.00000000</i>
  </separator>
  <separator name="symmetry" >
   <i type="int" name="ISYM">     2</i>
   <i name="SYMPREC">      0.00001000</i>
  </separator>
  <separator name="dos" >
   <i type="int" name="LORBIT">     0</i>
   <v name="RWIGS">     -1.00000000</v>
   <i type="int" name="NEDOS">   301</i>
   <i name="EMIN">     10.00000000</i>
   <i name="EMAX">    -10.00000000</i>
   <i name="EFERMI">      0.00000000</i>
  </separator>
  <separator name="writing" >
   <i type="int" name="NWRITE">     2</i>
   <i type="logical" name="LWAVE"> T  </i>
   <i type="logical" name="LDOWNSAMPLE"> F  </i>
   <i type="logical" name="LCHARG"> T  </i>
   <i type="logical" name="LPARD"> F  </i>
   <i type="logical" name="LVTOT"> F  </i>
   <i type="logical" name="LVHAR"> F  </i>
   <i type="logical" name="LELF"> F  </i>
   <i type="logical" name="LOPTICS"> F  </i>
   <v name="STM">      0.00000000      0.00000000      0.00000000      0.00000000      0.00000000      0.00000000      0.00000000</v>
  </separator>
  <separator name="performance" >
   <i type="int" name="NPAR">    16</i>
   <i type="int" name="NSIM">     4</i>
   <i type="int" name="NBLK">    -1</i>
   <i type="logical" name="LPLANE"> T  </i>
   <i type="logical" name="LSCALAPACK"> T  </i>
   <i type="logical" name="LSCAAWARE"> F  </i>
   <i type="logical" name="LSCALU"> F  </i>
   <i type="logical" name="LASYNC"> F  </i>
   <i type="logical" name="LORBITALREAL"> F  </i>
  </separator>
  <separator name="miscellaneous" >
   <i type="int" name="IDIOT">     3</i>
   <i type="int" name="ISPECIAL">     0</i>
   <i type="logical" name="LMUSIC"> F  </i>
   <v name="POMASS">     28.08500000</v>
   <v name="DARWINR">      0.00000000</v>
   <v name="DARWINV">      1.00000000</v>
   <i type="logical" name="LCORR"> T  </i>
  </separator>
  <i type="logical" name="GGA_COMPAT"> T  </i>
  <i type="logical" name="LBERRY"> F  </i>
  <i type="int" name="ICORELEVEL">     0</i>
  <i type="logical" name="LDAU"> F  </i>
  <i type="int" name="I_CONSTRAINED_M">     0</i>
  <separator name="electronic exchange-correlation" >
   <i type="string" name="GGA">--</i>
   <i type="int" name="VOSKOWN">     0</i>
   <i type="logical" name="LHFCALC"> F  </i>
   <i type="string" name="PRECFOCK"></i>
   <i type="logical" name="LSYMGRAD"> F  </i>
   <i type="logical" name="LHFONE"> F  </i>
   <i type="logical" name="LRHFCALC"> F  </i>
   <i type="logical" name="LTHOMAS"> F  </i>
   <i type="logical" name="LMODELHF"> F  </i>
   <i name="ENCUT4O">     -1.00000000</i>
   <i type="int" name="EXXOEP">     0</i>
   <i type="int" name="FOURORBIT">     0</i>
   <i name="AEXX">      0.00000000</i>
   <i name="HFALPHA">      0.00000000</i>
   <i name="MCALPHA">      0.00000000</i>
   <i name="ALDAX">      1.00000000</i>
   <i name="AGGAX">      1.00000000</i>
   <i name="ALDAC">      1.00000000</i>
   <i name="AGGAC">      1.00000000</i>
   <i type="int" name="NKREDX">     1</i>
   <i type="int" name="NKREDY">     1</i>
   <i type="int" name="NKREDZ">     1</i>
   <i type="logical" name="SHIFTRED"> F  </i>
   <i type="logical" name="ODDONLY"> F  </i>
   <i type="logical" name="EVENONLY"> F  </i>
   <i type="int" name="LMAXFOCK">     0</i>
   <i type="int" name="NMAXFOCKAE">     0</i>
   <i type="logical" name="LFOCKAEDFT"> F  </i>
   <i name="HFSCREEN">      0.00000000</i>
   <i name="HFSCREENC">      0.00000000</i>
   <i type="int" name="NBANDSGWLOW">     0</i>
  </separator>
  <separator name="vdW DFT" >
   <i type="logical" name="LUSE_VDW"> F  </i>
   <i name="Zab_VDW">     -0.84910000</i>
   <i name="PARAM1">      0.12340000</i>
   <i name="PARAM2">      1.00000000</i>
   <i name="PARAM3">      0.00000000</i>
  </separator>
  <separator name="model GW" >
   <i type="int" name="MODEL_GW">     0</i>
   <i name="MODEL_EPS0">     12.47812500</i>
   <i name="MODEL_ALPHA">      1.00000000</i>
  </separator>
  <separator name="linear response parameters" >
   <i type="logical" name="LEPSILON"> F  </i>
   <i type="logical" name="LRPA"> F  </i>
   <i type="logical" name="LNABLA"> F  </i>
   <i type="logical" name="LVEL"> F  </i>
   <i type="int" name="KINTER">     0</i>
   <i name="CSHIFT">      0.10000000</i>
   <i name="OMEGAMAX">     -1.00000000</i>
   <i name="DEG_THRESHOLD">      0.00200000</i>
   <i name="RTIME">     -0.10000000</i>
   <i name="WPLASMAI">      0.00000000</i>
   <v name="DFIELD">      0.00000000      0.00000000      0.00000000</v>
   <v name="WPLASMA">      0.00000000      0.00000000      0.00000000      0.00000000      0.00000000      0.00000000      0.00000000      0.00000000      0.00000000</v>
  </separator>
  <separator name="orbital magnetization" >
   <i type="logical" name="NUCIND"> F  </i>
   <v name="MAGPOS">      0.00000000      0.00000000      0.00000000</v>
   <i type="logical" name="LNICSALL"> T  </i>
   <i type="logical" name="ORBITALMAG"> F  </i>
   <i type="logical" name="LMAGBLOCH"> F  </i>
   <i type="logical" name="LCHIMAG"> F  </i>
   <i type="logical" name="LGAUGE"> T  </i>
   <i type="int" name="MAGATOM">     0</i>
   <v name="MAGDIPOL">      0.00000000      0.00000000      0.00000000</v>
   <v name="AVECCONST">      0.00000000      0.00000000      0.00000000</v>
  </separator>
  <separator name="response functions" >
   <i type="logical" name="LADDER"> F  </i>
   <i type="logical" name="LRPAFORCE"> F  </i>
   <i type="logical" name="LFXC"> F  </i>
   <i type="logical" name="LHARTREE"> T  </i>
   <i type="int" name="IBSE">     0</i>
   <v type="int" name="KPOINT">    -1     0     0     0</v>
   <i type="logical" name="LTCTE"> F  </i>
   <i type="logical" name="LTETE"> F  </i>
   <i type="logical" name="LTRIPLET"> F  </i>
   <i type="logical" name="LFXCEPS"> F  </i>
   <i type="logical" name="LFXHEG"> F  </i>
   <i type="int" name="NATURALO">     2</i>
   <i type="logical" name="L2ORDER"> F  </i>
   <i type="logical" name="LMP2LT"> F  </i>
   <i type="logical" name="LUSEW"> F  </i>
   <i name="ENCUTGW">     -2.00000000</i>
   <i name="ENCUTGWSOFT">     -2.00000000</i>
   <i name="ENCUTLF">     -1.00000000</i>
   <i type="int" name="LMAXMP2">    -1</i>
   <i name="SCISSOR">      0.00000000</i>
   <i type="int" name="NOMEGA">     0</i>
   <i type="int" name="NOMEGAR">     0</i>
   <i type="int" name="NBANDSGW">    -1</i>
   <i type="int" name="NBANDSO">    -1</i>
   <i type="int" name="NBANDSV">    -1</i>
   <i type="int" name="NELM">     1</i>
   <i type="int" name="NELMHF">     1</i>
   <i type="int" name="DIM">     3</i>
   <i type="int" name="ANTIRES">     0</i>
   <i name="OMEGAMAX">    -30.00000000</i>
   <i name="OMEGAMIN">    -30.00000000</i>
   <i name="OMEGATL">   -200.00000000</i>
   <i type="int" name="OMEGAGRID">   140</i>
   <i name="CSHIFT">     -0.10000000</i>
   <i type="logical" name="SELFENERGY"> F  </i>
   <i type="logical" name="LSPECTRAL"> F  </i>
   <i type="logical" name="LSPECTRALGW"> F  </i>
   <i type="logical" name="LSINGLES"> F  </i>
   <i type="logical" name="LFERMIGW"> F  </i>
   <i type="logical" name="ODDONLYGW"> F  </i>
   <i type="logical" name="EVENONLYGW"> F  </i>
   <i type="int" name="NKREDLFX">     1</i>
   <i type="int" name="NKREDLFY">     1</i>
   <i type="int" name="NKREDLFZ">     1</i>
   <i type="int" name="MAXMEM">  2800</i>
   <i type="int" name="TELESCOPE">     0</i>
   <i type="int" name="TAUPAR">     1</i>
   <i type="int" name="OMEGAPAR">    -1</i>
   <i name="LAMBDA">      1.00000000</i>
  </separator>
  <separator name="External order field" >
   <i name="OFIELD_KAPPA">      0.00000000</i>
   <v name="OFIELD_K">      0.00000000      0.00000000      0.00000000</v>
   <i name="OFIELD_Q6_NEAR">      0.00000000</i>
   <i name="OFIELD_Q6_FAR">      0.00000000</i>
   <i name="OFIELD_A">      0.00000000</i>
  </separator>
 </parameters>
 <atominfo>
  <atoms>       2 </atoms>
  <types>       1 </types>
  <array name="atoms" >
   <dimension dim="1">ion</dimension>
   <field type="string">element</field>
   <field type="int">atomtype</field>
   <set>
    <rc><c>Si</c><c>   1</c></rc>
    <rc><c>Si</c><c>   1</c></rc>
   </set>
  </array>
  <array name="atomtypes" >
   <dimension dim="1">type</dimension>
   <field type="int">atomspertype</field>
   <field type="string">element</field>
   <field>mass</field>
   <field>valence</field>
   <field type="string">pseudopotential</field>
   <set>
    <rc><c>   2</c><c>Si</c><c>     28.08500000</c><c>      4.00000000</c><c> PAW_PBE Si 05Jan2001                   </c></rc>
   </set>
  </array>
 </atominfo>
 <structure name="initialpos" >
  <crystal>
   <varray name="basis" >
    <v>       0.00000000       2.75000000       2.75000000 </v>
    <v>       2.75000000       0.00000000       2.75000000 </v>
    <v>       2.75000000       2.75000000       0.00000000 </v>
   </varray>
   <i name="volume">     41.59375000 </i>
   <varray name="rec_basis" >
    <v>      -0.18181818       0.18181818       0.18181818 </v>
    <v>       0.18181818      -0.18181818       0.18181818 </v>
    <v>       0.18181818       0.18181818      -0.18181818 </v>
   </varray>
  </crystal>
  <varray name="positions" >
   <v>       0.87500000       0.87500000       0.87500000 </v>
   <v>       0.12500000       0.12500000       0.13000000 </v>
  </varray>
 </structure>
 <calculation>
  <scstep>
   <time name="dav">    0.97    0.97</time>
   <time name="total">    0.98    0.98</time>
   <energy>
    <i name="alphaZ">      3.23732084 </i>
    <i name="ewald">   -225.65014771 </i>
    <i name="hartreedc">    -11.58626601 </i>
    <i name="XCdc">    -18.75116222 </i>
    <i name="pawpsdc">     65.95520812 </i>
    <i name="pawaedc">    -30.76852678 </i>
    <i name="eentropy">     -0.00117862 </i>
    <i name="bandstr">      7.14450663 </i>
    <i name="atom">    206.13132471 </i>
    <i name="e_fr_energy">     -4.28892106 </i>
    <i name="e_wo_entrp">     -4.28774244 </i>
    <i name="e_0_energy">     -4.28833175 </i>
   </energy>
  </scstep>
  <scstep>
   <time name="dav">    1.54    1.55</time>
   <time name="total">    1.55    1.55</time>
   <energy>
    <i name="e_fr_energy">    -10.96330190 </i>
    <i name="e_wo_entrp">    -10.96330190 </i>
    <i name="e_0_energy">    -10.96330190 </i>
   </energy>
  </scstep>
  <scstep>
   <time name="dav">    1.05    1.05</time>
   <time name="total">    1.06    1.06</time>
   <energy>
    <i name="e_fr_energy">    -11.00108955 </i>
    <i name="e_wo_entrp">    -11.00108955 </i>
    <i name="e_0_energy">    -11.00108955 </i>
   </energy>
  </scstep>
  <scstep>
   <time name="dav">    2.24    2.24</time>
   <time name="total">    2.24    2.24</time>
   <energy>
    <i name="e_fr_energy">    -11.00118513 </i>
    <i name="e_wo_entrp">    -11.00118513 </i>
    <i name="e_0_energy">    -11.00118513 </i>
   </energy>
  </scstep>
  <scstep>
   <time name="dav">    1.02    1.02</time>
   <time name="total">    1.06    1.06</time>
   <energy>
    <i name="e_fr_energy">    -11.00118513 </i>
    <i name="e_wo_entrp">    -11.00118513 </i>
    <i name="e_0_energy">    -11.00118513 </i>
   </energy>
  </scstep>
  <scstep>
   <time name="dav">    1.41    1.41</time>
   <time name="total">    1.44    1.44</time>
   <energy>
    <i name="e_fr_energy">    -10.89222142 </i>
    <i name="e_wo_entrp">    -10.89222142 </i>
    <i name="e_0_energy">    -10.89222142 </i>
   </energy>
  </scstep>
  <scstep>
   <time name="dav">    1.61    1.61</time>
   <time name="total">    1.65    1.65</time>
   <energy>
    <i name="e_fr_energy">    -10.84102773 </i>
    <i name="e_wo_entrp">    -10.84102761 </i>
    <i name="e_0_energy">    -10.84102767 </i>
   </energy>
  </scstep>
  <scstep>
   <time name="dav">    1.23    1.23</time>
   <time name="total">    1.26    1.26</time>
   <energy>
    <i name="e_fr_energy">    -10.84231600 </i>
    <i name="e_wo_entrp">    -10.84231594 </i>
    <i name="e_0_energy">    -10.84231597 </i>
   </energy>
  </scstep>
  <scstep>
   <time name="dav">    2.03    2.03</time>
   <time name="total">    2.07    2.07</time>
   <energy>
    <i name="e_fr_energy">    -10.84241800 </i>
    <i name="e_wo_entrp">    -10.84241794 </i>
    <i name="e_0_energy">    -10.84241797 </i>
   </energy>
  </scstep>
  <scstep>
   <time name="dav">    1.32    1.32</time>
   <time name="total">    1.36    1.36</time>
   <energy>
    <i name="e_fr_energy">    -10.84243502 </i>
    <i name="e_wo_entrp">    -10.84243497 </i>
    <i name="e_0_energy">    -10.84243499 </i>
   </energy>
  </scstep>
  <scstep>
   <time name="dav">    1.88    1.88</time>
   <time name="total">    1.88    1.88</time>
   <energy>
    <i name="alphaZ">      3.23732084 </i>
    <i name="ewald">   -225.65014771 </i>
    <i name="hartreedc">    -15.37751438 </i>
    <i name="XCdc">    -18.13605330 </i>
    <i name="pawpsdc">     73.12994002 </i>
    <i name="pawaedc">    -38.13499745 </i>
    <i name="eentropy">     -0.00000006 </i>
    <i name="bandstr">      3.95769311 </i>
    <i name="atom">    206.13132471 </i>
    <i name="e_fr_energy">    -10.84243423 </i>
    <i name="e_wo_entrp">    -10.84243417 </i>
    <i name="e_0_energy">    -10.84243420 </i>
   </energy>
  </scstep>
  <structure>
   <crystal>
    <varray name="basis" >
     <v>       0.00000000       2.75000000       2.75000000 </v>
     <v>       2.75000000       0.00000000       2.75000000 </v>
     <v>       2.75000000       2.75000000       0.00000000 </v>
    </varray>
    <i name="volume">     41.59375000 </i>
    <varray name="rec_basis" >
     <v>      -0.18181818       0.18181818       0.18181818 </v>
     <v>       0.18181818      -0.18181818       0.18181818 </v>
     <v>       0.18181818       0.18181818      -0.18181818 </v>
    </varray>
   </crystal>
   <varray name="positions" >
    <v>       0.87500000       0.87500000       0.87500000 </v>
    <v>       0.12500000       0.12500000       0.13000000 </v>
   </varray>
  </structure>
  <varray name="forces" >
   <v>       0.17336476       0.17336476      -0.00604950 </v>
   <v>      -0.17336476      -0.17336476       0.00604950 </v>
  </varray>
  <varray name="stress" >
   <v>     -14.94418183       0.14107224      -4.41868946 </v>
   <v>       0.14107224     -14.94418183      -4.41868946 </v>
   <v>      -4.41868943      -4.41868943     -14.83656055 </v>
  </varray>
  <energy>
   <i name="e_fr_energy">    -10.84243423 </i>
   <i name="e_wo_entrp">    -10.84243420 </i>
   <i name="e_0_energy">     -0.00000006 </i>
  </energy>
  <time name="totalsc">   17.53   17.56</time>
 </calculation>
 <calculation>
  <scstep>
   <time name="dav">    1.03    1.03</time>
   <time name="total">    1.07    1.07</time>
   <energy>
    <i name="alphaZ">      3.23732084 </i>
    <i name="ewald">   -225.65432540 </i>
    <i name="hartreedc">    -15.37704575 </i>
    <i name="XCdc">    -18.13603937 </i>
    <i name="pawpsdc">     73.13051352 </i>
    <i name="pawaedc">    -38.13555608 </i>
    <i name="eentropy">     -0.00000001 </i>
    <i name="bandstr">      3.95931029 </i>
    <i name="atom">    206.13132471 </i>
    <i name="e_fr_energy">    -10.84449725 </i>
    <i name="e_wo_entrp">    -10.84449724 </i>
    <i name="e_0_energy">    -10.84449724 </i>
   </energy>
  </scstep>
  <scstep>
   <time name="dav">    2.04    2.04</time>
   <time name="total">    2.08    2.08</time>
   <energy>
    <i name="e_fr_energy">    -10.84470219 </i>
    <i name="e_wo_entrp">    -10.84470219 </i>
    <i name="e_0_energy">    -10.84470219 </i>
   </energy>
  </scstep>
  <scstep>
   <time name="dav">    1.15    1.15</time>
   <time name="total">    1.19    1.19</time>
   <energy>
    <i name="e_fr_energy">    -10.84470384 </i>
    <i name="e_wo_entrp">    -10.84470383 </i>
    <i name="e_0_energy">    -10.84470383 </i>
   </energy>
  </scstep>
  <scstep>
   <time name="dav">    1.91    1.91</time>
   <time name="total">    1.91    1.91</time>
   <energy>
    <i name="alphaZ">      3.23732084 </i>
    <i name="ewald">   -225.65432540 </i>
    <i name="hartreedc">    -15.37747849 </i>
    <i name="XCdc">    -18.13604414 </i>
    <i name="pawpsdc">     73.12730874 </i>
    <i name="pawaedc">    -38.13225633 </i>
    <i name="eentropy">     -0.00000001 </i>
    <i name="bandstr">      3.95944581 </i>
    <i name="atom">    206.13132471 </i>
    <i name="e_fr_energy">    -10.84470428 </i>
    <i name="e_wo_entrp">    -10.84470427 </i>
    <i name="e_0_energy">    -10.84470427 </i>
   </energy>
  </scstep>
  <structure>
   <crystal>
    <varray name="basis" >
     <v>       0.00000000       2.75000000       2.75000000 </v>
     <v>       2.75000000       0.00000000       2.75000000 </v>
     <v>       2.75000000       2.75000000       0.00000000 </v>
    </varray>
    <i name="volume">     41.59375000 </i>
    <varray name="rec_basis" >
     <v>      -0.18181818       0.18181818       0.18181818 </v>
     <v>       0.18181818      -0.18181818       0.18181818 </v>
     <v>       0.18181818       0.18181818      -0.18181818 </v>
    </varray>
   </crystal>
   <varray name="positions" >
    <v>       0.87494694       0.87494694       0.87809436 </v>
    <v>       0.12505306       0.12505306       0.12690564 </v>
   </varray>
  </structure>
  <varray name="forces" >
   <v>      -0.03747696      -0.03747696       0.00707768 </v>
   <v>       0.03747696       0.03747696      -0.00707768 </v>
  </varray>
  <varray name="stress" >
   <v>     -15.03635378      -0.18701604       1.06219565 </v>
   <v>      -0.18701604     -15.03635378       1.06219565 </v>
   <v>       1.06219565       1.06219565     -15.02964778 </v>
  </varray>
  <energy>
   <i name="e_fr_energy">    -10.84470428 </i>
   <i name="e_wo_entrp">    -10.84470427 </i>
   <i name="e_0_energy">     -0.00000001 </i>
  </energy>
  <time name="totalsc">    7.10    7.13</time>
 </calculation>
 <calculation>
  <scstep>
   <time name="dav">    1.01    1.01</time>
   <time name="total">    1.05    1.05</time>
   <energy>
    <i name="alphaZ">      3.23732084 </i>
    <i name="ewald">   -225.65453194 </i>
    <i name="hartreedc">    -15.37738907 </i>
    <i name="XCdc">    -18.13604996 </i>
    <i name="pawpsdc">     73.12711544 </i>
    <i name="pawaedc">    -38.13205672 </i>
    <i name="eentropy">     -0.00000001 </i>
    <i name="bandstr">      3.95945659 </i>
    <i name="atom">    206.13132471 </i>
    <i name="e_fr_energy">    -10.84481013 </i>
    <i name="e_wo_entrp">    -10.84481012 </i>
    <i name="e_0_energy">    -10.84481012 </i>
   </energy>
  </scstep>
  <scstep>
   <time name="dav">    2.04    2.04</time>
   <time name="total">    2.08    2.08</time>
   <energy>
    <i name="e_fr_energy">    -10.84481643 </i>
    <i name="e_wo_entrp">    -10.84481642 </i>
    <i name="e_0_energy">    -10.84481642 </i>
   </energy>
  </scstep>
  <scstep>
   <time name="dav">    1.14    1.14</time>
   <time name="total">    1.15    1.15</time>
   <energy>
    <i name="alphaZ">      3.23732084 </i>
    <i name="ewald">   -225.65453194 </i>
    <i name="hartreedc">    -15.37739829 </i>
    <i name="XCdc">    -18.13605113 </i>
    <i name="pawpsdc">     73.12697780 </i>
    <i name="pawaedc">    -38.13191519 </i>
    <i name="eentropy">     -0.00000001 </i>
    <i name="bandstr">      3.95945678 </i>
    <i name="atom">    206.13132471 </i>
    <i name="e_fr_energy">    -10.84481643 </i>
    <i name="e_wo_entrp">    -10.84481643 </i>
    <i name="e_0_energy">    -10.84481643 </i>
   </energy>
  </scstep>
  <structure>
   <crystal>
    <varray name="basis" >
     <v>       0.00000000       2.75000000       2.75000000 </v>
     <v>       2.75000000       0.00000000       2.75000000 </v>
     <v>       2.75000000       2.75000000       0.00000000 </v>
    </varray>
    <i name="volume">     41.59375000 </i>
    <varray name="rec_basis" >
     <v>      -0.18181818       0.18181818       0.18181818 </v>
     <v>       0.18181818      -0.18181818       0.18181818 </v>
     <v>       0.18181818       0.18181818      -0.18181818 </v>
    </varray>
   </crystal>
   <varray name="positions" >
    <v>       0.87495639       0.87495639       0.87754313 </v>
    <v>       0.12504361       0.12504361       0.12745687 </v>
   </varray>
  </structure>
  <varray name="forces" >
   <v>       0.00003778       0.00003778       0.00605149 </v>
   <v>      -0.00003778      -0.00003778      -0.00605149 </v>
  </varray>
  <varray name="stress" >
   <v>     -15.03857249      -0.15355482      -0.02382708 </v>
   <v>      -0.15355482     -15.03857249      -0.02382708 </v>
   <v>      -0.02382705      -0.02382705     -15.03712734 </v>
  </varray>
  <energy>
   <i name="e_fr_energy">    -10.84481643 </i>
   <i name="e_wo_entrp">    -10.84481643 </i>
   <i name="e_0_energy">     -0.00000001 </i>
  </energy>
  <time name="totalsc">    5.14    5.17</time>
 </calculation>
 <calculation>
  <scstep>
   <time name="dav">    1.03    1.03</time>
   <time name="total">    1.06    1.07</time>
   <energy>
    <i name="alphaZ">      3.23732084 </i>
    <i name="ewald">   -225.65453194 </i>
    <i name="hartreedc">    -15.37739860 </i>
    <i name="XCdc">    -18.13605108 </i>
    <i name="pawpsdc">     73.12696656 </i>
    <i name="pawaedc">    -38.13190361 </i>
    <i name="eentropy">     -0.00000001 </i>
    <i name="bandstr">      3.95945669 </i>
    <i name="atom">    206.13132471 </i>
    <i name="e_fr_energy">    -10.84481644 </i>
    <i name="e_wo_entrp">    -10.84481644 </i>
    <i name="e_0_energy">    -10.84481644 </i>
   </energy>
  </scstep>
  <scstep>
   <time name="dav">    0.66    0.66</time>
   <time name="total">    0.67    0.67</time>
   <energy>
    <i name="alphaZ">      3.23732084 </i>
    <i name="ewald">   -225.65453194 </i>
    <i name="hartreedc">    -15.37739919 </i>
    <i name="XCdc">    -18.13605106 </i>
    <i name="pawpsdc">     73.12696778 </i>
    <i name="pawaedc">    -38.13190489 </i>
    <i name="eentropy">     -0.00000001 </i>
    <i name="bandstr">      3.95945732 </i>
    <i name="atom">    206.13132471 </i>
    <i name="e_fr_energy">    -10.84481644 </i>
    <i name="e_wo_entrp">    -10.84481644 </i>
    <i name="e_0_energy">    -10.84481644 </i>
   </energy>
  </scstep>
  <structure>
   <crystal>
    <varray name="basis" >
     <v>       0.00000000       2.75000000       2.75000000 </v>
     <v>       2.75000000       0.00000000       2.75000000 </v>
     <v>       2.75000000       2.75000000       0.00000000 </v>
    </varray>
    <i name="volume">     41.59375000 </i>
    <varray name="rec_basis" >
     <v>      -0.18181818       0.18181818       0.18181818 </v>
     <v>       0.18181818      -0.18181818       0.18181818 </v>
     <v>       0.18181818       0.18181818      -0.18181818 </v>
    </varray>
   </crystal>
   <varray name="positions" >
    <v>       0.87495641       0.87495641       0.87754214 </v>
    <v>       0.12504359       0.12504359       0.12745786 </v>
   </varray>
  </structure>
  <varray name="forces" >
   <v>       0.00009867       0.00009867       0.00604889 </v>
   <v>      -0.00009867      -0.00009867      -0.00604889 </v>
  </varray>
  <varray name="stress" >
   <v>     -15.03846769      -0.15396053      -0.01216423 </v>
   <v>      -0.15396053     -15.03846769      -0.01216423 </v>
   <v>      -0.01216420      -0.01216420     -15.03700771 </v>
  </varray>
  <energy>
   <i name="e_fr_energy">    -10.84481644 </i>
   <i name="e_wo_entrp">    -10.84481644 </i>
   <i name="e_0_energy">     -0.00000001 </i>
  </energy>
  <time name="totalsc">    2.59    2.61</time>
 </calculation>
 <calculation>
  <scstep>
   <time name="dav">    1.00    1.00</time>
   <time name="total">    1.04    1.04</time>
   <energy>
    <i name="alphaZ">      3.23732084 </i>
    <i name="ewald">   -225.65453453 </i>
    <i name="hartreedc">    -15.37739938 </i>
    <i name="XCdc">    -18.13605101 </i>
    <i name="pawpsdc">     73.12696854 </i>
    <i name="pawaedc">    -38.13190571 </i>
    <i name="eentropy">     -0.00000001 </i>
    <i name="bandstr">      3.95945882 </i>
    <i name="atom">    206.13132471 </i>
    <i name="e_fr_energy">    -10.84481773 </i>
    <i name="e_wo_entrp">    -10.84481772 </i>
    <i name="e_0_energy">    -10.84481773 </i>
   </energy>
  </scstep>
  <scstep>
   <time name="dav">    1.88    1.88</time>
   <time name="total">    1.88    1.88</time>
   <energy>
    <i name="alphaZ">      3.23732084 </i>
    <i name="ewald">   -225.65453453 </i>
    <i name="hartreedc">    -15.37739962 </i>
    <i name="XCdc">    -18.13605095 </i>
    <i name="pawpsdc">     73.12696820 </i>
    <i name="pawaedc">    -38.13190535 </i>
    <i name="eentropy">     -0.00000001 </i>
    <i name="bandstr">      3.95945886 </i>
    <i name="atom">    206.13132471 </i>
    <i name="e_fr_energy">    -10.84481785 </i>
    <i name="e_wo_entrp">    -10.84481784 </i>
    <i name="e_0_energy">    -10.84481784 </i>
   </energy>
  </scstep>
  <structure>
   <crystal>
    <varray name="basis" >
     <v>       0.00000000       2.75000000       2.75000000 </v>
     <v>       2.75000000       0.00000000       2.75000000 </v>
     <v>       2.75000000       2.75000000       0.00000000 </v>
    </varray>
    <i name="volume">     41.59375000 </i>
    <varray name="rec_basis" >
     <v>      -0.18181818       0.18181818       0.18181818 </v>
     <v>       0.18181818      -0.18181818       0.18181818 </v>
     <v>       0.18181818       0.18181818      -0.18181818 </v>
    </varray>
   </crystal>
   <varray name="positions" >
    <v>       0.87500754       0.87500754       0.87749458 </v>
    <v>       0.12499246       0.12499246       0.12750542 </v>
   </varray>
  </structure>
  <varray name="forces" >
   <v>      -0.00014317      -0.00014317      -0.00099639 </v>
   <v>       0.00014317       0.00014317       0.00099639 </v>
  </varray>
  <varray name="stress" >
   <v>     -15.03859696       0.01497601       0.00285551 </v>
   <v>       0.01497601     -15.03859696       0.00285551 </v>
   <v>       0.00285549       0.00285549     -15.03700546 </v>
  </varray>
  <energy>
   <i name="e_fr_energy">    -10.84481785 </i>
   <i name="e_wo_entrp">    -10.84481784 </i>
   <i name="e_0_energy">     -0.00000001 </i>
  </energy>
  <time name="totalsc">    3.78    3.79</time>
 </calculation>
 <calculation>
  <scstep>
   <time name="dav">    0.96    1.34</time>
   <time name="total">    1.00    1.38</time>
   <energy>
    <i name="alphaZ">      3.23732084 </i>
    <i name="ewald">   -225.65453461 </i>
    <i name="hartreedc">    -15.37739982 </i>
    <i name="XCdc">    -18.13605098 </i>
    <i name="pawpsdc">     73.12696750 </i>
    <i name="pawaedc">    -38.13190462 </i>
    <i name="eentropy">     -0.00000001 </i>
    <i name="bandstr">      3.95945910 </i>
    <i name="atom">    206.13132471 </i>
    <i name="e_fr_energy">    -10.84481789 </i>
    <i name="e_wo_entrp">    -10.84481788 </i>
    <i name="e_0_energy">    -10.84481789 </i>
   </energy>
  </scstep>
  <scstep>
   <time name="dav">    0.52    0.52</time>
   <time name="total">    0.53    0.53</time>
   <energy>
    <i name="alphaZ">      3.23732084 </i>
    <i name="ewald">   -225.65453461 </i>
    <i name="hartreedc">    -15.37739987 </i>
    <i name="XCdc">    -18.13605098 </i>
    <i name="pawpsdc">     73.12696736 </i>
    <i name="pawaedc">    -38.13190449 </i>
    <i name="eentropy">     -0.00000001 </i>
    <i name="bandstr">      3.95945915 </i>
    <i name="atom">    206.13132471 </i>
    <i name="e_fr_energy">    -10.84481789 </i>
    <i name="e_wo_entrp">    -10.84481789 </i>
    <i name="e_0_energy">    -10.84481789 </i>
   </energy>
  </scstep>
  <structure>
   <crystal>
    <varray name="basis" >
     <v>       0.00000000       2.75000000       2.75000000 </v>
     <v>       2.75000000       0.00000000       2.75000000 </v>
     <v>       2.75000000       2.75000000       0.00000000 </v>
    </varray>
    <i name="volume">     41.59375000 </i>
    <varray name="rec_basis" >
     <v>      -0.18181818       0.18181818       0.18181818 </v>
     <v>       0.18181818      -0.18181818       0.18181818 </v>
     <v>       0.18181818       0.18181818      -0.18181818 </v>
    </varray>
   </crystal>
   <varray name="positions" >
    <v>       0.87500025       0.87500025       0.87750135 </v>
    <v>       0.12499975       0.12499975       0.12749865 </v>
   </varray>
  </structure>
  <varray name="forces" >
   <v>      -0.00010835      -0.00010835      -0.00002332 </v>
   <v>       0.00010835       0.00010835       0.00002332 </v>
  </varray>
  <varray name="stress" >
   <v>     -15.03860776       0.00436657       0.00247287 </v>
   <v>       0.00436657     -15.03860776       0.00247287 </v>
   <v>       0.00247287       0.00247287     -15.03701450 </v>
  </varray>
  <energy>
   <i name="e_fr_energy">    -10.84481789 </i>
   <i name="e_wo_entrp">    -10.84481789 </i>
   <i name="e_0_energy">     -0.00000001 </i>
  </energy>
  <time name="totalsc">    2.39    2.78</time>
 </calculation>
 <calculation>
  <scstep>
   <time name="dav">    0.51    0.51</time>
   <time name="total">    0.54    0.55</time>
   <energy>
    <i name="alphaZ">      3.23732084 </i>
    <i name="ewald">   -225.65453461 </i>
    <i name="hartreedc">    -15.37739989 </i>
    <i name="XCdc">    -18.13605098 </i>
    <i name="pawpsdc">     73.12696717 </i>
    <i name="pawaedc">    -38.13190429 </i>
    <i name="eentropy">     -0.00000001 </i>
    <i name="bandstr">      3.95945917 </i>
    <i name="atom">    206.13132471 </i>
    <i name="e_fr_energy">    -10.84481789 </i>
    <i name="e_wo_entrp">    -10.84481789 </i>
    <i name="e_0_energy">    -10.84481789 </i>
   </energy>
  </scstep>
  <scstep>
   <time name="dav">    0.51    0.51</time>
   <time name="total">    0.52    0.52</time>
   <energy>
    <i name="alphaZ">      3.23732084 </i>
    <i name="ewald">   -225.65453461 </i>
    <i name="hartreedc">    -15.37739989 </i>
    <i name="XCdc">    -18.13605098 </i>
    <i name="pawpsdc">     73.12696714 </i>
    <i name="pawaedc">    -38.13190426 </i>
    <i name="eentropy">     -0.00000001 </i>
    <i name="bandstr">      3.95945917 </i>
    <i name="atom">    206.13132471 </i>
    <i name="e_fr_energy">    -10.84481789 </i>
    <i name="e_wo_entrp">    -10.84481789 </i>
    <i name="e_0_energy">    -10.84481789 </i>
   </energy>
  </scstep>
  <structure>
   <crystal>
    <varray name="basis" >
     <v>       0.00000000       2.75000000       2.75000000 </v>
     <v>       2.75000000       0.00000000       2.75000000 </v>
     <v>       2.75000000       2.75000000       0.00000000 </v>
    </varray>
    <i name="volume">     41.59375000 </i>
    <varray name="rec_basis" >
     <v>      -0.18181818       0.18181818       0.18181818 </v>
     <v>       0.18181818      -0.18181818       0.18181818 </v>
     <v>       0.18181818       0.18181818      -0.18181818 </v>
    </varray>
   </crystal>
   <varray name="positions" >
    <v>       0.87500003       0.87500003       0.87750156 </v>
    <v>       0.12499997       0.12499997       0.12749844 </v>
   </varray>
  </structure>
  <varray name="forces" >
   <v>      -0.00010751      -0.00010751      -0.00000006 </v>
   <v>       0.00010751       0.00010751       0.00000006 </v>
  </varray>
  <varray name="stress" >
   <v>     -15.03860878       0.00008583       0.00239342 </v>
   <v>       0.00008583     -15.03860878       0.00239342 </v>
   <v>       0.00239345       0.00239345     -15.03701595 </v>
  </varray>
  <energy>
   <i name="e_fr_energy">    -10.84481789 </i>
   <i name="e_wo_entrp">    -10.84481789 </i>
   <i name="e_0_energy">     -0.00000001 </i>
  </energy>
  <time name="totalsc">    1.92    1.94</time>
 </calculation>
 <calculation>
  <scstep>
   <time name="dav">    0.50    0.50</time>
   <time name="total">    0.53    0.54</time>
   <energy>
    <i name="alphaZ">      3.23732084 </i>
    <i name="ewald">   -225.65453461 </i>
    <i name="hartreedc">    -15.37739989 </i>
    <i name="XCdc">    -18.13605098 </i>
    <i name="pawpsdc">     73.12696708 </i>
    <i name="pawaedc">    -38.13190420 </i>
    <i name="eentropy">     -0.00000001 </i>
    <i name="bandstr">      3.95945916 </i>
    <i name="atom">    206.13132471 </i>
    <i name="e_fr_energy">    -10.84481789 </i>
    <i name="e_wo_entrp">    -10.84481789 </i>
    <i name="e_0_energy">    -10.84481789 </i>
   </energy>
  </scstep>
  <scstep>
   <time name="dav">    0.51    0.51</time>
   <time name="total">    0.51    0.51</time>
   <energy>
    <i name="alphaZ">      3.23732084 </i>
    <i name="ewald">   -225.65453461 </i>
    <i name="hartreedc">    -15.37739989 </i>
    <i name="XCdc">    -18.13605098 </i>
    <i name="pawpsdc">     73.12696709 </i>
    <i name="pawaedc">    -38.13190421 </i>
    <i name="eentropy">     -0.00000001 </i>
    <i name="bandstr">      3.95945917 </i>
    <i name="atom">    206.13132471 </i>
    <i name="e_fr_energy">    -10.84481789 </i>
    <i name="e_wo_entrp">    -10.84481789 </i>
    <i name="e_0_energy">    -10.84481789 </i>
   </energy>
  </scstep>
  <structure>
   <crystal>
    <varray name="basis" >
     <v>       0.00000000       2.75000000       2.75000000 </v>
     <v>       2.75000000       0.00000000       2.75000000 </v>
     <v>       2.75000000       2.75000000       0.00000000 </v>
    </varray>
    <i name="volume">     41.59375000 </i>
    <varray name="rec_basis" >
     <v>      -0.18181818       0.18181818       0.18181818 </v>
     <v>       0.18181818      -0.18181818       0.18181818 </v>
     <v>       0.18181818       0.18181818      -0.18181818 </v>
    </varray>
   </crystal>
   <varray name="positions" >
    <v>       0.87499996       0.87499996       0.87750163 </v>
    <v>       0.12500004       0.12500004       0.12749837 </v>
   </varray>
  </structure>
  <varray name="forces" >
   <v>      -0.00010718      -0.00010718       0.00000865 </v>
   <v>       0.00010718       0.00010718      -0.00000865 </v>
  </varray>
  <varray name="stress" >
   <v>     -15.03860846      -0.00047542       0.00238924 </v>
   <v>      -0.00047542     -15.03860846       0.00238924 </v>
   <v>       0.00238924       0.00238924     -15.03701563 </v>
  </varray>
  <energy>
   <i name="e_fr_energy">    -10.84481789 </i>
   <i name="e_wo_entrp">    -10.84481789 </i>
   <i name="e_0_energy">     -0.00000001 </i>
  </energy>
  <time name="totalsc">    1.90    1.92</time>
 </calculation>
 <calculation>
  <scstep>
   <time name="dav">    0.50    0.50</time>
   <time name="total">    0.54    0.55</time>
   <energy>
    <i name="alphaZ">      3.23732084 </i>
    <i name="ewald">   -225.65453461 </i>
    <i name="hartreedc">    -15.37739989 </i>
    <i name="XCdc">    -18.13605098 </i>
    <i name="pawpsdc">     73.12696709 </i>
    <i name="pawaedc">    -38.13190421 </i>
    <i name="eentropy">     -0.00000001 </i>
    <i name="bandstr">      3.95945917 </i>
    <i name="atom">    206.13132471 </i>
    <i name="e_fr_energy">    -10.84481789 </i>
    <i name="e_wo_entrp">    -10.84481789 </i>
    <i name="e_0_energy">    -10.84481789 </i>
   </energy>
  </scstep>
  <scstep>
   <time name="dav">    0.49    0.49</time>
   <time name="total">    0.50    0.50</time>
   <energy>
    <i name="alphaZ">      3.23732084 </i>
    <i name="ewald">   -225.65453461 </i>
    <i name="hartreedc">    -15.37739989 </i>
    <i name="XCdc">    -18.13605098 </i>
    <i name="pawpsdc">     73.12696709 </i>
    <i name="pawaedc">    -38.13190421 </i>
    <i name="eentropy">     -0.00000001 </i>
    <i name="bandstr">      3.95945917 </i>
    <i name="atom">    206.13132471 </i>
    <i name="e_fr_energy">    -10.84481789 </i>
    <i name="e_wo_entrp">    -10.84481789 </i>
    <i name="e_0_energy">    -10.84481789 </i>
   </energy>
  </scstep>
  <structure>
   <crystal>
    <varray name="basis" >
     <v>       0.00000000       2.75000000       2.75000000 </v>
     <v>       2.75000000       0.00000000       2.75000000 </v>
     <v>       2.75000000       2.75000000       0.00000000 </v>
    </varray>
    <i name="volume">     41.59375000 </i>
    <varray name="rec_basis" >
     <v>      -0.18181818       0.18181818       0.18181818 </v>
     <v>       0.18181818      -0.18181818       0.18181818 </v>
     <v>       0.18181818       0.18181818      -0.18181818 </v>
    </varray>
   </crystal>
   <varray name="positions" >
    <v>       0.87499997       0.87499997       0.87750162 </v>
    <v>       0.12500003       0.12500003       0.12749838 </v>
   </varray>
  </structure>
  <varray name="forces" >
   <v>      -0.00010726      -0.00010726       0.00000671 </v>
   <v>       0.00010726       0.00010726      -0.00000671 </v>
  </varray>
  <varray name="stress" >
   <v>     -15.03860846      -0.00042972       0.00239226 </v>
   <v>      -0.00042972     -15.03860846       0.00239226 </v>
   <v>       0.00239225       0.00239225     -15.03701558 </v>
  </varray>
  <energy>
   <i name="e_fr_energy">    -10.84481789 </i>
   <i name="e_wo_entrp">    -10.84481789 </i>
   <i name="e_0_energy">     -0.00000001 </i>
  </energy>
  <time name="totalsc">    1.90    1.91</time>
 </calculation>
 <calculation>
  <scstep>
   <time name="dav">    0.50    0.50</time>
   <time name="total">    0.54    0.54</time>
   <energy>
    <i name="alphaZ">      3.23732084 </i>
    <i name="ewald">   -225.65453461 </i>
    <i name="hartreedc">    -15.37739989 </i>
    <i name="XCdc">    -18.13605098 </i>
    <i name="pawpsdc">     73.12696709 </i>
    <i name="pawaedc">    -38.13190421 </i>
    <i name="eentropy">     -0.00000001 </i>
    <i name="bandstr">      3.95945917 </i>
    <i name="atom">    206.13132471 </i>
    <i name="e_fr_energy">    -10.84481789 </i>
    <i name="e_wo_entrp">    -10.84481789 </i>
    <i name="e_0_energy">    -10.84481789 </i>
   </energy>
  </scstep>
  <scstep>
   <time name="dav">    0.49    0.49</time>
   <time name="total">    0.49    0.49</time>
   <energy>
    <i name="alphaZ">      3.23732084 </i>
    <i name="ewald">   -225.65453461 </i>
    <i name="hartreedc">    -15.37739989 </i>
    <i name="XCdc">    -18.13605098 </i>
    <i name="pawpsdc">     73.12696709 </i>
    <i name="pawaedc">    -38.13190421 </i>
    <i name="eentropy">     -0.00000001 </i>
    <i name="bandstr">      3.95945917 </i>
    <i name="atom">    206.13132471 </i>
    <i name="e_fr_energy">    -10.84481789 </i>
    <i name="e_wo_entrp">    -10.84481789 </i>
    <i name="e_0_energy">    -10.84481789 </i>
   </energy>
  </scstep>
  <structure>
   <crystal>
    <varray name="basis" >
     <v>       0.00000000       2.75000000       2.75000000 </v>
     <v>       2.75000000       0.00000000       2.75000000 </v>
     <v>       2.75000000       2.75000000       0.00000000 </v>
    </varray>
    <i name="volume">     41.59375000 </i>
    <varray name="rec_basis" >
     <v>      -0.18181818       0.18181818       0.18181818 </v>
     <v>       0.18181818      -0.18181818       0.18181818 </v>
     <v>       0.18181818       0.18181818      -0.18181818 </v>
    </varray>
   </crystal>
   <varray name="positions" >
    <v>       0.87499996       0.87499996       0.87750162 </v>
    <v>       0.12500004       0.12500004       0.12749838 </v>
   </varray>
  </structure>
  <varray name="forces" >
   <v>      -0.00010724      -0.00010724       0.00000726 </v>
   <v>       0.00010724       0.00010724      -0.00000726 </v>
  </varray>
  <varray name="stress" >
   <v>     -15.03860849      -0.00044048       0.00239255 </v>
   <v>      -0.00044048     -15.03860849       0.00239255 </v>
   <v>       0.00239255       0.00239255     -15.03701564 </v>
  </varray>
  <energy>
   <i name="e_fr_energy">    -10.84481789 </i>
   <i name="e_wo_entrp">    -10.84481789 </i>
   <i name="e_0_energy">     -0.00000001 </i>
  </energy>
  <time name="totalsc">    2.00    2.31</time>
  <eigenvalues>
   <array>
    <dimension dim="1">band</dimension>
    <dimension dim="2">kpoint</dimension>
    <dimension dim="3">spin</dimension>
    <field>eigene</field>
    <field>occ</field>
    <set>
     <set comment="spin 1">
      <set comment="kpoint 1">
       <r>   -6.2525    1.0000 </r>
       <r>    5.4480    1.0000 </r>
       <r>    5.4481    1.0000 </r>
       <r>    5.4482    1.0000 </r>
       <r>    7.9983    0.0000 </r>
       <r>    7.9983    0.0000 </r>
       <r>    7.9983    0.0000 </r>
       <r>    8.3879    0.0000 </r>
       <r>   13.1525    0.0000 </r>
       <r>   13.1525    0.0000 </r>
       <r>   13.2592    0.0000 </r>
       <r>   16.5753    0.0000 </r>
       <r>   16.5753    0.0000 </r>
       <r>   16.5754    0.0000 </r>
       <r>   20.6164    0.0000 </r>
       <r>   28.1196    0.0000 </r>
      </set>
      <set comment="kpoint 2">
       <r>   -6.1477    1.0000 </r>
       <r>    4.4623    1.0000 </r>
       <r>    5.2872    1.0000 </r>
       <r>    5.2873    1.0000 </r>
       <r>    7.9487    0.0000 </r>
       <r>    8.2357    0.0000 </r>
       <r>    8.2358    0.0000 </r>
       <r>    9.2537    0.0000 </r>
       <r>   12.8538    0.0000 </r>
       <r>   12.8538    0.0000 </r>
       <r>   13.6990    0.0000 </r>
       <r>   16.2158    0.0000 </r>
       <r>   17.2210    0.0000 </r>
       <r>   17.2210    0.0000 </r>
       <r>   21.3044    0.0000 </r>
       <r>   26.9682    0.0000 </r>
      </set>
      <set comment="kpoint 3">
       <r>   -5.8377    1.0000 </r>
       <r>    2.8168    1.0000 </r>
       <r>    4.9571    1.0000 </r>
       <r>    4.9572    1.0000 </r>
       <r>    7.6151    0.0000 </r>
       <r>    8.6975    0.0000 </r>
       <r>    8.6975    0.0000 </r>
       <r>   10.8582    0.0000 </r>
       <r>   12.5080    0.0000 </r>
       <r>   12.5080    0.0000 </r>
       <r>   14.4421    0.0000 </r>
       <r>   16.0500    0.0000 </r>
       <r>   18.6692    0.0000 </r>
       <r>   18.6693    0.0000 </r>
       <r>   22.7595    0.0000 </r>
       <r>   24.6221    0.0000 </r>
      </set>
      <set comment="kpoint 4">
       <r>   -5.3391    1.0000 </r>
       <r>    1.2004    1.0000 </r>
       <r>    4.6416    1.0000 </r>
       <r>    4.6417    1.0000 </r>
       <r>    7.2669    0.0000 </r>
       <r>    8.9557    0.0000 </r>
       <r>    8.9557    0.0000 </r>
       <r>   12.4339    0.0000 </r>
       <r>   12.7745    0.0000 </r>
       <r>   12.7746    0.0000 </r>
       <r>   14.2476    0.0000 </r>
       <r>   17.5163    0.0000 </r>
       <r>   20.1441    0.0000 </r>
       <r>   20.1441    0.0000 </r>
       <r>   22.6137    0.0000 </r>
       <r>   22.6138    0.0000 </r>
      </set>
      <set comment="kpoint 5">
       <r>   -4.7033    1.0000 </r>
       <r>   -0.2116    1.0000 </r>
       <r>    4.4148    1.0000 </r>
       <r>    4.4149    1.0000 </r>
       <r>    7.0074    0.0000 </r>
       <r>    8.9169    0.0000 </r>
       <r>    8.9170    0.0000 </r>
       <r>   13.2440    0.0000 </r>
       <r>   13.7902    0.0000 </r>
       <r>   13.7903    0.0000 </r>
       <r>   14.6561    0.0000 </r>
       <r>   19.0801    0.0000 </r>
       <r>   19.2070    0.0000 </r>
       <r>   19.2071    0.0000 </r>
       <r>   21.6954    0.0000 </r>
       <r>   23.4332    0.0000 </r>
      </set>
      <set comment="kpoint 6">
       <r>   -4.1213    1.0000 </r>
       <r>   -1.1889    1.0000 </r>
       <r>    4.2989    1.0000 </r>
       <r>    4.2990    1.0000 </r>
       <r>    6.8721    0.0000 </r>
       <r>    8.8211    0.0000 </r>
       <r>    8.8212    0.0000 </r>
       <r>   13.1508    0.0000 </r>
       <r>   15.2861    0.0000 </r>
       <r>   15.2861    0.0000 </r>
       <r>   16.0859    0.0000 </r>
       <r>   17.2522    0.0000 </r>
       <r>   17.2522    0.0000 </r>
       <r>   18.3375    0.0000 </r>
       <r>   23.3412    0.0000 </r>
       <r>   25.6525    0.0000 </r>
      </set>
      <set comment="kpoint 7">
       <r>   -6.1126    1.0000 </r>
       <r>    4.6133    1.0000 </r>
       <r>    4.9758    1.0000 </r>
       <r>    4.9758    1.0000 </r>
       <r>    7.6888    0.0000 </r>
       <r>    8.6430    0.0000 </r>
       <r>    8.6430    0.0000 </r>
       <r>    9.1580    0.0000 </r>
       <r>   12.3035    0.0000 </r>
       <r>   13.3085    0.0000 </r>
       <r>   13.8472    0.0000 </r>
       <r>   16.8214    0.0000 </r>
       <r>   16.8214    0.0000 </r>
       <r>   17.1661    0.0000 </r>
       <r>   21.5971    0.0000 </r>
       <r>   26.5223    0.0000 </r>
      </set>
      <set comment="kpoint 8">
       <r>   -5.8702    1.0000 </r>
       <r>    3.2909    1.0000 </r>
       <r>    4.5917    1.0000 </r>
       <r>    4.7548    1.0000 </r>
       <r>    7.7177    0.0000 </r>
       <r>    8.6270    0.0000 </r>
       <r>    9.2187    0.0000 </r>
       <r>   10.2202    0.0000 </r>
       <r>   12.0117    0.0000 </r>
       <r>   13.2670    0.0000 </r>
       <r>   14.6454    0.0000 </r>
       <r>   16.4219    0.0000 </r>
       <r>   17.6485    0.0000 </r>
       <r>   18.5328    0.0000 </r>
       <r>   22.8776    0.0000 </r>
       <r>   24.4936    0.0000 </r>
      </set>
      <set comment="kpoint 9">
       <r>   -5.4318    1.0000 </r>
       <r>    1.7143    1.0000 </r>
       <r>    4.2808    1.0000 </r>
       <r>    4.3897    1.0000 </r>
       <r>    7.7981    0.0000 </r>
       <r>    8.6552    0.0000 </r>
       <r>    9.5730    0.0000 </r>
       <r>   10.7514    0.0000 </r>
       <r>   12.9798    0.0000 </r>
       <r>   13.4441    0.0000 </r>
       <r>   14.8766    0.0000 </r>
       <r>   17.0982    0.0000 </r>
       <r>   19.0684    0.0000 </r>
       <r>   20.2502    0.0000 </r>
       <r>   22.2397    0.0000 </r>
       <r>   22.7396    0.0000 </r>
      </set>
      <set comment="kpoint 10">
       <r>   -4.8320    1.0000 </r>
       <r>    0.2512    1.0000 </r>
       <r>    4.0173    1.0000 </r>
       <r>    4.0972    1.0000 </r>
       <r>    7.6199    0.0000 </r>
       <r>    8.7371    0.0000 </r>
       <r>    9.5262    0.0000 </r>
       <r>   11.5113    0.0000 </r>
       <r>   14.2234    0.0000 </r>
       <r>   14.3189    0.0000 </r>
       <r>   14.7964    0.0000 </r>
       <r>   18.6147    0.0000 </r>
       <r>   18.9155    0.0000 </r>
       <r>   20.3643    0.0000 </r>
       <r>   22.0741    0.0000 </r>
       <r>   22.3611    0.0000 </r>
      </set>
      <set comment="kpoint 11">
       <r>   -4.1906    1.0000 </r>
       <r>   -0.8999    1.0000 </r>
       <r>    3.7280    1.0000 </r>
       <r>    4.0555    1.0000 </r>
       <r>    7.4712    0.0000 </r>
       <r>    8.7184    0.0000 </r>
       <r>    9.3075    0.0000 </r>
       <r>   12.7217    0.0000 </r>
       <r>   14.1569    0.0000 </r>
       <r>   15.7031    0.0000 </r>
       <r>   16.2891    0.0000 </r>
       <r>   17.0240    0.0000 </r>
       <r>   17.7551    0.0000 </r>
       <r>   20.0104    0.0000 </r>
       <r>   22.5691    0.0000 </r>
       <r>   24.1427    0.0000 </r>
      </set>
      <set comment="kpoint 12">
       <r>   -3.9352    1.0000 </r>
       <r>   -1.2834    1.0000 </r>
       <r>    3.5573    1.0000 </r>
       <r>    4.1520    1.0000 </r>
       <r>    7.4383    0.0000 </r>
       <r>    8.7802    0.0000 </r>
       <r>    9.1305    0.0000 </r>
       <r>   13.4337    0.0000 </r>
       <r>   14.6595    0.0000 </r>
       <r>   14.9980    0.0000 </r>
       <r>   16.2101    0.0000 </r>
       <r>   17.6066    0.0000 </r>
       <r>   17.9101    0.0000 </r>
       <r>   18.6118    0.0000 </r>
       <r>   23.9393    0.0000 </r>
       <r>   25.0768    0.0000 </r>
      </set>
      <set comment="kpoint 13">
       <r>   -4.3944    1.0000 </r>
       <r>   -0.5656    1.0000 </r>
       <r>    3.5258    1.0000 </r>
       <r>    4.3713    1.0000 </r>
       <r>    7.5336    0.0000 </r>
       <r>    8.9656    0.0000 </r>
       <r>    9.0499    0.0000 </r>
       <r>   13.0868    0.0000 </r>
       <r>   13.3968    0.0000 </r>
       <r>   14.5235    0.0000 </r>
       <r>   16.4441    0.0000 </r>
       <r>   17.1358    0.0000 </r>
       <r>   19.5663    0.0000 </r>
       <r>   19.6585    0.0000 </r>
       <r>   21.8371    0.0000 </r>
       <r>   23.3291    0.0000 </r>
      </set>
      <set comment="kpoint 14">
       <r>   -5.0473    1.0000 </r>
       <r>    0.7189    1.0000 </r>
       <r>    3.6485    1.0000 </r>
       <r>    4.6853    1.0000 </r>
       <r>    7.7462    0.0000 </r>
       <r>    8.9697    0.0000 </r>
       <r>    9.1606    0.0000 </r>
       <r>   12.0159    0.0000 </r>
       <r>   12.2539    0.0000 </r>
       <r>   14.6967    0.0000 </r>
       <r>   14.8304    0.0000 </r>
       <r>   17.9785    0.0000 </r>
       <r>   19.3339    0.0000 </r>
       <r>   21.1491    0.0000 </r>
       <r>   21.1502    0.0000 </r>
       <r>   22.7372    0.0000 </r>
      </set>
      <set comment="kpoint 15">
       <r>   -5.5995    1.0000 </r>
       <r>    2.2238    1.0000 </r>
       <r>    3.9434    1.0000 </r>
       <r>    5.0389    1.0000 </r>
       <r>    8.0419    0.0000 </r>
       <r>    8.6806    0.0000 </r>
       <r>    9.0161    0.0000 </r>
       <r>   11.1031    0.0000 </r>
       <r>   11.8557    0.0000 </r>
       <r>   13.5207    0.0000 </r>
       <r>   14.9909    0.0000 </r>
       <r>   16.6003    0.0000 </r>
       <r>   18.3859    0.0000 </r>
       <r>   20.1516    0.0000 </r>
       <r>   22.2621    0.0000 </r>
       <r>   23.5220    0.0000 </r>
      </set>
      <set comment="kpoint 16">
       <r>   -5.9742    1.0000 </r>
       <r>    3.6581    1.0000 </r>
       <r>    4.4970    1.0000 </r>
       <r>    5.3066    1.0000 </r>
       <r>    8.2704    0.0000 </r>
       <r>    8.2873    0.0000 </r>
       <r>    8.4406    0.0000 </r>
       <r>   10.1659    0.0000 </r>
       <r>   12.1864    0.0000 </r>
       <r>   13.0052    0.0000 </r>
       <r>   14.3290    0.0000 </r>
       <r>   16.4111    0.0000 </r>
       <r>   17.1097    0.0000 </r>
       <r>   18.5030    0.0000 </r>
       <r>   22.2675    0.0000 </r>
       <r>   24.6337    0.0000 </r>
      </set>
      <set comment="kpoint 17">
       <r>   -5.6956    1.0000 </r>
       <r>    3.1167    1.0000 </r>
       <r>    4.1727    1.0000 </r>
       <r>    4.1727    1.0000 </r>
       <r>    7.0614    0.0000 </r>
       <r>    9.4621    0.0000 </r>
       <r>    9.9526    0.0000 </r>
       <r>    9.9526    0.0000 </r>
       <r>   12.0249    0.0000 </r>
       <r>   13.7747    0.0000 </r>
       <r>   15.2884    0.0000 </r>
       <r>   17.5369    0.0000 </r>
       <r>   17.5370    0.0000 </r>
       <r>   18.1282    0.0000 </r>
       <r>   23.9880    0.0000 </r>
       <r>   24.1317    0.0000 </r>
      </set>
      <set comment="kpoint 18">
       <r>   -5.3209    1.0000 </r>
       <r>    1.9943    1.0000 </r>
       <r>    3.7591    1.0000 </r>
       <r>    3.8392    1.0000 </r>
       <r>    7.1117    0.0000 </r>
       <r>    9.0989    0.0000 </r>
       <r>   10.2359    0.0000 </r>
       <r>   10.5270    0.0000 </r>
       <r>   13.1747    0.0000 </r>
       <r>   14.0861    0.0000 </r>
       <r>   16.0462    0.0000 </r>
       <r>   17.4797    0.0000 </r>
       <r>   18.4145    0.0000 </r>
       <r>   19.6666    0.0000 </r>
       <r>   22.1751    0.0000 </r>
       <r>   22.6090    0.0000 </r>
      </set>
      <set comment="kpoint 19">
       <r>   -4.7693    1.0000 </r>
       <r>    0.6687    1.0000 </r>
       <r>    3.2377    1.0000 </r>
       <r>    3.6469    1.0000 </r>
       <r>    7.3425    0.0000 </r>
       <r>    9.4507    0.0000 </r>
       <r>   10.0376    0.0000 </r>
       <r>   10.6225    0.0000 </r>
       <r>   14.8730    0.0000 </r>
       <r>   14.8807    0.0000 </r>
       <r>   15.8350    0.0000 </r>
       <r>   18.5028    0.0000 </r>
       <r>   18.6799    0.0000 </r>
       <r>   20.2859    0.0000 </r>
       <r>   21.2420    0.0000 </r>
       <r>   22.4799    0.0000 </r>
      </set>
      <set comment="kpoint 20">
       <r>   -4.1154    1.0000 </r>
       <r>   -0.5245    1.0000 </r>
       <r>    2.7732    1.0000 </r>
       <r>    3.6138    1.0000 </r>
       <r>    7.3794    0.0000 </r>
       <r>    9.7886    0.0000 </r>
       <r>   10.3893    0.0000 </r>
       <r>   10.6610    0.0000 </r>
       <r>   15.2423    0.0000 </r>
       <r>   16.1778    0.0000 </r>
       <r>   16.6958    0.0000 </r>
       <r>   16.9303    0.0000 </r>
       <r>   17.9285    0.0000 </r>
       <r>   21.2835    0.0000 </r>
       <r>   22.9021    0.0000 </r>
       <r>   23.0064    0.0000 </r>
      </set>
      <set comment="kpoint 21">
       <r>   -3.6564    1.0000 </r>
       <r>   -1.2032    1.0000 </r>
       <r>    2.4486    1.0000 </r>
       <r>    3.7391    1.0000 </r>
       <r>    7.4695    0.0000 </r>
       <r>    9.6720    0.0000 </r>
       <r>   10.1105    0.0000 </r>
       <r>   12.2445    0.0000 </r>
       <r>   14.3868    0.0000 </r>
       <r>   14.8723    0.0000 </r>
       <r>   16.7798    0.0000 </r>
       <r>   18.0290    0.0000 </r>
       <r>   18.5906    0.0000 </r>
       <r>   20.8051    0.0000 </r>
       <r>   23.8297    0.0000 </r>
       <r>   24.0742    0.0000 </r>
      </set>
      <set comment="kpoint 22">
       <r>   -3.9275    1.0000 </r>
       <r>   -0.8101    1.0000 </r>
       <r>    2.3045    1.0000 </r>
       <r>    4.0070    1.0000 </r>
       <r>    7.7026    0.0000 </r>
       <r>    9.6721    0.0000 </r>
       <r>    9.8882    0.0000 </r>
       <r>   13.0202    0.0000 </r>
       <r>   13.1895    0.0000 </r>
       <r>   13.9649    0.0000 </r>
       <r>   16.6766    0.0000 </r>
       <r>   18.9656    0.0000 </r>
       <r>   19.9776    0.0000 </r>
       <r>   20.1208    0.0000 </r>
       <r>   21.5978    0.0000 </r>
       <r>   23.9161    0.0000 </r>
      </set>
      <set comment="kpoint 23">
       <r>   -4.5718    1.0000 </r>
       <r>    0.2638    1.0000 </r>
       <r>    2.3926    1.0000 </r>
       <r>    4.3807    1.0000 </r>
       <r>    8.0428    0.0000 </r>
       <r>    9.6360    0.0000 </r>
       <r>    9.7335    0.0000 </r>
       <r>   11.6444    0.0000 </r>
       <r>   11.9838    0.0000 </r>
       <r>   15.3873    0.0000 </r>
       <r>   17.0215    0.0000 </r>
       <r>   17.3688    0.0000 </r>
       <r>   19.1424    0.0000 </r>
       <r>   21.1400    0.0000 </r>
       <r>   21.8094    0.0000 </r>
       <r>   22.6818    0.0000 </r>
      </set>
      <set comment="kpoint 24">
       <r>   -5.1666    1.0000 </r>
       <r>    1.4178    1.0000 </r>
       <r>    2.8693    1.0000 </r>
       <r>    4.7802    1.0000 </r>
       <r>    8.3380    0.0000 </r>
       <r>    9.1495    0.0000 </r>
       <r>    9.4286    0.0000 </r>
       <r>   10.9837    0.0000 </r>
       <r>   11.5706    0.0000 </r>
       <r>   15.1910    0.0000 </r>
       <r>   15.8915    0.0000 </r>
       <r>   16.9884    0.0000 </r>
       <r>   18.9779    0.0000 </r>
       <r>   20.2141    0.0000 </r>
       <r>   21.6896    0.0000 </r>
       <r>   23.6190    0.0000 </r>
      </set>
      <set comment="kpoint 25">
       <r>   -5.0097    1.0000 </r>
       <r>    1.5265    1.0000 </r>
       <r>    3.4730    1.0000 </r>
       <r>    3.4730    1.0000 </r>
       <r>    6.4904    0.0000 </r>
       <r>    8.2651    0.0000 </r>
       <r>   11.4759    0.0000 </r>
       <r>   11.4759    0.0000 </r>
       <r>   13.6165    0.0000 </r>
       <r>   14.5525    0.0000 </r>
       <r>   17.1007    0.0000 </r>
       <r>   18.5285    0.0000 </r>
       <r>   18.5285    0.0000 </r>
       <r>   19.3404    0.0000 </r>
       <r>   22.0676    0.0000 </r>
       <r>   22.0676    0.0000 </r>
      </set>
      <set comment="kpoint 26">
       <r>   -4.5130    1.0000 </r>
       <r>    0.5989    1.0000 </r>
       <r>    2.9548    1.0000 </r>
       <r>    3.2477    1.0000 </r>
       <r>    6.6209    0.0000 </r>
       <r>    7.9845    0.0000 </r>
       <r>   11.7391    0.0000 </r>
       <r>   11.9414    0.0000 </r>
       <r>   15.0553    0.0000 </r>
       <r>   15.2719    0.0000 </r>
       <r>   17.3283    0.0000 </r>
       <r>   18.5718    0.0000 </r>
       <r>   19.0355    0.0000 </r>
       <r>   19.9854    0.0000 </r>
       <r>   21.0600    0.0000 </r>
       <r>   21.9714    0.0000 </r>
      </set>
      <set comment="kpoint 27">
       <r>   -3.8769    1.0000 </r>
       <r>   -0.3958    1.0000 </r>
       <r>    2.2531    1.0000 </r>
       <r>    3.1871    1.0000 </r>
       <r>    6.8225    0.0000 </r>
       <r>    8.7095    0.0000 </r>
       <r>   11.5689    0.0000 </r>
       <r>   11.8263    0.0000 </r>
       <r>   16.2670    0.0000 </r>
       <r>   16.5894    0.0000 </r>
       <r>   16.9282    0.0000 </r>
       <r>   16.9659    0.0000 </r>
       <r>   18.9189    0.0000 </r>
       <r>   20.7997    0.0000 </r>
       <r>   21.9446    0.0000 </r>
       <r>   23.5237    0.0000 </r>
      </set>
      <set comment="kpoint 28">
       <r>   -3.2896    1.0000 </r>
       <r>   -1.1644    1.0000 </r>
       <r>    1.6994    1.0000 </r>
       <r>    3.2951    1.0000 </r>
       <r>    6.9530    0.0000 </r>
       <r>   10.1574    0.0000 </r>
       <r>   11.3952    0.0000 </r>
       <r>   11.5130    0.0000 </r>
       <r>   14.7387    0.0000 </r>
       <r>   14.9179    0.0000 </r>
       <r>   18.3952    0.0000 </r>
       <r>   18.4010    0.0000 </r>
       <r>   18.8017    0.0000 </r>
       <r>   22.7101    0.0000 </r>
       <r>   22.7549    0.0000 </r>
       <r>   23.2064    0.0000 </r>
      </set>
      <set comment="kpoint 29">
       <r>   -3.3452    1.0000 </r>
       <r>   -1.0868    1.0000 </r>
       <r>    1.4270    1.0000 </r>
       <r>    3.5600    1.0000 </r>
       <r>    7.2291    0.0000 </r>
       <r>   11.1632    0.0000 </r>
       <r>   11.1750    0.0000 </r>
       <r>   12.0332    0.0000 </r>
       <r>   13.0444    0.0000 </r>
       <r>   13.2125    0.0000 </r>
       <r>   18.3544    0.0000 </r>
       <r>   20.2581    0.0000 </r>
       <r>   20.3495    0.0000 </r>
       <r>   21.0994    0.0000 </r>
       <r>   21.7112    0.0000 </r>
       <r>   22.9182    0.0000 </r>
      </set>
      <set comment="kpoint 30">
       <r>   -3.9541    1.0000 </r>
       <r>   -0.3541    1.0000 </r>
       <r>    1.5857    1.0000 </r>
       <r>    3.9483    1.0000 </r>
       <r>    7.6498    0.0000 </r>
       <r>   10.5673    0.0000 </r>
       <r>   10.9076    0.0000 </r>
       <r>   11.6753    0.0000 </r>
       <r>   12.1626    0.0000 </r>
       <r>   13.9717    0.0000 </r>
       <r>   18.3127    0.0000 </r>
       <r>   18.9722    0.0000 </r>
       <r>   19.3583    0.0000 </r>
       <r>   21.9271    0.0000 </r>
       <r>   22.0519    0.0000 </r>
       <r>   22.6568    0.0000 </r>
      </set>
      <set comment="kpoint 31">
       <r>   -4.0706    1.0000 </r>
       <r>   -0.0484    1.0000 </r>
       <r>    2.9810    1.0000 </r>
       <r>    2.9810    1.0000 </r>
       <r>    6.1486    0.0000 </r>
       <r>    7.1644    0.0000 </r>
       <r>   13.0954    0.0000 </r>
       <r>   13.0954    0.0000 </r>
       <r>   15.5007    0.0000 </r>
       <r>   15.6374    0.0000 </r>
       <r>   18.3998    0.0000 </r>
       <r>   18.3999    0.0000 </r>
       <r>   18.6405    0.0000 </r>
       <r>   20.6783    0.0000 </r>
       <r>   20.9655    0.0000 </r>
       <r>   21.8349    0.0000 </r>
      </set>
      <set comment="kpoint 32">
       <r>   -3.4694    1.0000 </r>
       <r>   -0.8399    1.0000 </r>
       <r>    2.4703    1.0000 </r>
       <r>    2.8786    1.0000 </r>
       <r>    6.3559    0.0000 </r>
       <r>    7.1693    0.0000 </r>
       <r>   13.3998    0.0000 </r>
       <r>   13.4298    0.0000 </r>
       <r>   16.6717    0.0000 </r>
       <r>   16.7469    0.0000 </r>
       <r>   17.0300    0.0000 </r>
       <r>   17.1575    0.0000 </r>
       <r>   19.6901    0.0000 </r>
       <r>   20.3097    0.0000 </r>
       <r>   20.9508    0.0000 </r>
       <r>   22.9697    0.0000 </r>
      </set>
      <set comment="kpoint 33">
       <r>   -2.8213    1.0000 </r>
       <r>   -1.5344    1.0000 </r>
       <r>    1.7266    1.0000 </r>
       <r>    2.9488    1.0000 </r>
       <r>    6.5255    0.0000 </r>
       <r>    8.3150    0.0000 </r>
       <r>   13.1591    0.0000 </r>
       <r>   13.2613    0.0000 </r>
       <r>   14.9793    0.0000 </r>
       <r>   15.1337    0.0000 </r>
       <r>   18.5408    0.0000 </r>
       <r>   18.7505    0.0000 </r>
       <r>   20.4657    0.0000 </r>
       <r>   20.5477    0.0000 </r>
       <r>   21.1063    0.0000 </r>
       <r>   23.2700    0.0000 </r>
      </set>
      <set comment="kpoint 34">
       <r>   -2.7663    1.0000 </r>
       <r>   -1.5599    1.0000 </r>
       <r>    1.2621    1.0000 </r>
       <r>    3.1849    1.0000 </r>
       <r>    6.7926    0.0000 </r>
       <r>    9.9989    0.0000 </r>
       <r>   12.4873    0.0000 </r>
       <r>   13.0051    0.0000 </r>
       <r>   13.1871    0.0000 </r>
       <r>   13.6763    0.0000 </r>
       <r>   19.8754    0.0000 </r>
       <r>   20.3492    0.0000 </r>
       <r>   20.6429    0.0000 </r>
       <r>   20.8335    0.0000 </r>
       <r>   20.9136    0.0000 </r>
       <r>   22.4582    0.0000 </r>
      </set>
      <set comment="kpoint 35">
       <r>   -2.9033    1.0000 </r>
       <r>   -1.5453    1.0000 </r>
       <r>    2.7294    1.0000 </r>
       <r>    2.7294    1.0000 </r>
       <r>    6.1168    0.0000 </r>
       <r>    6.4443    0.0000 </r>
       <r>   14.7321    0.0000 </r>
       <r>   14.7321    0.0000 </r>
       <r>   16.8292    0.0000 </r>
       <r>   16.8292    0.0000 </r>
       <r>   17.0284    0.0000 </r>
       <r>   17.2776    0.0000 </r>
       <r>   18.6310    0.0000 </r>
       <r>   18.7119    0.0000 </r>
       <r>   23.0043    0.0000 </r>
       <r>   23.7771    0.0000 </r>
      </set>
      <set comment="kpoint 36">
       <r>   -2.2810    1.0000 </r>
       <r>   -2.1689    1.0000 </r>
       <r>    2.3102    1.0000 </r>
       <r>    2.7536    1.0000 </r>
       <r>    6.2972    0.0000 </r>
       <r>    6.8607    0.0000 </r>
       <r>   14.6544    0.0000 </r>
       <r>   14.8603    0.0000 </r>
       <r>   15.4514    0.0000 </r>
       <r>   15.6711    0.0000 </r>
       <r>   18.4118    0.0000 </r>
       <r>   18.4537    0.0000 </r>
       <r>   18.4647    0.0000 </r>
       <r>   19.0132    0.0000 </r>
       <r>   23.0414    0.0000 </r>
       <r>   23.3648    0.0000 </r>
      </set>
      <set comment="kpoint 37">
       <r>   -6.1477    1.0000 </r>
       <r>    4.4624    1.0000 </r>
       <r>    5.2872    1.0000 </r>
       <r>    5.2873    1.0000 </r>
       <r>    7.9486    0.0000 </r>
       <r>    8.2357    0.0000 </r>
       <r>    8.2357    0.0000 </r>
       <r>    9.2537    0.0000 </r>
       <r>   12.8538    0.0000 </r>
       <r>   12.8538    0.0000 </r>
       <r>   13.6990    0.0000 </r>
       <r>   16.2158    0.0000 </r>
       <r>   17.2210    0.0000 </r>
       <r>   17.2210    0.0000 </r>
       <r>   21.3044    0.0000 </r>
       <r>   26.9681    0.0000 </r>
      </set>
      <set comment="kpoint 38">
       <r>   -6.1126    1.0000 </r>
       <r>    4.6133    1.0000 </r>
       <r>    4.9758    1.0000 </r>
       <r>    4.9758    1.0000 </r>
       <r>    7.6888    0.0000 </r>
       <r>    8.6430    0.0000 </r>
       <r>    8.6430    0.0000 </r>
       <r>    9.1580    0.0000 </r>
       <r>   12.3035    0.0000 </r>
       <r>   13.3085    0.0000 </r>
       <r>   13.8472    0.0000 </r>
       <r>   16.8213    0.0000 </r>
       <r>   16.8214    0.0000 </r>
       <r>   17.1661    0.0000 </r>
       <r>   21.5971    0.0000 </r>
       <r>   26.5223    0.0000 </r>
      </set>
      <set comment="kpoint 39">
       <r>   -5.8702    1.0000 </r>
       <r>    3.2909    1.0000 </r>
       <r>    4.5917    1.0000 </r>
       <r>    4.7548    1.0000 </r>
       <r>    7.7177    0.0000 </r>
       <r>    8.6270    0.0000 </r>
       <r>    9.2187    0.0000 </r>
       <r>   10.2202    0.0000 </r>
       <r>   12.0117    0.0000 </r>
       <r>   13.2670    0.0000 </r>
       <r>   14.6454    0.0000 </r>
       <r>   16.4219    0.0000 </r>
       <r>   17.6486    0.0000 </r>
       <r>   18.5328    0.0000 </r>
       <r>   22.8776    0.0000 </r>
       <r>   24.4936    0.0000 </r>
      </set>
      <set comment="kpoint 40">
       <r>   -5.4318    1.0000 </r>
       <r>    1.7143    1.0000 </r>
       <r>    4.2808    1.0000 </r>
       <r>    4.3898    1.0000 </r>
       <r>    7.7981    0.0000 </r>
       <r>    8.6551    0.0000 </r>
       <r>    9.5730    0.0000 </r>
       <r>   10.7515    0.0000 </r>
       <r>   12.9798    0.0000 </r>
       <r>   13.4441    0.0000 </r>
       <r>   14.8766    0.0000 </r>
       <r>   17.0982    0.0000 </r>
       <r>   19.0684    0.0000 </r>
       <r>   20.2501    0.0000 </r>
       <r>   22.2396    0.0000 </r>
       <r>   22.7396    0.0000 </r>
      </set>
      <set comment="kpoint 41">
       <r>   -4.8320    1.0000 </r>
       <r>    0.2512    1.0000 </r>
       <r>    4.0174    1.0000 </r>
       <r>    4.0972    1.0000 </r>
       <r>    7.6199    0.0000 </r>
       <r>    8.7370    0.0000 </r>
       <r>    9.5263    0.0000 </r>
       <r>   11.5113    0.0000 </r>
       <r>   14.2234    0.0000 </r>
       <r>   14.3189    0.0000 </r>
       <r>   14.7964    0.0000 </r>
       <r>   18.6148    0.0000 </r>
       <r>   18.9155    0.0000 </r>
       <r>   20.3643    0.0000 </r>
       <r>   22.0741    0.0000 </r>
       <r>   22.3611    0.0000 </r>
      </set>
      <set comment="kpoint 42">
       <r>   -4.1906    1.0000 </r>
       <r>   -0.8999    1.0000 </r>
       <r>    3.7280    1.0000 </r>
       <r>    4.0555    1.0000 </r>
       <r>    7.4712    0.0000 </r>
       <r>    8.7184    0.0000 </r>
       <r>    9.3075    0.0000 </r>
       <r>   12.7218    0.0000 </r>
       <r>   14.1569    0.0000 </r>
       <r>   15.7031    0.0000 </r>
       <r>   16.2891    0.0000 </r>
       <r>   17.0240    0.0000 </r>
       <r>   17.7551    0.0000 </r>
       <r>   20.0104    0.0000 </r>
       <r>   22.5691    0.0000 </r>
       <r>   24.1427    0.0000 </r>
      </set>
      <set comment="kpoint 43">
       <r>   -3.9352    1.0000 </r>
       <r>   -1.2834    1.0000 </r>
       <r>    3.5573    1.0000 </r>
       <r>    4.1519    1.0000 </r>
       <r>    7.4383    0.0000 </r>
       <r>    8.7802    0.0000 </r>
       <r>    9.1306    0.0000 </r>
       <r>   13.4337    0.0000 </r>
       <r>   14.6595    0.0000 </r>
       <r>   14.9980    0.0000 </r>
       <r>   16.2101    0.0000 </r>
       <r>   17.6066    0.0000 </r>
       <r>   17.9101    0.0000 </r>
       <r>   18.6118    0.0000 </r>
       <r>   23.9393    0.0000 </r>
       <r>   25.0768    0.0000 </r>
      </set>
      <set comment="kpoint 44">
       <r>   -4.3944    1.0000 </r>
       <r>   -0.5656    1.0000 </r>
       <r>    3.5258    1.0000 </r>
       <r>    4.3712    1.0000 </r>
       <r>    7.5336    0.0000 </r>
       <r>    8.9656    0.0000 </r>
       <r>    9.0499    0.0000 </r>
       <r>   13.0868    0.0000 </r>
       <r>   13.3968    0.0000 </r>
       <r>   14.5235    0.0000 </r>
       <r>   16.4442    0.0000 </r>
       <r>   17.1359    0.0000 </r>
       <r>   19.5663    0.0000 </r>
       <r>   19.6585    0.0000 </r>
       <r>   21.8371    0.0000 </r>
       <r>   23.3291    0.0000 </r>
      </set>
      <set comment="kpoint 45">
       <r>   -5.0473    1.0000 </r>
       <r>    0.7189    1.0000 </r>
       <r>    3.6485    1.0000 </r>
       <r>    4.6852    1.0000 </r>
       <r>    7.7462    0.0000 </r>
       <r>    8.9697    0.0000 </r>
       <r>    9.1605    0.0000 </r>
       <r>   12.0158    0.0000 </r>
       <r>   12.2539    0.0000 </r>
       <r>   14.6967    0.0000 </r>
       <r>   14.8304    0.0000 </r>
       <r>   17.9785    0.0000 </r>
       <r>   19.3339    0.0000 </r>
       <r>   21.1491    0.0000 </r>
       <r>   21.1502    0.0000 </r>
       <r>   22.7372    0.0000 </r>
      </set>
      <set comment="kpoint 46">
       <r>   -5.5995    1.0000 </r>
       <r>    2.2239    1.0000 </r>
       <r>    3.9434    1.0000 </r>
       <r>    5.0389    1.0000 </r>
       <r>    8.0419    0.0000 </r>
       <r>    8.6806    0.0000 </r>
       <r>    9.0161    0.0000 </r>
       <r>   11.1031    0.0000 </r>
       <r>   11.8557    0.0000 </r>
       <r>   13.5208    0.0000 </r>
       <r>   14.9910    0.0000 </r>
       <r>   16.6003    0.0000 </r>
       <r>   18.3859    0.0000 </r>
       <r>   20.1517    0.0000 </r>
       <r>   22.2622    0.0000 </r>
       <r>   23.5220    0.0000 </r>
      </set>
      <set comment="kpoint 47">
       <r>   -5.9742    1.0000 </r>
       <r>    3.6582    1.0000 </r>
       <r>    4.4970    1.0000 </r>
       <r>    5.3066    1.0000 </r>
       <r>    8.2704    0.0000 </r>
       <r>    8.2873    0.0000 </r>
       <r>    8.4406    0.0000 </r>
       <r>   10.1659    0.0000 </r>
       <r>   12.1864    0.0000 </r>
       <r>   13.0052    0.0000 </r>
       <r>   14.3290    0.0000 </r>
       <r>   16.4111    0.0000 </r>
       <r>   17.1097    0.0000 </r>
       <r>   18.5030    0.0000 </r>
       <r>   22.2675    0.0000 </r>
       <r>   24.6338    0.0000 </r>
      </set>
      <set comment="kpoint 48">
       <r>   -6.1477    1.0000 </r>
       <r>    4.4623    1.0000 </r>
       <r>    5.2873    1.0000 </r>
       <r>    5.2873    1.0000 </r>
       <r>    7.9487    0.0000 </r>
       <r>    8.2357    0.0000 </r>
       <r>    8.2357    0.0000 </r>
       <r>    9.2537    0.0000 </r>
       <r>   12.8538    0.0000 </r>
       <r>   12.8538    0.0000 </r>
       <r>   13.6990    0.0000 </r>
       <r>   16.2158    0.0000 </r>
       <r>   17.2210    0.0000 </r>
       <r>   17.2210    0.0000 </r>
       <r>   21.3044    0.0000 </r>
       <r>   26.9680    0.0000 </r>
      </set>
      <set comment="kpoint 49">
       <r>   -5.9742    1.0000 </r>
       <r>    3.6581    1.0000 </r>
       <r>    4.4970    1.0000 </r>
       <r>    5.3066    1.0000 </r>
       <r>    8.2704    0.0000 </r>
       <r>    8.2873    0.0000 </r>
       <r>    8.4406    0.0000 </r>
       <r>   10.1659    0.0000 </r>
       <r>   12.1864    0.0000 </r>
       <r>   13.0052    0.0000 </r>
       <r>   14.3290    0.0000 </r>
       <r>   16.4111    0.0000 </r>
       <r>   17.1097    0.0000 </r>
       <r>   18.5030    0.0000 </r>
       <r>   22.2675    0.0000 </r>
       <r>   24.6337    0.0000 </r>
      </set>
      <set comment="kpoint 50">
       <r>   -5.5995    1.0000 </r>
       <r>    2.2238    1.0000 </r>
       <r>    3.9434    1.0000 </r>
       <r>    5.0390    1.0000 </r>
       <r>    8.0419    0.0000 </r>
       <r>    8.6806    0.0000 </r>
       <r>    9.0161    0.0000 </r>
       <r>   11.1032    0.0000 </r>
       <r>   11.8557    0.0000 </r>
       <r>   13.5207    0.0000 </r>
       <r>   14.9909    0.0000 </r>
       <r>   16.6003    0.0000 </r>
       <r>   18.3859    0.0000 </r>
       <r>   20.1516    0.0000 </r>
       <r>   22.2621    0.0000 </r>
       <r>   23.5220    0.0000 </r>
      </set>
      <set comment="kpoint 51">
       <r>   -5.0473    1.0000 </r>
       <r>    0.7189    1.0000 </r>
       <r>    3.6485    1.0000 </r>
       <r>    4.6853    1.0000 </r>
       <r>    7.7462    0.0000 </r>
       <r>    8.9696    0.0000 </r>
       <r>    9.1606    0.0000 </r>
       <r>   12.0159    0.0000 </r>
       <r>   12.2539    0.0000 </r>
       <r>   14.6967    0.0000 </r>
       <r>   14.8303    0.0000 </r>
       <r>   17.9785    0.0000 </r>
       <r>   19.3338    0.0000 </r>
       <r>   21.1491    0.0000 </r>
       <r>   21.1502    0.0000 </r>
       <r>   22.7372    0.0000 </r>
      </set>
      <set comment="kpoint 52">
       <r>   -4.3944    1.0000 </r>
       <r>   -0.5656    1.0000 </r>
       <r>    3.5258    1.0000 </r>
       <r>    4.3713    1.0000 </r>
       <r>    7.5336    0.0000 </r>
       <r>    8.9656    0.0000 </r>
       <r>    9.0498    0.0000 </r>
       <r>   13.0868    0.0000 </r>
       <r>   13.3969    0.0000 </r>
       <r>   14.5235    0.0000 </r>
       <r>   16.4441    0.0000 </r>
       <r>   17.1358    0.0000 </r>
       <r>   19.5663    0.0000 </r>
       <r>   19.6585    0.0000 </r>
       <r>   21.8371    0.0000 </r>
       <r>   23.3291    0.0000 </r>
      </set>
      <set comment="kpoint 53">
       <r>   -3.9352    1.0000 </r>
       <r>   -1.2834    1.0000 </r>
       <r>    3.5573    1.0000 </r>
       <r>    4.1520    1.0000 </r>
       <r>    7.4383    0.0000 </r>
       <r>    8.7803    0.0000 </r>
       <r>    9.1305    0.0000 </r>
       <r>   13.4337    0.0000 </r>
       <r>   14.6594    0.0000 </r>
       <r>   14.9981    0.0000 </r>
       <r>   16.2101    0.0000 </r>
       <r>   17.6067    0.0000 </r>
       <r>   17.9101    0.0000 </r>
       <r>   18.6118    0.0000 </r>
       <r>   23.9393    0.0000 </r>
       <r>   25.0767    0.0000 </r>
      </set>
      <set comment="kpoint 54">
       <r>   -4.1906    1.0000 </r>
       <r>   -0.8999    1.0000 </r>
       <r>    3.7279    1.0000 </r>
       <r>    4.0555    1.0000 </r>
       <r>    7.4712    0.0000 </r>
       <r>    8.7184    0.0000 </r>
       <r>    9.3075    0.0000 </r>
       <r>   12.7217    0.0000 </r>
       <r>   14.1569    0.0000 </r>
       <r>   15.7031    0.0000 </r>
       <r>   16.2891    0.0000 </r>
       <r>   17.0240    0.0000 </r>
       <r>   17.7551    0.0000 </r>
       <r>   20.0103    0.0000 </r>
       <r>   22.5691    0.0000 </r>
       <r>   24.1426    0.0000 </r>
      </set>
      <set comment="kpoint 55">
       <r>   -4.8320    1.0000 </r>
       <r>    0.2512    1.0000 </r>
       <r>    4.0173    1.0000 </r>
       <r>    4.0972    1.0000 </r>
       <r>    7.6199    0.0000 </r>
       <r>    8.7371    0.0000 </r>
       <r>    9.5262    0.0000 </r>
       <r>   11.5113    0.0000 </r>
       <r>   14.2234    0.0000 </r>
       <r>   14.3189    0.0000 </r>
       <r>   14.7964    0.0000 </r>
       <r>   18.6147    0.0000 </r>
       <r>   18.9156    0.0000 </r>
       <r>   20.3643    0.0000 </r>
       <r>   22.0741    0.0000 </r>
       <r>   22.3611    0.0000 </r>
      </set>
      <set comment="kpoint 56">
       <r>   -5.4318    1.0000 </r>
       <r>    1.7143    1.0000 </r>
       <r>    4.2808    1.0000 </r>
       <r>    4.3897    1.0000 </r>
       <r>    7.7981    0.0000 </r>
       <r>    8.6552    0.0000 </r>
       <r>    9.5730    0.0000 </r>
       <r>   10.7514    0.0000 </r>
       <r>   12.9798    0.0000 </r>
       <r>   13.4442    0.0000 </r>
       <r>   14.8766    0.0000 </r>
       <r>   17.0982    0.0000 </r>
       <r>   19.0684    0.0000 </r>
       <r>   20.2502    0.0000 </r>
       <r>   22.2397    0.0000 </r>
       <r>   22.7396    0.0000 </r>
      </set>
      <set comment="kpoint 57">
       <r>   -5.8702    1.0000 </r>
       <r>    3.2909    1.0000 </r>
       <r>    4.5918    1.0000 </r>
       <r>    4.7547    1.0000 </r>
       <r>    7.7177    0.0000 </r>
       <r>    8.6270    0.0000 </r>
       <r>    9.2187    0.0000 </r>
       <r>   10.2202    0.0000 </r>
       <r>   12.0117    0.0000 </r>
       <r>   13.2671    0.0000 </r>
       <r>   14.6454    0.0000 </r>
       <r>   16.4219    0.0000 </r>
       <r>   17.6485    0.0000 </r>
       <r>   18.5329    0.0000 </r>
       <r>   22.8776    0.0000 </r>
       <r>   24.4937    0.0000 </r>
      </set>
      <set comment="kpoint 58">
       <r>   -5.8702    1.0000 </r>
       <r>    3.2909    1.0000 </r>
       <r>    4.5917    1.0000 </r>
       <r>    4.7548    1.0000 </r>
       <r>    7.7177    0.0000 </r>
       <r>    8.6270    0.0000 </r>
       <r>    9.2187    0.0000 </r>
       <r>   10.2202    0.0000 </r>
       <r>   12.0117    0.0000 </r>
       <r>   13.2670    0.0000 </r>
       <r>   14.6454    0.0000 </r>
       <r>   16.4219    0.0000 </r>
       <r>   17.6486    0.0000 </r>
       <r>   18.5328    0.0000 </r>
       <r>   22.8776    0.0000 </r>
       <r>   24.4936    0.0000 </r>
      </set>
      <set comment="kpoint 59">
       <r>   -5.5621    1.0000 </r>
       <r>    2.4362    1.0000 </r>
       <r>    3.6856    1.0000 </r>
       <r>    4.6471    1.0000 </r>
       <r>    7.7787    0.0000 </r>
       <r>    8.9305    0.0000 </r>
       <r>    9.7532    0.0000 </r>
       <r>   10.1898    0.0000 </r>
       <r>   12.3300    0.0000 </r>
       <r>   13.7669    0.0000 </r>
       <r>   15.4776    0.0000 </r>
       <r>   16.8282    0.0000 </r>
       <r>   17.9641    0.0000 </r>
       <r>   19.8360    0.0000 </r>
       <r>   22.2455    0.0000 </r>
       <r>   23.8733    0.0000 </r>
      </set>
      <set comment="kpoint 60">
       <r>   -5.0663    1.0000 </r>
       <r>    1.1558    1.0000 </r>
       <r>    3.1326    1.0000 </r>
       <r>    4.3401    1.0000 </r>
       <r>    8.0707    0.0000 </r>
       <r>    8.9147    0.0000 </r>
       <r>   10.0894    0.0000 </r>
       <r>   10.3074    0.0000 </r>
       <r>   12.8892    0.0000 </r>
       <r>   15.1057    0.0000 </r>
       <r>   15.6703    0.0000 </r>
       <r>   17.5442    0.0000 </r>
       <r>   19.0977    0.0000 </r>
       <r>   20.5065    0.0000 </r>
       <r>   21.1640    0.0000 </r>
       <r>   23.1238    0.0000 </r>
      </set>
      <set comment="kpoint 61">
       <r>   -4.4320    1.0000 </r>
       <r>   -0.1414    1.0000 </r>
       <r>    2.8738    1.0000 </r>
       <r>    4.0102    1.0000 </r>
       <r>    8.0777    0.0000 </r>
       <r>    8.7756    0.0000 </r>
       <r>   10.1777    0.0000 </r>
       <r>   11.1272    0.0000 </r>
       <r>   13.9590    0.0000 </r>
       <r>   15.1323    0.0000 </r>
       <r>   16.8183    0.0000 </r>
       <r>   17.1848    0.0000 </r>
       <r>   19.3482    0.0000 </r>
       <r>   20.4832    0.0000 </r>
       <r>   21.9995    0.0000 </r>
       <r>   22.8958    0.0000 </r>
      </set>
      <set comment="kpoint 62">
       <r>   -3.8449    1.0000 </r>
       <r>   -1.0839    1.0000 </r>
       <r>    2.7716    1.0000 </r>
       <r>    3.8089    1.0000 </r>
       <r>    8.0345    0.0000 </r>
       <r>    8.6071    0.0000 </r>
       <r>   10.1192    0.0000 </r>
       <r>   12.5501    0.0000 </r>
       <r>   14.0617    0.0000 </r>
       <r>   15.2117    0.0000 </r>
       <r>   16.4185    0.0000 </r>
       <r>   17.7697    0.0000 </r>
       <r>   18.6413    0.0000 </r>
       <r>   20.4200    0.0000 </r>
       <r>   22.8466    0.0000 </r>
       <r>   24.6206    0.0000 </r>
      </set>
      <set comment="kpoint 63">
       <r>   -3.8449    1.0000 </r>
       <r>   -1.0839    1.0000 </r>
       <r>    2.7716    1.0000 </r>
       <r>    3.8089    1.0000 </r>
       <r>    8.0345    0.0000 </r>
       <r>    8.6071    0.0000 </r>
       <r>   10.1192    0.0000 </r>
       <r>   12.5501    0.0000 </r>
       <r>   14.0618    0.0000 </r>
       <r>   15.2117    0.0000 </r>
       <r>   16.4185    0.0000 </r>
       <r>   17.7697    0.0000 </r>
       <r>   18.6414    0.0000 </r>
       <r>   20.4200    0.0000 </r>
       <r>   22.8466    0.0000 </r>
       <r>   24.6206    0.0000 </r>
      </set>
      <set comment="kpoint 64">
       <r>   -4.4320    1.0000 </r>
       <r>   -0.1414    1.0000 </r>
       <r>    2.8738    1.0000 </r>
       <r>    4.0102    1.0000 </r>
       <r>    8.0778    0.0000 </r>
       <r>    8.7755    0.0000 </r>
       <r>   10.1777    0.0000 </r>
       <r>   11.1272    0.0000 </r>
       <r>   13.9590    0.0000 </r>
       <r>   15.1323    0.0000 </r>
       <r>   16.8183    0.0000 </r>
       <r>   17.1848    0.0000 </r>
       <r>   19.3482    0.0000 </r>
       <r>   20.4831    0.0000 </r>
       <r>   21.9995    0.0000 </r>
       <r>   22.8958    0.0000 </r>
      </set>
      <set comment="kpoint 65">
       <r>   -5.0663    1.0000 </r>
       <r>    1.1558    1.0000 </r>
       <r>    3.1326    1.0000 </r>
       <r>    4.3400    1.0000 </r>
       <r>    8.0707    0.0000 </r>
       <r>    8.9147    0.0000 </r>
       <r>   10.0894    0.0000 </r>
       <r>   10.3074    0.0000 </r>
       <r>   12.8892    0.0000 </r>
       <r>   15.1058    0.0000 </r>
       <r>   15.6703    0.0000 </r>
       <r>   17.5442    0.0000 </r>
       <r>   19.0977    0.0000 </r>
       <r>   20.5065    0.0000 </r>
       <r>   21.1640    0.0000 </r>
       <r>   23.1238    0.0000 </r>
      </set>
      <set comment="kpoint 66">
       <r>   -5.5621    1.0000 </r>
       <r>    2.4362    1.0000 </r>
       <r>    3.6856    1.0000 </r>
       <r>    4.6470    1.0000 </r>
       <r>    7.7787    0.0000 </r>
       <r>    8.9305    0.0000 </r>
       <r>    9.7532    0.0000 </r>
       <r>   10.1898    0.0000 </r>
       <r>   12.3300    0.0000 </r>
       <r>   13.7669    0.0000 </r>
       <r>   15.4776    0.0000 </r>
       <r>   16.8282    0.0000 </r>
       <r>   17.9641    0.0000 </r>
       <r>   19.8361    0.0000 </r>
       <r>   22.2455    0.0000 </r>
       <r>   23.8733    0.0000 </r>
      </set>
      <set comment="kpoint 67">
       <r>   -5.3209    1.0000 </r>
       <r>    1.9943    1.0000 </r>
       <r>    3.7592    1.0000 </r>
       <r>    3.8392    1.0000 </r>
       <r>    7.1117    0.0000 </r>
       <r>    9.0989    0.0000 </r>
       <r>   10.2359    0.0000 </r>
       <r>   10.5271    0.0000 </r>
       <r>   13.1747    0.0000 </r>
       <r>   14.0860    0.0000 </r>
       <r>   16.0462    0.0000 </r>
       <r>   17.4797    0.0000 </r>
       <r>   18.4145    0.0000 </r>
       <r>   19.6666    0.0000 </r>
       <r>   22.1750    0.0000 </r>
       <r>   22.6090    0.0000 </r>
      </set>
      <set comment="kpoint 68">
       <r>   -4.8864    1.0000 </r>
       <r>    1.1615    1.0000 </r>
       <r>    2.9924    1.0000 </r>
       <r>    3.6796    1.0000 </r>
       <r>    7.2351    0.0000 </r>
       <r>    8.7420    0.0000 </r>
       <r>   10.3366    0.0000 </r>
       <r>   11.3628    0.0000 </r>
       <r>   13.7624    0.0000 </r>
       <r>   15.2334    0.0000 </r>
       <r>   16.7126    0.0000 </r>
       <r>   17.8058    0.0000 </r>
       <r>   19.0522    0.0000 </r>
       <r>   20.4805    0.0000 </r>
       <r>   20.5558    0.0000 </r>
       <r>   22.7262    0.0000 </r>
      </set>
      <set comment="kpoint 69">
       <r>   -4.2901    1.0000 </r>
       <r>    0.1154    1.0000 </r>
       <r>    2.4312    1.0000 </r>
       <r>    3.3805    1.0000 </r>
       <r>    7.5903    0.0000 </r>
       <r>    9.1488    0.0000 </r>
       <r>   10.0265    0.0000 </r>
       <r>   11.7488    0.0000 </r>
       <r>   14.6253    0.0000 </r>
       <r>   15.9707    0.0000 </r>
       <r>   17.0337    0.0000 </r>
       <r>   17.7968    0.0000 </r>
       <r>   19.3485    0.0000 </r>
       <r>   19.9580    0.0000 </r>
       <r>   21.5656    0.0000 </r>
       <r>   23.2688    0.0000 </r>
      </set>
      <set comment="kpoint 70">
       <r>   -3.6441    1.0000 </r>
       <r>   -0.8541    1.0000 </r>
       <r>    2.0523    1.0000 </r>
       <r>    3.2321    1.0000 </r>
       <r>    7.7214    0.0000 </r>
       <r>    9.6660    0.0000 </r>
       <r>   10.4616    0.0000 </r>
       <r>   11.7067    0.0000 </r>
       <r>   14.3235    0.0000 </r>
       <r>   15.9768    0.0000 </r>
       <r>   16.9800    0.0000 </r>
       <r>   18.2130    0.0000 </r>
       <r>   18.9381    0.0000 </r>
       <r>   21.5697    0.0000 </r>
       <r>   22.8862    0.0000 </r>
       <r>   23.6325    0.0000 </r>
      </set>
      <set comment="kpoint 71">
       <r>   -3.3911    1.0000 </r>
       <r>   -1.1863    1.0000 </r>
       <r>    1.8304    1.0000 </r>
       <r>    3.3178    1.0000 </r>
       <r>    7.9245    0.0000 </r>
       <r>    9.4062    0.0000 </r>
       <r>   11.5919    0.0000 </r>
       <r>   12.1226    0.0000 </r>
       <r>   12.5872    0.0000 </r>
       <r>   15.3020    0.0000 </r>
       <r>   17.4438    0.0000 </r>
       <r>   18.2453    0.0000 </r>
       <r>   20.7190    0.0000 </r>
       <r>   21.2226    0.0000 </r>
       <r>   22.4527    0.0000 </r>
       <r>   23.3890    0.0000 </r>
      </set>
      <set comment="kpoint 72">
       <r>   -3.8745    1.0000 </r>
       <r>   -0.5275    1.0000 </r>
       <r>    1.8270    1.0000 </r>
       <r>    3.6012    1.0000 </r>
       <r>    8.2671    0.0000 </r>
       <r>    9.2245    0.0000 </r>
       <r>   10.9063    0.0000 </r>
       <r>   11.5411    0.0000 </r>
       <r>   13.8045    0.0000 </r>
       <r>   14.0467    0.0000 </r>
       <r>   17.6822    0.0000 </r>
       <r>   19.1771    0.0000 </r>
       <r>   19.7870    0.0000 </r>
       <r>   20.2980    0.0000 </r>
       <r>   22.6189    0.0000 </r>
       <r>   22.9141    0.0000 </r>
      </set>
      <set comment="kpoint 73">
       <r>   -4.5247    1.0000 </r>
       <r>    0.4212    1.0000 </r>
       <r>    2.1985    1.0000 </r>
       <r>    3.9990    1.0000 </r>
       <r>    8.6738    0.0000 </r>
       <r>    8.8137    0.0000 </r>
       <r>   10.0620    0.0000 </r>
       <r>   11.0813    0.0000 </r>
       <r>   12.9015    0.0000 </r>
       <r>   15.7133    0.0000 </r>
       <r>   17.1199    0.0000 </r>
       <r>   17.7998    0.0000 </r>
       <r>   18.7628    0.0000 </r>
       <r>   21.0155    0.0000 </r>
       <r>   21.3216    0.0000 </r>
       <r>   23.7940    0.0000 </r>
      </set>
      <set comment="kpoint 74">
       <r>   -5.0663    1.0000 </r>
       <r>    1.1558    1.0000 </r>
       <r>    3.1327    1.0000 </r>
       <r>    4.3400    1.0000 </r>
       <r>    8.0707    0.0000 </r>
       <r>    8.9147    0.0000 </r>
       <r>   10.0894    0.0000 </r>
       <r>   10.3075    0.0000 </r>
       <r>   12.8892    0.0000 </r>
       <r>   15.1058    0.0000 </r>
       <r>   15.6703    0.0000 </r>
       <r>   17.5442    0.0000 </r>
       <r>   19.0977    0.0000 </r>
       <r>   20.5065    0.0000 </r>
       <r>   21.1639    0.0000 </r>
       <r>   23.1238    0.0000 </r>
      </set>
      <set comment="kpoint 75">
       <r>   -4.5130    1.0000 </r>
       <r>    0.5988    1.0000 </r>
       <r>    2.9548    1.0000 </r>
       <r>    3.2477    1.0000 </r>
       <r>    6.6209    0.0000 </r>
       <r>    7.9845    0.0000 </r>
       <r>   11.7391    0.0000 </r>
       <r>   11.9415    0.0000 </r>
       <r>   15.0553    0.0000 </r>
       <r>   15.2718    0.0000 </r>
       <r>   17.3283    0.0000 </r>
       <r>   18.5718    0.0000 </r>
       <r>   19.0356    0.0000 </r>
       <r>   19.9854    0.0000 </r>
       <r>   21.0600    0.0000 </r>
       <r>   21.9714    0.0000 </r>
      </set>
      <set comment="kpoint 76">
       <r>   -3.9660    1.0000 </r>
       <r>   -0.1814    1.0000 </r>
       <r>    2.5319    1.0000 </r>
       <r>    2.9110    1.0000 </r>
       <r>    6.8922    0.0000 </r>
       <r>    7.7449    0.0000 </r>
       <r>   11.6833    0.0000 </r>
       <r>   13.0622    0.0000 </r>
       <r>   15.3713    0.0000 </r>
       <r>   16.5070    0.0000 </r>
       <r>   16.9916    0.0000 </r>
       <r>   18.4931    0.0000 </r>
       <r>   19.3155    0.0000 </r>
       <r>   20.0140    0.0000 </r>
       <r>   21.4029    0.0000 </r>
       <r>   21.9794    0.0000 </r>
      </set>
      <set comment="kpoint 77">
       <r>   -3.3101    1.0000 </r>
       <r>   -0.9797    1.0000 </r>
       <r>    1.9156    1.0000 </r>
       <r>    2.7400    1.0000 </r>
       <r>    7.2349    0.0000 </r>
       <r>    8.5303    0.0000 </r>
       <r>   11.3437    0.0000 </r>
       <r>   13.4117    0.0000 </r>
       <r>   14.6037    0.0000 </r>
       <r>   16.4256    0.0000 </r>
       <r>   17.2870    0.0000 </r>
       <r>   18.9595    0.0000 </r>
       <r>   19.7753    0.0000 </r>
       <r>   20.3030    0.0000 </r>
       <r>   22.2229    0.0000 </r>
       <r>   22.7501    0.0000 </r>
      </set>
      <set comment="kpoint 78">
       <r>   -2.8632    1.0000 </r>
       <r>   -1.4578    1.0000 </r>
       <r>    1.4159    1.0000 </r>
       <r>    2.8513    1.0000 </r>
       <r>    7.4436    0.0000 </r>
       <r>   10.0705    0.0000 </r>
       <r>   11.0467    0.0000 </r>
       <r>   12.6132    0.0000 </r>
       <r>   13.3861    0.0000 </r>
       <r>   15.3913    0.0000 </r>
       <r>   18.2795    0.0000 </r>
       <r>   19.5221    0.0000 </r>
       <r>   20.7149    0.0000 </r>
       <r>   21.1817    0.0000 </r>
       <r>   22.4004    0.0000 </r>
       <r>   23.2841    0.0000 </r>
      </set>
      <set comment="kpoint 79">
       <r>   -3.2356    1.0000 </r>
       <r>   -1.0687    1.0000 </r>
       <r>    1.3157    1.0000 </r>
       <r>    3.1624    1.0000 </r>
       <r>    7.8005    0.0000 </r>
       <r>   10.4632    0.0000 </r>
       <r>   11.1660    0.0000 </r>
       <r>   12.0502    0.0000 </r>
       <r>   12.8624    0.0000 </r>
       <r>   14.0759    0.0000 </r>
       <r>   19.4186    0.0000 </r>
       <r>   19.6757    0.0000 </r>
       <r>   19.8795    0.0000 </r>
       <r>   21.6121    0.0000 </r>
       <r>   21.7070    0.0000 </r>
       <r>   22.7984    0.0000 </r>
      </set>
      <set comment="kpoint 80">
       <r>   -3.8745    1.0000 </r>
       <r>   -0.5275    1.0000 </r>
       <r>    1.8270    1.0000 </r>
       <r>    3.6012    1.0000 </r>
       <r>    8.2671    0.0000 </r>
       <r>    9.2245    0.0000 </r>
       <r>   10.9064    0.0000 </r>
       <r>   11.5412    0.0000 </r>
       <r>   13.8045    0.0000 </r>
       <r>   14.0466    0.0000 </r>
       <r>   17.6822    0.0000 </r>
       <r>   19.1770    0.0000 </r>
       <r>   19.7870    0.0000 </r>
       <r>   20.2981    0.0000 </r>
       <r>   22.6189    0.0000 </r>
       <r>   22.9141    0.0000 </r>
      </set>
      <set comment="kpoint 81">
       <r>   -4.4320    1.0000 </r>
       <r>   -0.1414    1.0000 </r>
       <r>    2.8738    1.0000 </r>
       <r>    4.0102    1.0000 </r>
       <r>    8.0778    0.0000 </r>
       <r>    8.7755    0.0000 </r>
       <r>   10.1778    0.0000 </r>
       <r>   11.1272    0.0000 </r>
       <r>   13.9590    0.0000 </r>
       <r>   15.1323    0.0000 </r>
       <r>   16.8183    0.0000 </r>
       <r>   17.1848    0.0000 </r>
       <r>   19.3481    0.0000 </r>
       <r>   20.4832    0.0000 </r>
       <r>   21.9995    0.0000 </r>
       <r>   22.8959    0.0000 </r>
      </set>
      <set comment="kpoint 82">
       <r>   -3.4693    1.0000 </r>
       <r>   -0.8399    1.0000 </r>
       <r>    2.4703    1.0000 </r>
       <r>    2.8786    1.0000 </r>
       <r>    6.3559    0.0000 </r>
       <r>    7.1692    0.0000 </r>
       <r>   13.3998    0.0000 </r>
       <r>   13.4299    0.0000 </r>
       <r>   16.6717    0.0000 </r>
       <r>   16.7468    0.0000 </r>
       <r>   17.0300    0.0000 </r>
       <r>   17.1574    0.0000 </r>
       <r>   19.6901    0.0000 </r>
       <r>   20.3098    0.0000 </r>
       <r>   20.9509    0.0000 </r>
       <r>   22.9697    0.0000 </r>
      </set>
      <set comment="kpoint 83">
       <r>   -2.8341    1.0000 </r>
       <r>   -1.5451    1.0000 </r>
       <r>    2.3473    1.0000 </r>
       <r>    2.4660    1.0000 </r>
       <r>    6.8315    0.0000 </r>
       <r>    7.1034    0.0000 </r>
       <r>   13.1845    0.0000 </r>
       <r>   14.5305    0.0000 </r>
       <r>   15.2169    0.0000 </r>
       <r>   16.5797    0.0000 </r>
       <r>   17.2897    0.0000 </r>
       <r>   18.7446    0.0000 </r>
       <r>   18.9084    0.0000 </r>
       <r>   20.5252    0.0000 </r>
       <r>   21.8089    0.0000 </r>
       <r>   23.1226    0.0000 </r>
      </set>
      <set comment="kpoint 84">
       <r>   -2.3517    1.0000 </r>
       <r>   -1.9764    1.0000 </r>
       <r>    1.7190    1.0000 </r>
       <r>    2.5354    1.0000 </r>
       <r>    7.1083    0.0000 </r>
       <r>    8.3253    0.0000 </r>
       <r>   12.7454    0.0000 </r>
       <r>   12.9699    0.0000 </r>
       <r>   14.9768    0.0000 </r>
       <r>   15.6197    0.0000 </r>
       <r>   18.1616    0.0000 </r>
       <r>   18.9595    0.0000 </r>
       <r>   20.6473    0.0000 </r>
       <r>   21.2816    0.0000 </r>
       <r>   21.8990    0.0000 </r>
       <r>   22.3057    0.0000 </r>
      </set>
      <set comment="kpoint 85">
       <r>   -2.8632    1.0000 </r>
       <r>   -1.4578    1.0000 </r>
       <r>    1.4159    1.0000 </r>
       <r>    2.8513    1.0000 </r>
       <r>    7.4436    0.0000 </r>
       <r>   10.0705    0.0000 </r>
       <r>   11.0467    0.0000 </r>
       <r>   12.6133    0.0000 </r>
       <r>   13.3862    0.0000 </r>
       <r>   15.3912    0.0000 </r>
       <r>   18.2795    0.0000 </r>
       <r>   19.5221    0.0000 </r>
       <r>   20.7149    0.0000 </r>
       <r>   21.1818    0.0000 </r>
       <r>   22.4004    0.0000 </r>
       <r>   23.2840    0.0000 </r>
      </set>
      <set comment="kpoint 86">
       <r>   -3.3911    1.0000 </r>
       <r>   -1.1863    1.0000 </r>
       <r>    1.8304    1.0000 </r>
       <r>    3.3177    1.0000 </r>
       <r>    7.9245    0.0000 </r>
       <r>    9.4061    0.0000 </r>
       <r>   11.5919    0.0000 </r>
       <r>   12.1225    0.0000 </r>
       <r>   12.5873    0.0000 </r>
       <r>   15.3019    0.0000 </r>
       <r>   17.4438    0.0000 </r>
       <r>   18.2453    0.0000 </r>
       <r>   20.7191    0.0000 </r>
       <r>   21.2226    0.0000 </r>
       <r>   22.4528    0.0000 </r>
       <r>   23.3890    0.0000 </r>
      </set>
      <set comment="kpoint 87">
       <r>   -3.8449    1.0000 </r>
       <r>   -1.0839    1.0000 </r>
       <r>    2.7717    1.0000 </r>
       <r>    3.8088    1.0000 </r>
       <r>    8.0345    0.0000 </r>
       <r>    8.6070    0.0000 </r>
       <r>   10.1193    0.0000 </r>
       <r>   12.5501    0.0000 </r>
       <r>   14.0617    0.0000 </r>
       <r>   15.2116    0.0000 </r>
       <r>   16.4185    0.0000 </r>
       <r>   17.7696    0.0000 </r>
       <r>   18.6414    0.0000 </r>
       <r>   20.4201    0.0000 </r>
       <r>   22.8466    0.0000 </r>
       <r>   24.6206    0.0000 </r>
      </set>
      <set comment="kpoint 88">
       <r>   -2.2810    1.0000 </r>
       <r>   -2.1689    1.0000 </r>
       <r>    2.3102    1.0000 </r>
       <r>    2.7536    1.0000 </r>
       <r>    6.2972    0.0000 </r>
       <r>    6.8607    0.0000 </r>
       <r>   14.6544    0.0000 </r>
       <r>   14.8603    0.0000 </r>
       <r>   15.4514    0.0000 </r>
       <r>   15.6711    0.0000 </r>
       <r>   18.4118    0.0000 </r>
       <r>   18.4537    0.0000 </r>
       <r>   18.4647    0.0000 </r>
       <r>   19.0132    0.0000 </r>
       <r>   23.0414    0.0000 </r>
       <r>   23.3648    0.0000 </r>
      </set>
      <set comment="kpoint 89">
       <r>   -2.8341    1.0000 </r>
       <r>   -1.5451    1.0000 </r>
       <r>    2.3473    1.0000 </r>
       <r>    2.4660    1.0000 </r>
       <r>    6.8315    0.0000 </r>
       <r>    7.1034    0.0000 </r>
       <r>   13.1844    0.0000 </r>
       <r>   14.5305    0.0000 </r>
       <r>   15.2170    0.0000 </r>
       <r>   16.5797    0.0000 </r>
       <r>   17.2897    0.0000 </r>
       <r>   18.7446    0.0000 </r>
       <r>   18.9085    0.0000 </r>
       <r>   20.5251    0.0000 </r>
       <r>   21.8088    0.0000 </r>
       <r>   23.1227    0.0000 </r>
      </set>
      <set comment="kpoint 90">
       <r>   -3.3101    1.0000 </r>
       <r>   -0.9797    1.0000 </r>
       <r>    1.9157    1.0000 </r>
       <r>    2.7400    1.0000 </r>
       <r>    7.2349    0.0000 </r>
       <r>    8.5303    0.0000 </r>
       <r>   11.3437    0.0000 </r>
       <r>   13.4117    0.0000 </r>
       <r>   14.6037    0.0000 </r>
       <r>   16.4255    0.0000 </r>
       <r>   17.2869    0.0000 </r>
       <r>   18.9596    0.0000 </r>
       <r>   19.7753    0.0000 </r>
       <r>   20.3031    0.0000 </r>
       <r>   22.2228    0.0000 </r>
       <r>   22.7501    0.0000 </r>
      </set>
      <set comment="kpoint 91">
       <r>   -3.6441    1.0000 </r>
       <r>   -0.8541    1.0000 </r>
       <r>    2.0524    1.0000 </r>
       <r>    3.2321    1.0000 </r>
       <r>    7.7214    0.0000 </r>
       <r>    9.6659    0.0000 </r>
       <r>   10.4616    0.0000 </r>
       <r>   11.7068    0.0000 </r>
       <r>   14.3235    0.0000 </r>
       <r>   15.9767    0.0000 </r>
       <r>   16.9799    0.0000 </r>
       <r>   18.2130    0.0000 </r>
       <r>   18.9382    0.0000 </r>
       <r>   21.5697    0.0000 </r>
       <r>   22.8862    0.0000 </r>
       <r>   23.6325    0.0000 </r>
      </set>
      <set comment="kpoint 92">
       <r>   -3.8449    1.0000 </r>
       <r>   -1.0839    1.0000 </r>
       <r>    2.7717    1.0000 </r>
       <r>    3.8088    1.0000 </r>
       <r>    8.0345    0.0000 </r>
       <r>    8.6070    0.0000 </r>
       <r>   10.1193    0.0000 </r>
       <r>   12.5501    0.0000 </r>
       <r>   14.0618    0.0000 </r>
       <r>   15.2116    0.0000 </r>
       <r>   16.4185    0.0000 </r>
       <r>   17.7696    0.0000 </r>
       <r>   18.6414    0.0000 </r>
       <r>   20.4200    0.0000 </r>
       <r>   22.8466    0.0000 </r>
       <r>   24.6206    0.0000 </r>
      </set>
      <set comment="kpoint 93">
       <r>   -3.4694    1.0000 </r>
       <r>   -0.8399    1.0000 </r>
       <r>    2.4703    1.0000 </r>
       <r>    2.8786    1.0000 </r>
       <r>    6.3559    0.0000 </r>
       <r>    7.1692    0.0000 </r>
       <r>   13.3998    0.0000 </r>
       <r>   13.4298    0.0000 </r>
       <r>   16.6717    0.0000 </r>
       <r>   16.7469    0.0000 </r>
       <r>   17.0301    0.0000 </r>
       <r>   17.1575    0.0000 </r>
       <r>   19.6900    0.0000 </r>
       <r>   20.3097    0.0000 </r>
       <r>   20.9508    0.0000 </r>
       <r>   22.9697    0.0000 </r>
      </set>
      <set comment="kpoint 94">
       <r>   -3.9660    1.0000 </r>
       <r>   -0.1814    1.0000 </r>
       <r>    2.5319    1.0000 </r>
       <r>    2.9110    1.0000 </r>
       <r>    6.8922    0.0000 </r>
       <r>    7.7449    0.0000 </r>
       <r>   11.6832    0.0000 </r>
       <r>   13.0622    0.0000 </r>
       <r>   15.3713    0.0000 </r>
       <r>   16.5071    0.0000 </r>
       <r>   16.9916    0.0000 </r>
       <r>   18.4931    0.0000 </r>
       <r>   19.3155    0.0000 </r>
       <r>   20.0139    0.0000 </r>
       <r>   21.4029    0.0000 </r>
       <r>   21.9793    0.0000 </r>
      </set>
      <set comment="kpoint 95">
       <r>   -4.2901    1.0000 </r>
       <r>    0.1154    1.0000 </r>
       <r>    2.4312    1.0000 </r>
       <r>    3.3804    1.0000 </r>
       <r>    7.5903    0.0000 </r>
       <r>    9.1488    0.0000 </r>
       <r>   10.0265    0.0000 </r>
       <r>   11.7489    0.0000 </r>
       <r>   14.6253    0.0000 </r>
       <r>   15.9707    0.0000 </r>
       <r>   17.0338    0.0000 </r>
       <r>   17.7968    0.0000 </r>
       <r>   19.3485    0.0000 </r>
       <r>   19.9580    0.0000 </r>
       <r>   21.5656    0.0000 </r>
       <r>   23.2688    0.0000 </r>
      </set>
      <set comment="kpoint 96">
       <r>   -4.4320    1.0000 </r>
       <r>   -0.1414    1.0000 </r>
       <r>    2.8738    1.0000 </r>
       <r>    4.0101    1.0000 </r>
       <r>    8.0778    0.0000 </r>
       <r>    8.7755    0.0000 </r>
       <r>   10.1778    0.0000 </r>
       <r>   11.1272    0.0000 </r>
       <r>   13.9590    0.0000 </r>
       <r>   15.1323    0.0000 </r>
       <r>   16.8184    0.0000 </r>
       <r>   17.1848    0.0000 </r>
       <r>   19.3481    0.0000 </r>
       <r>   20.4832    0.0000 </r>
       <r>   21.9994    0.0000 </r>
       <r>   22.8959    0.0000 </r>
      </set>
      <set comment="kpoint 97">
       <r>   -4.5130    1.0000 </r>
       <r>    0.5989    1.0000 </r>
       <r>    2.9547    1.0000 </r>
       <r>    3.2477    1.0000 </r>
       <r>    6.6209    0.0000 </r>
       <r>    7.9845    0.0000 </r>
       <r>   11.7391    0.0000 </r>
       <r>   11.9414    0.0000 </r>
       <r>   15.0553    0.0000 </r>
       <r>   15.2719    0.0000 </r>
       <r>   17.3283    0.0000 </r>
       <r>   18.5718    0.0000 </r>
       <r>   19.0355    0.0000 </r>
       <r>   19.9854    0.0000 </r>
       <r>   21.0601    0.0000 </r>
       <r>   21.9715    0.0000 </r>
      </set>
      <set comment="kpoint 98">
       <r>   -4.8864    1.0000 </r>
       <r>    1.1615    1.0000 </r>
       <r>    2.9923    1.0000 </r>
       <r>    3.6795    1.0000 </r>
       <r>    7.2351    0.0000 </r>
       <r>    8.7420    0.0000 </r>
       <r>   10.3366    0.0000 </r>
       <r>   11.3629    0.0000 </r>
       <r>   13.7624    0.0000 </r>
       <r>   15.2335    0.0000 </r>
       <r>   16.7126    0.0000 </r>
       <r>   17.8058    0.0000 </r>
       <r>   19.0522    0.0000 </r>
       <r>   20.4805    0.0000 </r>
       <r>   20.5559    0.0000 </r>
       <r>   22.7262    0.0000 </r>
      </set>
      <set comment="kpoint 99">
       <r>   -5.0663    1.0000 </r>
       <r>    1.1558    1.0000 </r>
       <r>    3.1327    1.0000 </r>
       <r>    4.3400    1.0000 </r>
       <r>    8.0707    0.0000 </r>
       <r>    8.9147    0.0000 </r>
       <r>   10.0894    0.0000 </r>
       <r>   10.3075    0.0000 </r>
       <r>   12.8892    0.0000 </r>
       <r>   15.1058    0.0000 </r>
       <r>   15.6703    0.0000 </r>
       <r>   17.5442    0.0000 </r>
       <r>   19.0977    0.0000 </r>
       <r>   20.5066    0.0000 </r>
       <r>   21.1639    0.0000 </r>
       <r>   23.1238    0.0000 </r>
      </set>
      <set comment="kpoint 100">
       <r>   -5.3209    1.0000 </r>
       <r>    1.9943    1.0000 </r>
       <r>    3.7591    1.0000 </r>
       <r>    3.8392    1.0000 </r>
       <r>    7.1117    0.0000 </r>
       <r>    9.0989    0.0000 </r>
       <r>   10.2359    0.0000 </r>
       <r>   10.5270    0.0000 </r>
       <r>   13.1748    0.0000 </r>
       <r>   14.0861    0.0000 </r>
       <r>   16.0462    0.0000 </r>
       <r>   17.4797    0.0000 </r>
       <r>   18.4145    0.0000 </r>
       <r>   19.6666    0.0000 </r>
       <r>   22.1751    0.0000 </r>
       <r>   22.6090    0.0000 </r>
      </set>
      <set comment="kpoint 101">
       <r>   -5.5621    1.0000 </r>
       <r>    2.4363    1.0000 </r>
       <r>    3.6855    1.0000 </r>
       <r>    4.6470    1.0000 </r>
       <r>    7.7787    0.0000 </r>
       <r>    8.9305    0.0000 </r>
       <r>    9.7532    0.0000 </r>
       <r>   10.1898    0.0000 </r>
       <r>   12.3300    0.0000 </r>
       <r>   13.7670    0.0000 </r>
       <r>   15.4776    0.0000 </r>
       <r>   16.8281    0.0000 </r>
       <r>   17.9641    0.0000 </r>
       <r>   19.8361    0.0000 </r>
       <r>   22.2456    0.0000 </r>
       <r>   23.8733    0.0000 </r>
      </set>
      <set comment="kpoint 102">
       <r>   -5.8702    1.0000 </r>
       <r>    3.2910    1.0000 </r>
       <r>    4.5917    1.0000 </r>
       <r>    4.7547    1.0000 </r>
       <r>    7.7177    0.0000 </r>
       <r>    8.6270    0.0000 </r>
       <r>    9.2187    0.0000 </r>
       <r>   10.2202    0.0000 </r>
       <r>   12.0117    0.0000 </r>
       <r>   13.2671    0.0000 </r>
       <r>   14.6454    0.0000 </r>
       <r>   16.4218    0.0000 </r>
       <r>   17.6485    0.0000 </r>
       <r>   18.5329    0.0000 </r>
       <r>   22.8776    0.0000 </r>
       <r>   24.4937    0.0000 </r>
      </set>
      <set comment="kpoint 103">
       <r>   -5.8377    1.0000 </r>
       <r>    2.8168    1.0000 </r>
       <r>    4.9571    1.0000 </r>
       <r>    4.9571    1.0000 </r>
       <r>    7.6150    0.0000 </r>
       <r>    8.6975    0.0000 </r>
       <r>    8.6975    0.0000 </r>
       <r>   10.8582    0.0000 </r>
       <r>   12.5080    0.0000 </r>
       <r>   12.5080    0.0000 </r>
       <r>   14.4421    0.0000 </r>
       <r>   16.0500    0.0000 </r>
       <r>   18.6693    0.0000 </r>
       <r>   18.6693    0.0000 </r>
       <r>   22.7595    0.0000 </r>
       <r>   24.6221    0.0000 </r>
      </set>
      <set comment="kpoint 104">
       <r>   -5.8702    1.0000 </r>
       <r>    3.2910    1.0000 </r>
       <r>    4.5917    1.0000 </r>
       <r>    4.7548    1.0000 </r>
       <r>    7.7177    0.0000 </r>
       <r>    8.6270    0.0000 </r>
       <r>    9.2187    0.0000 </r>
       <r>   10.2202    0.0000 </r>
       <r>   12.0117    0.0000 </r>
       <r>   13.2671    0.0000 </r>
       <r>   14.6454    0.0000 </r>
       <r>   16.4218    0.0000 </r>
       <r>   17.6486    0.0000 </r>
       <r>   18.5328    0.0000 </r>
       <r>   22.8776    0.0000 </r>
       <r>   24.4936    0.0000 </r>
      </set>
      <set comment="kpoint 105">
       <r>   -5.6956    1.0000 </r>
       <r>    3.1167    1.0000 </r>
       <r>    4.1726    1.0000 </r>
       <r>    4.1727    1.0000 </r>
       <r>    7.0614    0.0000 </r>
       <r>    9.4621    0.0000 </r>
       <r>    9.9526    0.0000 </r>
       <r>    9.9526    0.0000 </r>
       <r>   12.0249    0.0000 </r>
       <r>   13.7747    0.0000 </r>
       <r>   15.2884    0.0000 </r>
       <r>   17.5369    0.0000 </r>
       <r>   17.5370    0.0000 </r>
       <r>   18.1282    0.0000 </r>
       <r>   23.9880    0.0000 </r>
       <r>   24.1318    0.0000 </r>
      </set>
      <set comment="kpoint 106">
       <r>   -5.3209    1.0000 </r>
       <r>    1.9943    1.0000 </r>
       <r>    3.7592    1.0000 </r>
       <r>    3.8392    1.0000 </r>
       <r>    7.1117    0.0000 </r>
       <r>    9.0989    0.0000 </r>
       <r>   10.2359    0.0000 </r>
       <r>   10.5271    0.0000 </r>
       <r>   13.1747    0.0000 </r>
       <r>   14.0860    0.0000 </r>
       <r>   16.0462    0.0000 </r>
       <r>   17.4797    0.0000 </r>
       <r>   18.4145    0.0000 </r>
       <r>   19.6666    0.0000 </r>
       <r>   22.1750    0.0000 </r>
       <r>   22.6090    0.0000 </r>
      </set>
      <set comment="kpoint 107">
       <r>   -4.7693    1.0000 </r>
       <r>    0.6687    1.0000 </r>
       <r>    3.2377    1.0000 </r>
       <r>    3.6469    1.0000 </r>
       <r>    7.3425    0.0000 </r>
       <r>    9.4507    0.0000 </r>
       <r>   10.0376    0.0000 </r>
       <r>   10.6225    0.0000 </r>
       <r>   14.8729    0.0000 </r>
       <r>   14.8807    0.0000 </r>
       <r>   15.8350    0.0000 </r>
       <r>   18.5028    0.0000 </r>
       <r>   18.6799    0.0000 </r>
       <r>   20.2859    0.0000 </r>
       <r>   21.2420    0.0000 </r>
       <r>   22.4798    0.0000 </r>
      </set>
      <set comment="kpoint 108">
       <r>   -4.1154    1.0000 </r>
       <r>   -0.5245    1.0000 </r>
       <r>    2.7732    1.0000 </r>
       <r>    3.6138    1.0000 </r>
       <r>    7.3793    0.0000 </r>
       <r>    9.7886    0.0000 </r>
       <r>   10.3893    0.0000 </r>
       <r>   10.6610    0.0000 </r>
       <r>   15.2423    0.0000 </r>
       <r>   16.1777    0.0000 </r>
       <r>   16.6958    0.0000 </r>
       <r>   16.9302    0.0000 </r>
       <r>   17.9285    0.0000 </r>
       <r>   21.2835    0.0000 </r>
       <r>   22.9022    0.0000 </r>
       <r>   23.0064    0.0000 </r>
      </set>
      <set comment="kpoint 109">
       <r>   -3.6564    1.0000 </r>
       <r>   -1.2032    1.0000 </r>
       <r>    2.4486    1.0000 </r>
       <r>    3.7390    1.0000 </r>
       <r>    7.4695    0.0000 </r>
       <r>    9.6720    0.0000 </r>
       <r>   10.1105    0.0000 </r>
       <r>   12.2445    0.0000 </r>
       <r>   14.3868    0.0000 </r>
       <r>   14.8723    0.0000 </r>
       <r>   16.7798    0.0000 </r>
       <r>   18.0290    0.0000 </r>
       <r>   18.5906    0.0000 </r>
       <r>   20.8051    0.0000 </r>
       <r>   23.8297    0.0000 </r>
       <r>   24.0742    0.0000 </r>
      </set>
      <set comment="kpoint 110">
       <r>   -3.9275    1.0000 </r>
       <r>   -0.8100    1.0000 </r>
       <r>    2.3045    1.0000 </r>
       <r>    4.0069    1.0000 </r>
       <r>    7.7026    0.0000 </r>
       <r>    9.6721    0.0000 </r>
       <r>    9.8882    0.0000 </r>
       <r>   13.0202    0.0000 </r>
       <r>   13.1895    0.0000 </r>
       <r>   13.9649    0.0000 </r>
       <r>   16.6766    0.0000 </r>
       <r>   18.9656    0.0000 </r>
       <r>   19.9776    0.0000 </r>
       <r>   20.1208    0.0000 </r>
       <r>   21.5978    0.0000 </r>
       <r>   23.9161    0.0000 </r>
      </set>
      <set comment="kpoint 111">
       <r>   -4.5718    1.0000 </r>
       <r>    0.2638    1.0000 </r>
       <r>    2.3926    1.0000 </r>
       <r>    4.3807    1.0000 </r>
       <r>    8.0428    0.0000 </r>
       <r>    9.6361    0.0000 </r>
       <r>    9.7335    0.0000 </r>
       <r>   11.6444    0.0000 </r>
       <r>   11.9838    0.0000 </r>
       <r>   15.3873    0.0000 </r>
       <r>   17.0215    0.0000 </r>
       <r>   17.3688    0.0000 </r>
       <r>   19.1424    0.0000 </r>
       <r>   21.1400    0.0000 </r>
       <r>   21.8094    0.0000 </r>
       <r>   22.6818    0.0000 </r>
      </set>
      <set comment="kpoint 112">
       <r>   -5.1666    1.0000 </r>
       <r>    1.4178    1.0000 </r>
       <r>    2.8693    1.0000 </r>
       <r>    4.7801    1.0000 </r>
       <r>    8.3380    0.0000 </r>
       <r>    9.1495    0.0000 </r>
       <r>    9.4286    0.0000 </r>
       <r>   10.9837    0.0000 </r>
       <r>   11.5706    0.0000 </r>
       <r>   15.1910    0.0000 </r>
       <r>   15.8915    0.0000 </r>
       <r>   16.9884    0.0000 </r>
       <r>   18.9779    0.0000 </r>
       <r>   20.2141    0.0000 </r>
       <r>   21.6896    0.0000 </r>
       <r>   23.6190    0.0000 </r>
      </set>
      <set comment="kpoint 113">
       <r>   -5.5995    1.0000 </r>
       <r>    2.2239    1.0000 </r>
       <r>    3.9434    1.0000 </r>
       <r>    5.0389    1.0000 </r>
       <r>    8.0418    0.0000 </r>
       <r>    8.6806    0.0000 </r>
       <r>    9.0161    0.0000 </r>
       <r>   11.1031    0.0000 </r>
       <r>   11.8557    0.0000 </r>
       <r>   13.5208    0.0000 </r>
       <r>   14.9910    0.0000 </r>
       <r>   16.6002    0.0000 </r>
       <r>   18.3859    0.0000 </r>
       <r>   20.1516    0.0000 </r>
       <r>   22.2622    0.0000 </r>
       <r>   23.5220    0.0000 </r>
      </set>
      <set comment="kpoint 114">
       <r>   -5.9742    1.0000 </r>
       <r>    3.6581    1.0000 </r>
       <r>    4.4970    1.0000 </r>
       <r>    5.3066    1.0000 </r>
       <r>    8.2704    0.0000 </r>
       <r>    8.2873    0.0000 </r>
       <r>    8.4406    0.0000 </r>
       <r>   10.1659    0.0000 </r>
       <r>   12.1864    0.0000 </r>
       <r>   13.0052    0.0000 </r>
       <r>   14.3290    0.0000 </r>
       <r>   16.4111    0.0000 </r>
       <r>   17.1097    0.0000 </r>
       <r>   18.5030    0.0000 </r>
       <r>   22.2675    0.0000 </r>
       <r>   24.6337    0.0000 </r>
      </set>
      <set comment="kpoint 115">
       <r>   -5.8702    1.0000 </r>
       <r>    3.2909    1.0000 </r>
       <r>    4.5917    1.0000 </r>
       <r>    4.7548    1.0000 </r>
       <r>    7.7177    0.0000 </r>
       <r>    8.6270    0.0000 </r>
       <r>    9.2187    0.0000 </r>
       <r>   10.2202    0.0000 </r>
       <r>   12.0117    0.0000 </r>
       <r>   13.2670    0.0000 </r>
       <r>   14.6454    0.0000 </r>
       <r>   16.4219    0.0000 </r>
       <r>   17.6485    0.0000 </r>
       <r>   18.5328    0.0000 </r>
       <r>   22.8776    0.0000 </r>
       <r>   24.4936    0.0000 </r>
      </set>
      <set comment="kpoint 116">
       <r>   -5.5621    1.0000 </r>
       <r>    2.4362    1.0000 </r>
       <r>    3.6856    1.0000 </r>
       <r>    4.6471    1.0000 </r>
       <r>    7.7787    0.0000 </r>
       <r>    8.9305    0.0000 </r>
       <r>    9.7532    0.0000 </r>
       <r>   10.1898    0.0000 </r>
       <r>   12.3300    0.0000 </r>
       <r>   13.7669    0.0000 </r>
       <r>   15.4776    0.0000 </r>
       <r>   16.8282    0.0000 </r>
       <r>   17.9641    0.0000 </r>
       <r>   19.8360    0.0000 </r>
       <r>   22.2455    0.0000 </r>
       <r>   23.8733    0.0000 </r>
      </set>
      <set comment="kpoint 117">
       <r>   -5.0663    1.0000 </r>
       <r>    1.1558    1.0000 </r>
       <r>    3.1326    1.0000 </r>
       <r>    4.3401    1.0000 </r>
       <r>    8.0707    0.0000 </r>
       <r>    8.9147    0.0000 </r>
       <r>   10.0894    0.0000 </r>
       <r>   10.3075    0.0000 </r>
       <r>   12.8892    0.0000 </r>
       <r>   15.1057    0.0000 </r>
       <r>   15.6703    0.0000 </r>
       <r>   17.5442    0.0000 </r>
       <r>   19.0977    0.0000 </r>
       <r>   20.5065    0.0000 </r>
       <r>   21.1639    0.0000 </r>
       <r>   23.1238    0.0000 </r>
      </set>
      <set comment="kpoint 118">
       <r>   -4.4320    1.0000 </r>
       <r>   -0.1414    1.0000 </r>
       <r>    2.8738    1.0000 </r>
       <r>    4.0102    1.0000 </r>
       <r>    8.0778    0.0000 </r>
       <r>    8.7755    0.0000 </r>
       <r>   10.1778    0.0000 </r>
       <r>   11.1272    0.0000 </r>
       <r>   13.9590    0.0000 </r>
       <r>   15.1323    0.0000 </r>
       <r>   16.8183    0.0000 </r>
       <r>   17.1848    0.0000 </r>
       <r>   19.3482    0.0000 </r>
       <r>   20.4832    0.0000 </r>
       <r>   21.9995    0.0000 </r>
       <r>   22.8959    0.0000 </r>
      </set>
      <set comment="kpoint 119">
       <r>   -3.8449    1.0000 </r>
       <r>   -1.0839    1.0000 </r>
       <r>    2.7717    1.0000 </r>
       <r>    3.8089    1.0000 </r>
       <r>    8.0345    0.0000 </r>
       <r>    8.6071    0.0000 </r>
       <r>   10.1192    0.0000 </r>
       <r>   12.5502    0.0000 </r>
       <r>   14.0617    0.0000 </r>
       <r>   15.2117    0.0000 </r>
       <r>   16.4185    0.0000 </r>
       <r>   17.7697    0.0000 </r>
       <r>   18.6413    0.0000 </r>
       <r>   20.4201    0.0000 </r>
       <r>   22.8466    0.0000 </r>
       <r>   24.6206    0.0000 </r>
      </set>
      <set comment="kpoint 120">
       <r>   -3.8449    1.0000 </r>
       <r>   -1.0839    1.0000 </r>
       <r>    2.7717    1.0000 </r>
       <r>    3.8089    1.0000 </r>
       <r>    8.0345    0.0000 </r>
       <r>    8.6071    0.0000 </r>
       <r>   10.1192    0.0000 </r>
       <r>   12.5501    0.0000 </r>
       <r>   14.0618    0.0000 </r>
       <r>   15.2117    0.0000 </r>
       <r>   16.4185    0.0000 </r>
       <r>   17.7697    0.0000 </r>
       <r>   18.6414    0.0000 </r>
       <r>   20.4200    0.0000 </r>
       <r>   22.8466    0.0000 </r>
       <r>   24.6206    0.0000 </r>
      </set>
      <set comment="kpoint 121">
       <r>   -4.4320    1.0000 </r>
       <r>   -0.1414    1.0000 </r>
       <r>    2.8738    1.0000 </r>
       <r>    4.0102    1.0000 </r>
       <r>    8.0778    0.0000 </r>
       <r>    8.7755    0.0000 </r>
       <r>   10.1778    0.0000 </r>
       <r>   11.1272    0.0000 </r>
       <r>   13.9590    0.0000 </r>
       <r>   15.1323    0.0000 </r>
       <r>   16.8184    0.0000 </r>
       <r>   17.1848    0.0000 </r>
       <r>   19.3481    0.0000 </r>
       <r>   20.4832    0.0000 </r>
       <r>   21.9994    0.0000 </r>
       <r>   22.8958    0.0000 </r>
      </set>
      <set comment="kpoint 122">
       <r>   -5.0663    1.0000 </r>
       <r>    1.1558    1.0000 </r>
       <r>    3.1326    1.0000 </r>
       <r>    4.3400    1.0000 </r>
       <r>    8.0707    0.0000 </r>
       <r>    8.9147    0.0000 </r>
       <r>   10.0894    0.0000 </r>
       <r>   10.3074    0.0000 </r>
       <r>   12.8892    0.0000 </r>
       <r>   15.1058    0.0000 </r>
       <r>   15.6703    0.0000 </r>
       <r>   17.5442    0.0000 </r>
       <r>   19.0977    0.0000 </r>
       <r>   20.5065    0.0000 </r>
       <r>   21.1640    0.0000 </r>
       <r>   23.1238    0.0000 </r>
      </set>
      <set comment="kpoint 123">
       <r>   -5.5621    1.0000 </r>
       <r>    2.4363    1.0000 </r>
       <r>    3.6855    1.0000 </r>
       <r>    4.6470    1.0000 </r>
       <r>    7.7787    0.0000 </r>
       <r>    8.9305    0.0000 </r>
       <r>    9.7532    0.0000 </r>
       <r>   10.1898    0.0000 </r>
       <r>   12.3300    0.0000 </r>
       <r>   13.7670    0.0000 </r>
       <r>   15.4776    0.0000 </r>
       <r>   16.8281    0.0000 </r>
       <r>   17.9641    0.0000 </r>
       <r>   19.8361    0.0000 </r>
       <r>   22.2456    0.0000 </r>
       <r>   23.8733    0.0000 </r>
      </set>
      <set comment="kpoint 124">
       <r>   -5.8377    1.0000 </r>
       <r>    2.8168    1.0000 </r>
       <r>    4.9571    1.0000 </r>
       <r>    4.9572    1.0000 </r>
       <r>    7.6151    0.0000 </r>
       <r>    8.6975    0.0000 </r>
       <r>    8.6975    0.0000 </r>
       <r>   10.8582    0.0000 </r>
       <r>   12.5080    0.0000 </r>
       <r>   12.5080    0.0000 </r>
       <r>   14.4421    0.0000 </r>
       <r>   16.0500    0.0000 </r>
       <r>   18.6692    0.0000 </r>
       <r>   18.6693    0.0000 </r>
       <r>   22.7596    0.0000 </r>
       <r>   24.6220    0.0000 </r>
      </set>
      <set comment="kpoint 125">
       <r>   -5.5995    1.0000 </r>
       <r>    2.2238    1.0000 </r>
       <r>    3.9434    1.0000 </r>
       <r>    5.0390    1.0000 </r>
       <r>    8.0419    0.0000 </r>
       <r>    8.6806    0.0000 </r>
       <r>    9.0161    0.0000 </r>
       <r>   11.1031    0.0000 </r>
       <r>   11.8557    0.0000 </r>
       <r>   13.5207    0.0000 </r>
       <r>   14.9909    0.0000 </r>
       <r>   16.6003    0.0000 </r>
       <r>   18.3859    0.0000 </r>
       <r>   20.1516    0.0000 </r>
       <r>   22.2621    0.0000 </r>
       <r>   23.5220    0.0000 </r>
      </set>
      <set comment="kpoint 126">
       <r>   -5.1666    1.0000 </r>
       <r>    1.4177    1.0000 </r>
       <r>    2.8693    1.0000 </r>
       <r>    4.7802    1.0000 </r>
       <r>    8.3380    0.0000 </r>
       <r>    9.1495    0.0000 </r>
       <r>    9.4286    0.0000 </r>
       <r>   10.9837    0.0000 </r>
       <r>   11.5706    0.0000 </r>
       <r>   15.1909    0.0000 </r>
       <r>   15.8914    0.0000 </r>
       <r>   16.9885    0.0000 </r>
       <r>   18.9779    0.0000 </r>
       <r>   20.2140    0.0000 </r>
       <r>   21.6896    0.0000 </r>
       <r>   23.6190    0.0000 </r>
      </set>
      <set comment="kpoint 127">
       <r>   -4.5718    1.0000 </r>
       <r>    0.2638    1.0000 </r>
       <r>    2.3926    1.0000 </r>
       <r>    4.3807    1.0000 </r>
       <r>    8.0429    0.0000 </r>
       <r>    9.6360    0.0000 </r>
       <r>    9.7335    0.0000 </r>
       <r>   11.6444    0.0000 </r>
       <r>   11.9838    0.0000 </r>
       <r>   15.3873    0.0000 </r>
       <r>   17.0214    0.0000 </r>
       <r>   17.3688    0.0000 </r>
       <r>   19.1424    0.0000 </r>
       <r>   21.1400    0.0000 </r>
       <r>   21.8095    0.0000 </r>
       <r>   22.6818    0.0000 </r>
      </set>
      <set comment="kpoint 128">
       <r>   -3.9275    1.0000 </r>
       <r>   -0.8101    1.0000 </r>
       <r>    2.3045    1.0000 </r>
       <r>    4.0070    1.0000 </r>
       <r>    7.7026    0.0000 </r>
       <r>    9.6721    0.0000 </r>
       <r>    9.8881    0.0000 </r>
       <r>   13.0202    0.0000 </r>
       <r>   13.1895    0.0000 </r>
       <r>   13.9649    0.0000 </r>
       <r>   16.6766    0.0000 </r>
       <r>   18.9655    0.0000 </r>
       <r>   19.9777    0.0000 </r>
       <r>   20.1208    0.0000 </r>
       <r>   21.5978    0.0000 </r>
       <r>   23.9161    0.0000 </r>
      </set>
      <set comment="kpoint 129">
       <r>   -3.6564    1.0000 </r>
       <r>   -1.2032    1.0000 </r>
       <r>    2.4486    1.0000 </r>
       <r>    3.7391    1.0000 </r>
       <r>    7.4696    0.0000 </r>
       <r>    9.6720    0.0000 </r>
       <r>   10.1105    0.0000 </r>
       <r>   12.2444    0.0000 </r>
       <r>   14.3868    0.0000 </r>
       <r>   14.8724    0.0000 </r>
       <r>   16.7798    0.0000 </r>
       <r>   18.0291    0.0000 </r>
       <r>   18.5906    0.0000 </r>
       <r>   20.8051    0.0000 </r>
       <r>   23.8298    0.0000 </r>
       <r>   24.0742    0.0000 </r>
      </set>
      <set comment="kpoint 130">
       <r>   -4.1154    1.0000 </r>
       <r>   -0.5245    1.0000 </r>
       <r>    2.7731    1.0000 </r>
       <r>    3.6138    1.0000 </r>
       <r>    7.3794    0.0000 </r>
       <r>    9.7886    0.0000 </r>
       <r>   10.3892    0.0000 </r>
       <r>   10.6610    0.0000 </r>
       <r>   15.2423    0.0000 </r>
       <r>   16.1778    0.0000 </r>
       <r>   16.6958    0.0000 </r>
       <r>   16.9303    0.0000 </r>
       <r>   17.9285    0.0000 </r>
       <r>   21.2835    0.0000 </r>
       <r>   22.9021    0.0000 </r>
       <r>   23.0064    0.0000 </r>
      </set>
      <set comment="kpoint 131">
       <r>   -4.7693    1.0000 </r>
       <r>    0.6687    1.0000 </r>
       <r>    3.2376    1.0000 </r>
       <r>    3.6469    1.0000 </r>
       <r>    7.3425    0.0000 </r>
       <r>    9.4506    0.0000 </r>
       <r>   10.0376    0.0000 </r>
       <r>   10.6225    0.0000 </r>
       <r>   14.8730    0.0000 </r>
       <r>   14.8807    0.0000 </r>
       <r>   15.8350    0.0000 </r>
       <r>   18.5027    0.0000 </r>
       <r>   18.6799    0.0000 </r>
       <r>   20.2859    0.0000 </r>
       <r>   21.2419    0.0000 </r>
       <r>   22.4799    0.0000 </r>
      </set>
      <set comment="kpoint 132">
       <r>   -5.3209    1.0000 </r>
       <r>    1.9943    1.0000 </r>
       <r>    3.7591    1.0000 </r>
       <r>    3.8392    1.0000 </r>
       <r>    7.1117    0.0000 </r>
       <r>    9.0989    0.0000 </r>
       <r>   10.2359    0.0000 </r>
       <r>   10.5270    0.0000 </r>
       <r>   13.1748    0.0000 </r>
       <r>   14.0861    0.0000 </r>
       <r>   16.0462    0.0000 </r>
       <r>   17.4797    0.0000 </r>
       <r>   18.4144    0.0000 </r>
       <r>   19.6666    0.0000 </r>
       <r>   22.1751    0.0000 </r>
       <r>   22.6090    0.0000 </r>
      </set>
      <set comment="kpoint 133">
       <r>   -5.4318    1.0000 </r>
       <r>    1.7143    1.0000 </r>
       <r>    4.2808    1.0000 </r>
       <r>    4.3898    1.0000 </r>
       <r>    7.7981    0.0000 </r>
       <r>    8.6551    0.0000 </r>
       <r>    9.5730    0.0000 </r>
       <r>   10.7514    0.0000 </r>
       <r>   12.9798    0.0000 </r>
       <r>   13.4441    0.0000 </r>
       <r>   14.8766    0.0000 </r>
       <r>   17.0982    0.0000 </r>
       <r>   19.0684    0.0000 </r>
       <r>   20.2501    0.0000 </r>
       <r>   22.2396    0.0000 </r>
       <r>   22.7396    0.0000 </r>
      </set>
      <set comment="kpoint 134">
       <r>   -5.0663    1.0000 </r>
       <r>    1.1557    1.0000 </r>
       <r>    3.1327    1.0000 </r>
       <r>    4.3401    1.0000 </r>
       <r>    8.0707    0.0000 </r>
       <r>    8.9147    0.0000 </r>
       <r>   10.0894    0.0000 </r>
       <r>   10.3075    0.0000 </r>
       <r>   12.8892    0.0000 </r>
       <r>   15.1057    0.0000 </r>
       <r>   15.6703    0.0000 </r>
       <r>   17.5442    0.0000 </r>
       <r>   19.0977    0.0000 </r>
       <r>   20.5065    0.0000 </r>
       <r>   21.1639    0.0000 </r>
       <r>   23.1238    0.0000 </r>
      </set>
      <set comment="kpoint 135">
       <r>   -4.5247    1.0000 </r>
       <r>    0.4211    1.0000 </r>
       <r>    2.1985    1.0000 </r>
       <r>    3.9990    1.0000 </r>
       <r>    8.6739    0.0000 </r>
       <r>    8.8136    0.0000 </r>
       <r>   10.0620    0.0000 </r>
       <r>   11.0813    0.0000 </r>
       <r>   12.9014    0.0000 </r>
       <r>   15.7133    0.0000 </r>
       <r>   17.1198    0.0000 </r>
       <r>   17.7998    0.0000 </r>
       <r>   18.7628    0.0000 </r>
       <r>   21.0155    0.0000 </r>
       <r>   21.3216    0.0000 </r>
       <r>   23.7940    0.0000 </r>
      </set>
      <set comment="kpoint 136">
       <r>   -3.8745    1.0000 </r>
       <r>   -0.5275    1.0000 </r>
       <r>    1.8270    1.0000 </r>
       <r>    3.6013    1.0000 </r>
       <r>    8.2671    0.0000 </r>
       <r>    9.2245    0.0000 </r>
       <r>   10.9064    0.0000 </r>
       <r>   11.5412    0.0000 </r>
       <r>   13.8045    0.0000 </r>
       <r>   14.0466    0.0000 </r>
       <r>   17.6822    0.0000 </r>
       <r>   19.1770    0.0000 </r>
       <r>   19.7870    0.0000 </r>
       <r>   20.2980    0.0000 </r>
       <r>   22.6190    0.0000 </r>
       <r>   22.9141    0.0000 </r>
      </set>
      <set comment="kpoint 137">
       <r>   -3.3911    1.0000 </r>
       <r>   -1.1863    1.0000 </r>
       <r>    1.8303    1.0000 </r>
       <r>    3.3178    1.0000 </r>
       <r>    7.9245    0.0000 </r>
       <r>    9.4061    0.0000 </r>
       <r>   11.5919    0.0000 </r>
       <r>   12.1225    0.0000 </r>
       <r>   12.5872    0.0000 </r>
       <r>   15.3020    0.0000 </r>
       <r>   17.4438    0.0000 </r>
       <r>   18.2453    0.0000 </r>
       <r>   20.7190    0.0000 </r>
       <r>   21.2225    0.0000 </r>
       <r>   22.4527    0.0000 </r>
       <r>   23.3890    0.0000 </r>
      </set>
      <set comment="kpoint 138">
       <r>   -3.6441    1.0000 </r>
       <r>   -0.8541    1.0000 </r>
       <r>    2.0523    1.0000 </r>
       <r>    3.2321    1.0000 </r>
       <r>    7.7214    0.0000 </r>
       <r>    9.6660    0.0000 </r>
       <r>   10.4616    0.0000 </r>
       <r>   11.7067    0.0000 </r>
       <r>   14.3235    0.0000 </r>
       <r>   15.9768    0.0000 </r>
       <r>   16.9800    0.0000 </r>
       <r>   18.2130    0.0000 </r>
       <r>   18.9381    0.0000 </r>
       <r>   21.5697    0.0000 </r>
       <r>   22.8861    0.0000 </r>
       <r>   23.6325    0.0000 </r>
      </set>
      <set comment="kpoint 139">
       <r>   -4.2901    1.0000 </r>
       <r>    0.1154    1.0000 </r>
       <r>    2.4312    1.0000 </r>
       <r>    3.3805    1.0000 </r>
       <r>    7.5904    0.0000 </r>
       <r>    9.1488    0.0000 </r>
       <r>   10.0265    0.0000 </r>
       <r>   11.7488    0.0000 </r>
       <r>   14.6253    0.0000 </r>
       <r>   15.9707    0.0000 </r>
       <r>   17.0338    0.0000 </r>
       <r>   17.7968    0.0000 </r>
       <r>   19.3485    0.0000 </r>
       <r>   19.9580    0.0000 </r>
       <r>   21.5656    0.0000 </r>
       <r>   23.2688    0.0000 </r>
      </set>
      <set comment="kpoint 140">
       <r>   -4.8864    1.0000 </r>
       <r>    1.1615    1.0000 </r>
       <r>    2.9923    1.0000 </r>
       <r>    3.6795    1.0000 </r>
       <r>    7.2351    0.0000 </r>
       <r>    8.7420    0.0000 </r>
       <r>   10.3366    0.0000 </r>
       <r>   11.3628    0.0000 </r>
       <r>   13.7624    0.0000 </r>
       <r>   15.2334    0.0000 </r>
       <r>   16.7126    0.0000 </r>
       <r>   17.8058    0.0000 </r>
       <r>   19.0522    0.0000 </r>
       <r>   20.4805    0.0000 </r>
       <r>   20.5558    0.0000 </r>
       <r>   22.7262    0.0000 </r>
      </set>
      <set comment="kpoint 141">
       <r>   -4.7693    1.0000 </r>
       <r>    0.6687    1.0000 </r>
       <r>    3.2377    1.0000 </r>
       <r>    3.6469    1.0000 </r>
       <r>    7.3425    0.0000 </r>
       <r>    9.4506    0.0000 </r>
       <r>   10.0376    0.0000 </r>
       <r>   10.6226    0.0000 </r>
       <r>   14.8729    0.0000 </r>
       <r>   14.8806    0.0000 </r>
       <r>   15.8350    0.0000 </r>
       <r>   18.5028    0.0000 </r>
       <r>   18.6798    0.0000 </r>
       <r>   20.2859    0.0000 </r>
       <r>   21.2419    0.0000 </r>
       <r>   22.4798    0.0000 </r>
      </set>
      <set comment="kpoint 142">
       <r>   -4.2901    1.0000 </r>
       <r>    0.1153    1.0000 </r>
       <r>    2.4312    1.0000 </r>
       <r>    3.3805    1.0000 </r>
       <r>    7.5903    0.0000 </r>
       <r>    9.1488    0.0000 </r>
       <r>   10.0265    0.0000 </r>
       <r>   11.7489    0.0000 </r>
       <r>   14.6253    0.0000 </r>
       <r>   15.9707    0.0000 </r>
       <r>   17.0337    0.0000 </r>
       <r>   17.7968    0.0000 </r>
       <r>   19.3485    0.0000 </r>
       <r>   19.9580    0.0000 </r>
       <r>   21.5656    0.0000 </r>
       <r>   23.2688    0.0000 </r>
      </set>
      <set comment="kpoint 143">
       <r>   -3.6689    1.0000 </r>
       <r>   -0.5610    1.0000 </r>
       <r>    1.8052    1.0000 </r>
       <r>    2.9366    1.0000 </r>
       <r>    8.5055    0.0000 </r>
       <r>    9.1697    0.0000 </r>
       <r>    9.6517    0.0000 </r>
       <r>   12.9666    0.0000 </r>
       <r>   14.2364    0.0000 </r>
       <r>   14.7916    0.0000 </r>
       <r>   18.7960    0.0000 </r>
       <r>   19.0207    0.0000 </r>
       <r>   19.4221    0.0000 </r>
       <r>   19.8302    0.0000 </r>
       <r>   21.8251    0.0000 </r>
       <r>   23.1925    0.0000 </r>
      </set>
      <set comment="kpoint 144">
       <r>   -3.0595    1.0000 </r>
       <r>   -1.2386    1.0000 </r>
       <r>    1.5340    1.0000 </r>
       <r>    2.6301    1.0000 </r>
       <r>    8.8864    0.0000 </r>
       <r>    9.2099    0.0000 </r>
       <r>   10.4532    0.0000 </r>
       <r>   12.2749    0.0000 </r>
       <r>   13.4168    0.0000 </r>
       <r>   15.9073    0.0000 </r>
       <r>   17.7604    0.0000 </r>
       <r>   19.2336    0.0000 </r>
       <r>   20.6239    0.0000 </r>
       <r>   21.4242    0.0000 </r>
       <r>   22.1251    0.0000 </r>
       <r>   23.6351    0.0000 </r>
      </set>
      <set comment="kpoint 145">
       <r>   -3.0595    1.0000 </r>
       <r>   -1.2386    1.0000 </r>
       <r>    1.5340    1.0000 </r>
       <r>    2.6301    1.0000 </r>
       <r>    8.8865    0.0000 </r>
       <r>    9.2099    0.0000 </r>
       <r>   10.4532    0.0000 </r>
       <r>   12.2749    0.0000 </r>
       <r>   13.4168    0.0000 </r>
       <r>   15.9073    0.0000 </r>
       <r>   17.7604    0.0000 </r>
       <r>   19.2336    0.0000 </r>
       <r>   20.6239    0.0000 </r>
       <r>   21.4243    0.0000 </r>
       <r>   22.1251    0.0000 </r>
       <r>   23.6350    0.0000 </r>
      </set>
      <set comment="kpoint 146">
       <r>   -3.6689    1.0000 </r>
       <r>   -0.5609    1.0000 </r>
       <r>    1.8052    1.0000 </r>
       <r>    2.9366    1.0000 </r>
       <r>    8.5055    0.0000 </r>
       <r>    9.1697    0.0000 </r>
       <r>    9.6516    0.0000 </r>
       <r>   12.9666    0.0000 </r>
       <r>   14.2365    0.0000 </r>
       <r>   14.7916    0.0000 </r>
       <r>   18.7959    0.0000 </r>
       <r>   19.0208    0.0000 </r>
       <r>   19.4221    0.0000 </r>
       <r>   19.8303    0.0000 </r>
       <r>   21.8251    0.0000 </r>
       <r>   23.1925    0.0000 </r>
      </set>
      <set comment="kpoint 147">
       <r>   -4.2901    1.0000 </r>
       <r>    0.1154    1.0000 </r>
       <r>    2.4312    1.0000 </r>
       <r>    3.3804    1.0000 </r>
       <r>    7.5903    0.0000 </r>
       <r>    9.1488    0.0000 </r>
       <r>   10.0265    0.0000 </r>
       <r>   11.7489    0.0000 </r>
       <r>   14.6253    0.0000 </r>
       <r>   15.9707    0.0000 </r>
       <r>   17.0338    0.0000 </r>
       <r>   17.7968    0.0000 </r>
       <r>   19.3485    0.0000 </r>
       <r>   19.9581    0.0000 </r>
       <r>   21.5656    0.0000 </r>
       <r>   23.2688    0.0000 </r>
      </set>
      <set comment="kpoint 148">
       <r>   -3.8769    1.0000 </r>
       <r>   -0.3959    1.0000 </r>
       <r>    2.2531    1.0000 </r>
       <r>    3.1871    1.0000 </r>
       <r>    6.8225    0.0000 </r>
       <r>    8.7095    0.0000 </r>
       <r>   11.5689    0.0000 </r>
       <r>   11.8264    0.0000 </r>
       <r>   16.2670    0.0000 </r>
       <r>   16.5893    0.0000 </r>
       <r>   16.9282    0.0000 </r>
       <r>   16.9659    0.0000 </r>
       <r>   18.9189    0.0000 </r>
       <r>   20.7997    0.0000 </r>
       <r>   21.9447    0.0000 </r>
       <r>   23.5237    0.0000 </r>
      </set>
      <set comment="kpoint 149">
       <r>   -3.3101    1.0000 </r>
       <r>   -0.9797    1.0000 </r>
       <r>    1.9157    1.0000 </r>
       <r>    2.7400    1.0000 </r>
       <r>    7.2349    0.0000 </r>
       <r>    8.5303    0.0000 </r>
       <r>   11.3437    0.0000 </r>
       <r>   13.4117    0.0000 </r>
       <r>   14.6037    0.0000 </r>
       <r>   16.4255    0.0000 </r>
       <r>   17.2869    0.0000 </r>
       <r>   18.9595    0.0000 </r>
       <r>   19.7753    0.0000 </r>
       <r>   20.3031    0.0000 </r>
       <r>   22.2229    0.0000 </r>
       <r>   22.7501    0.0000 </r>
      </set>
      <set comment="kpoint 150">
       <r>   -2.6590    1.0000 </r>
       <r>   -1.5909    1.0000 </r>
       <r>    1.7608    1.0000 </r>
       <r>    2.1318    1.0000 </r>
       <r>    8.4317    0.0000 </r>
       <r>    8.6438    0.0000 </r>
       <r>   10.9467    0.0000 </r>
       <r>   12.5053    0.0000 </r>
       <r>   14.8923    0.0000 </r>
       <r>   16.3173    0.0000 </r>
       <r>   17.6317    0.0000 </r>
       <r>   18.9327    0.0000 </r>
       <r>   20.7929    0.0000 </r>
       <r>   21.5146    0.0000 </r>
       <r>   22.1286    0.0000 </r>
       <r>   23.2389    0.0000 </r>
      </set>
      <set comment="kpoint 151">
       <r>   -2.4695    1.0000 </r>
       <r>   -1.7492    1.0000 </r>
       <r>    1.4949    1.0000 </r>
       <r>    2.1663    1.0000 </r>
       <r>    8.7780    0.0000 </r>
       <r>   10.0542    0.0000 </r>
       <r>   10.7050    0.0000 </r>
       <r>   10.7305    0.0000 </r>
       <r>   14.9065    0.0000 </r>
       <r>   15.9797    0.0000 </r>
       <r>   17.9271    0.0000 </r>
       <r>   19.0858    0.0000 </r>
       <r>   20.8853    0.0000 </r>
       <r>   21.8899    0.0000 </r>
       <r>   23.1552    0.0000 </r>
       <r>   23.3417    0.0000 </r>
      </set>
      <set comment="kpoint 152">
       <r>   -3.0595    1.0000 </r>
       <r>   -1.2386    1.0000 </r>
       <r>    1.5341    1.0000 </r>
       <r>    2.6301    1.0000 </r>
       <r>    8.8864    0.0000 </r>
       <r>    9.2099    0.0000 </r>
       <r>   10.4533    0.0000 </r>
       <r>   12.2749    0.0000 </r>
       <r>   13.4169    0.0000 </r>
       <r>   15.9073    0.0000 </r>
       <r>   17.7604    0.0000 </r>
       <r>   19.2336    0.0000 </r>
       <r>   20.6240    0.0000 </r>
       <r>   21.4243    0.0000 </r>
       <r>   22.1251    0.0000 </r>
       <r>   23.6351    0.0000 </r>
      </set>
      <set comment="kpoint 153">
       <r>   -3.6441    1.0000 </r>
       <r>   -0.8541    1.0000 </r>
       <r>    2.0524    1.0000 </r>
       <r>    3.2320    1.0000 </r>
       <r>    7.7214    0.0000 </r>
       <r>    9.6660    0.0000 </r>
       <r>   10.4616    0.0000 </r>
       <r>   11.7068    0.0000 </r>
       <r>   14.3235    0.0000 </r>
       <r>   15.9767    0.0000 </r>
       <r>   16.9799    0.0000 </r>
       <r>   18.2130    0.0000 </r>
       <r>   18.9382    0.0000 </r>
       <r>   21.5698    0.0000 </r>
       <r>   22.8862    0.0000 </r>
       <r>   23.6325    0.0000 </r>
      </set>
      <set comment="kpoint 154">
       <r>   -2.8213    1.0000 </r>
       <r>   -1.5344    1.0000 </r>
       <r>    1.7266    1.0000 </r>
       <r>    2.9488    1.0000 </r>
       <r>    6.5255    0.0000 </r>
       <r>    8.3150    0.0000 </r>
       <r>   13.1592    0.0000 </r>
       <r>   13.2613    0.0000 </r>
       <r>   14.9792    0.0000 </r>
       <r>   15.1337    0.0000 </r>
       <r>   18.5407    0.0000 </r>
       <r>   18.7505    0.0000 </r>
       <r>   20.4657    0.0000 </r>
       <r>   20.5477    0.0000 </r>
       <r>   21.1063    0.0000 </r>
       <r>   23.2700    0.0000 </r>
      </set>
      <set comment="kpoint 155">
       <r>   -2.3517    1.0000 </r>
       <r>   -1.9764    1.0000 </r>
       <r>    1.7190    1.0000 </r>
       <r>    2.5354    1.0000 </r>
       <r>    7.1084    0.0000 </r>
       <r>    8.3253    0.0000 </r>
       <r>   12.7454    0.0000 </r>
       <r>   12.9699    0.0000 </r>
       <r>   14.9768    0.0000 </r>
       <r>   15.6197    0.0000 </r>
       <r>   18.1616    0.0000 </r>
       <r>   18.9595    0.0000 </r>
       <r>   20.6473    0.0000 </r>
       <r>   21.2816    0.0000 </r>
       <r>   21.8990    0.0000 </r>
       <r>   22.3057    0.0000 </r>
      </set>
      <set comment="kpoint 156">
       <r>   -2.6590    1.0000 </r>
       <r>   -1.5908    1.0000 </r>
       <r>    1.7608    1.0000 </r>
       <r>    2.1318    1.0000 </r>
       <r>    8.4317    0.0000 </r>
       <r>    8.6438    0.0000 </r>
       <r>   10.9467    0.0000 </r>
       <r>   12.5054    0.0000 </r>
       <r>   14.8923    0.0000 </r>
       <r>   16.3173    0.0000 </r>
       <r>   17.6317    0.0000 </r>
       <r>   18.9327    0.0000 </r>
       <r>   20.7929    0.0000 </r>
       <r>   21.5147    0.0000 </r>
       <r>   22.1286    0.0000 </r>
       <r>   23.2389    0.0000 </r>
      </set>
      <set comment="kpoint 157">
       <r>   -3.0595    1.0000 </r>
       <r>   -1.2386    1.0000 </r>
       <r>    1.5341    1.0000 </r>
       <r>    2.6301    1.0000 </r>
       <r>    8.8864    0.0000 </r>
       <r>    9.2099    0.0000 </r>
       <r>   10.4532    0.0000 </r>
       <r>   12.2750    0.0000 </r>
       <r>   13.4169    0.0000 </r>
       <r>   15.9073    0.0000 </r>
       <r>   17.7604    0.0000 </r>
       <r>   19.2336    0.0000 </r>
       <r>   20.6240    0.0000 </r>
       <r>   21.4243    0.0000 </r>
       <r>   22.1252    0.0000 </r>
       <r>   23.6351    0.0000 </r>
      </set>
      <set comment="kpoint 158">
       <r>   -3.3911    1.0000 </r>
       <r>   -1.1863    1.0000 </r>
       <r>    1.8304    1.0000 </r>
       <r>    3.3177    1.0000 </r>
       <r>    7.9245    0.0000 </r>
       <r>    9.4061    0.0000 </r>
       <r>   11.5919    0.0000 </r>
       <r>   12.1226    0.0000 </r>
       <r>   12.5873    0.0000 </r>
       <r>   15.3019    0.0000 </r>
       <r>   17.4438    0.0000 </r>
       <r>   18.2453    0.0000 </r>
       <r>   20.7190    0.0000 </r>
       <r>   21.2226    0.0000 </r>
       <r>   22.4528    0.0000 </r>
       <r>   23.3890    0.0000 </r>
      </set>
      <set comment="kpoint 159">
       <r>   -2.8213    1.0000 </r>
       <r>   -1.5344    1.0000 </r>
       <r>    1.7266    1.0000 </r>
       <r>    2.9488    1.0000 </r>
       <r>    6.5255    0.0000 </r>
       <r>    8.3150    0.0000 </r>
       <r>   13.1591    0.0000 </r>
       <r>   13.2612    0.0000 </r>
       <r>   14.9793    0.0000 </r>
       <r>   15.1338    0.0000 </r>
       <r>   18.5408    0.0000 </r>
       <r>   18.7505    0.0000 </r>
       <r>   20.4657    0.0000 </r>
       <r>   20.5476    0.0000 </r>
       <r>   21.1063    0.0000 </r>
       <r>   23.2700    0.0000 </r>
      </set>
      <set comment="kpoint 160">
       <r>   -3.3101    1.0000 </r>
       <r>   -0.9797    1.0000 </r>
       <r>    1.9156    1.0000 </r>
       <r>    2.7400    1.0000 </r>
       <r>    7.2349    0.0000 </r>
       <r>    8.5303    0.0000 </r>
       <r>   11.3437    0.0000 </r>
       <r>   13.4117    0.0000 </r>
       <r>   14.6037    0.0000 </r>
       <r>   16.4256    0.0000 </r>
       <r>   17.2870    0.0000 </r>
       <r>   18.9596    0.0000 </r>
       <r>   19.7753    0.0000 </r>
       <r>   20.3030    0.0000 </r>
       <r>   22.2228    0.0000 </r>
       <r>   22.7501    0.0000 </r>
      </set>
      <set comment="kpoint 161">
       <r>   -3.6689    1.0000 </r>
       <r>   -0.5609    1.0000 </r>
       <r>    1.8052    1.0000 </r>
       <r>    2.9366    1.0000 </r>
       <r>    8.5055    0.0000 </r>
       <r>    9.1697    0.0000 </r>
       <r>    9.6516    0.0000 </r>
       <r>   12.9666    0.0000 </r>
       <r>   14.2365    0.0000 </r>
       <r>   14.7916    0.0000 </r>
       <r>   18.7959    0.0000 </r>
       <r>   19.0208    0.0000 </r>
       <r>   19.4221    0.0000 </r>
       <r>   19.8303    0.0000 </r>
       <r>   21.8251    0.0000 </r>
       <r>   23.1925    0.0000 </r>
      </set>
      <set comment="kpoint 162">
       <r>   -3.8745    1.0000 </r>
       <r>   -0.5275    1.0000 </r>
       <r>    1.8270    1.0000 </r>
       <r>    3.6012    1.0000 </r>
       <r>    8.2671    0.0000 </r>
       <r>    9.2245    0.0000 </r>
       <r>   10.9064    0.0000 </r>
       <r>   11.5412    0.0000 </r>
       <r>   13.8045    0.0000 </r>
       <r>   14.0467    0.0000 </r>
       <r>   17.6822    0.0000 </r>
       <r>   19.1771    0.0000 </r>
       <r>   19.7870    0.0000 </r>
       <r>   20.2980    0.0000 </r>
       <r>   22.6189    0.0000 </r>
       <r>   22.9141    0.0000 </r>
      </set>
      <set comment="kpoint 163">
       <r>   -3.8770    1.0000 </r>
       <r>   -0.3958    1.0000 </r>
       <r>    2.2531    1.0000 </r>
       <r>    3.1871    1.0000 </r>
       <r>    6.8225    0.0000 </r>
       <r>    8.7095    0.0000 </r>
       <r>   11.5688    0.0000 </r>
       <r>   11.8263    0.0000 </r>
       <r>   16.2670    0.0000 </r>
       <r>   16.5894    0.0000 </r>
       <r>   16.9282    0.0000 </r>
       <r>   16.9660    0.0000 </r>
       <r>   18.9189    0.0000 </r>
       <r>   20.7996    0.0000 </r>
       <r>   21.9446    0.0000 </r>
       <r>   23.5237    0.0000 </r>
      </set>
      <set comment="kpoint 164">
       <r>   -4.2901    1.0000 </r>
       <r>    0.1154    1.0000 </r>
       <r>    2.4312    1.0000 </r>
       <r>    3.3804    1.0000 </r>
       <r>    7.5903    0.0000 </r>
       <r>    9.1488    0.0000 </r>
       <r>   10.0265    0.0000 </r>
       <r>   11.7488    0.0000 </r>
       <r>   14.6253    0.0000 </r>
       <r>   15.9707    0.0000 </r>
       <r>   17.0338    0.0000 </r>
       <r>   17.7968    0.0000 </r>
       <r>   19.3485    0.0000 </r>
       <r>   19.9580    0.0000 </r>
       <r>   21.5656    0.0000 </r>
       <r>   23.2688    0.0000 </r>
      </set>
      <set comment="kpoint 165">
       <r>   -4.5247    1.0000 </r>
       <r>    0.4212    1.0000 </r>
       <r>    2.1985    1.0000 </r>
       <r>    3.9989    1.0000 </r>
       <r>    8.6738    0.0000 </r>
       <r>    8.8137    0.0000 </r>
       <r>   10.0620    0.0000 </r>
       <r>   11.0813    0.0000 </r>
       <r>   12.9015    0.0000 </r>
       <r>   15.7134    0.0000 </r>
       <r>   17.1199    0.0000 </r>
       <r>   17.7998    0.0000 </r>
       <r>   18.7629    0.0000 </r>
       <r>   21.0155    0.0000 </r>
       <r>   21.3216    0.0000 </r>
       <r>   23.7940    0.0000 </r>
      </set>
      <set comment="kpoint 166">
       <r>   -4.7693    1.0000 </r>
       <r>    0.6687    1.0000 </r>
       <r>    3.2376    1.0000 </r>
       <r>    3.6469    1.0000 </r>
       <r>    7.3425    0.0000 </r>
       <r>    9.4507    0.0000 </r>
       <r>   10.0376    0.0000 </r>
       <r>   10.6225    0.0000 </r>
       <r>   14.8730    0.0000 </r>
       <r>   14.8807    0.0000 </r>
       <r>   15.8350    0.0000 </r>
       <r>   18.5027    0.0000 </r>
       <r>   18.6799    0.0000 </r>
       <r>   20.2859    0.0000 </r>
       <r>   21.2420    0.0000 </r>
       <r>   22.4799    0.0000 </r>
      </set>
      <set comment="kpoint 167">
       <r>   -5.0663    1.0000 </r>
       <r>    1.1558    1.0000 </r>
       <r>    3.1326    1.0000 </r>
       <r>    4.3400    1.0000 </r>
       <r>    8.0707    0.0000 </r>
       <r>    8.9147    0.0000 </r>
       <r>   10.0894    0.0000 </r>
       <r>   10.3074    0.0000 </r>
       <r>   12.8892    0.0000 </r>
       <r>   15.1058    0.0000 </r>
       <r>   15.6703    0.0000 </r>
       <r>   17.5441    0.0000 </r>
       <r>   19.0977    0.0000 </r>
       <r>   20.5066    0.0000 </r>
       <r>   21.1640    0.0000 </r>
       <r>   23.1238    0.0000 </r>
      </set>
      <set comment="kpoint 168">
       <r>   -5.4318    1.0000 </r>
       <r>    1.7143    1.0000 </r>
       <r>    4.2808    1.0000 </r>
       <r>    4.3897    1.0000 </r>
       <r>    7.7981    0.0000 </r>
       <r>    8.6552    0.0000 </r>
       <r>    9.5730    0.0000 </r>
       <r>   10.7514    0.0000 </r>
       <r>   12.9799    0.0000 </r>
       <r>   13.4442    0.0000 </r>
       <r>   14.8766    0.0000 </r>
       <r>   17.0982    0.0000 </r>
       <r>   19.0684    0.0000 </r>
       <r>   20.2502    0.0000 </r>
       <r>   22.2397    0.0000 </r>
       <r>   22.7396    0.0000 </r>
      </set>
      <set comment="kpoint 169">
       <r>   -5.3391    1.0000 </r>
       <r>    1.2004    1.0000 </r>
       <r>    4.6416    1.0000 </r>
       <r>    4.6417    1.0000 </r>
       <r>    7.2669    0.0000 </r>
       <r>    8.9557    0.0000 </r>
       <r>    8.9557    0.0000 </r>
       <r>   12.4339    0.0000 </r>
       <r>   12.7746    0.0000 </r>
       <r>   12.7746    0.0000 </r>
       <r>   14.2476    0.0000 </r>
       <r>   17.5162    0.0000 </r>
       <r>   20.1441    0.0000 </r>
       <r>   20.1441    0.0000 </r>
       <r>   22.6138    0.0000 </r>
       <r>   22.6138    0.0000 </r>
      </set>
      <set comment="kpoint 170">
       <r>   -5.4318    1.0000 </r>
       <r>    1.7143    1.0000 </r>
       <r>    4.2808    1.0000 </r>
       <r>    4.3897    1.0000 </r>
       <r>    7.7981    0.0000 </r>
       <r>    8.6552    0.0000 </r>
       <r>    9.5730    0.0000 </r>
       <r>   10.7515    0.0000 </r>
       <r>   12.9799    0.0000 </r>
       <r>   13.4442    0.0000 </r>
       <r>   14.8766    0.0000 </r>
       <r>   17.0982    0.0000 </r>
       <r>   19.0684    0.0000 </r>
       <r>   20.2502    0.0000 </r>
       <r>   22.2397    0.0000 </r>
       <r>   22.7396    0.0000 </r>
      </set>
      <set comment="kpoint 171">
       <r>   -5.3209    1.0000 </r>
       <r>    1.9943    1.0000 </r>
       <r>    3.7591    1.0000 </r>
       <r>    3.8392    1.0000 </r>
       <r>    7.1117    0.0000 </r>
       <r>    9.0989    0.0000 </r>
       <r>   10.2359    0.0000 </r>
       <r>   10.5270    0.0000 </r>
       <r>   13.1748    0.0000 </r>
       <r>   14.0861    0.0000 </r>
       <r>   16.0462    0.0000 </r>
       <r>   17.4797    0.0000 </r>
       <r>   18.4145    0.0000 </r>
       <r>   19.6666    0.0000 </r>
       <r>   22.1751    0.0000 </r>
       <r>   22.6090    0.0000 </r>
      </set>
      <set comment="kpoint 172">
       <r>   -5.0097    1.0000 </r>
       <r>    1.5265    1.0000 </r>
       <r>    3.4730    1.0000 </r>
       <r>    3.4730    1.0000 </r>
       <r>    6.4904    0.0000 </r>
       <r>    8.2651    0.0000 </r>
       <r>   11.4759    0.0000 </r>
       <r>   11.4759    0.0000 </r>
       <r>   13.6165    0.0000 </r>
       <r>   14.5525    0.0000 </r>
       <r>   17.1007    0.0000 </r>
       <r>   18.5284    0.0000 </r>
       <r>   18.5285    0.0000 </r>
       <r>   19.3404    0.0000 </r>
       <r>   22.0676    0.0000 </r>
       <r>   22.0676    0.0000 </r>
      </set>
      <set comment="kpoint 173">
       <r>   -4.5130    1.0000 </r>
       <r>    0.5988    1.0000 </r>
       <r>    2.9548    1.0000 </r>
       <r>    3.2476    1.0000 </r>
       <r>    6.6209    0.0000 </r>
       <r>    7.9845    0.0000 </r>
       <r>   11.7391    0.0000 </r>
       <r>   11.9415    0.0000 </r>
       <r>   15.0553    0.0000 </r>
       <r>   15.2718    0.0000 </r>
       <r>   17.3283    0.0000 </r>
       <r>   18.5718    0.0000 </r>
       <r>   19.0356    0.0000 </r>
       <r>   19.9854    0.0000 </r>
       <r>   21.0600    0.0000 </r>
       <r>   21.9714    0.0000 </r>
      </set>
      <set comment="kpoint 174">
       <r>   -3.8769    1.0000 </r>
       <r>   -0.3958    1.0000 </r>
       <r>    2.2531    1.0000 </r>
       <r>    3.1871    1.0000 </r>
       <r>    6.8225    0.0000 </r>
       <r>    8.7096    0.0000 </r>
       <r>   11.5689    0.0000 </r>
       <r>   11.8263    0.0000 </r>
       <r>   16.2670    0.0000 </r>
       <r>   16.5893    0.0000 </r>
       <r>   16.9282    0.0000 </r>
       <r>   16.9659    0.0000 </r>
       <r>   18.9189    0.0000 </r>
       <r>   20.7997    0.0000 </r>
       <r>   21.9446    0.0000 </r>
       <r>   23.5237    0.0000 </r>
      </set>
      <set comment="kpoint 175">
       <r>   -3.2896    1.0000 </r>
       <r>   -1.1644    1.0000 </r>
       <r>    1.6994    1.0000 </r>
       <r>    3.2951    1.0000 </r>
       <r>    6.9530    0.0000 </r>
       <r>   10.1574    0.0000 </r>
       <r>   11.3952    0.0000 </r>
       <r>   11.5130    0.0000 </r>
       <r>   14.7387    0.0000 </r>
       <r>   14.9179    0.0000 </r>
       <r>   18.3952    0.0000 </r>
       <r>   18.4010    0.0000 </r>
       <r>   18.8017    0.0000 </r>
       <r>   22.7101    0.0000 </r>
       <r>   22.7549    0.0000 </r>
       <r>   23.2064    0.0000 </r>
      </set>
      <set comment="kpoint 176">
       <r>   -3.3452    1.0000 </r>
       <r>   -1.0868    1.0000 </r>
       <r>    1.4270    1.0000 </r>
       <r>    3.5600    1.0000 </r>
       <r>    7.2291    0.0000 </r>
       <r>   11.1632    0.0000 </r>
       <r>   11.1750    0.0000 </r>
       <r>   12.0332    0.0000 </r>
       <r>   13.0443    0.0000 </r>
       <r>   13.2124    0.0000 </r>
       <r>   18.3544    0.0000 </r>
       <r>   20.2581    0.0000 </r>
       <r>   20.3495    0.0000 </r>
       <r>   21.0994    0.0000 </r>
       <r>   21.7112    0.0000 </r>
       <r>   22.9182    0.0000 </r>
      </set>
      <set comment="kpoint 177">
       <r>   -3.9541    1.0000 </r>
       <r>   -0.3540    1.0000 </r>
       <r>    1.5857    1.0000 </r>
       <r>    3.9482    1.0000 </r>
       <r>    7.6498    0.0000 </r>
       <r>   10.5674    0.0000 </r>
       <r>   10.9076    0.0000 </r>
       <r>   11.6753    0.0000 </r>
       <r>   12.1626    0.0000 </r>
       <r>   13.9717    0.0000 </r>
       <r>   18.3126    0.0000 </r>
       <r>   18.9722    0.0000 </r>
       <r>   19.3583    0.0000 </r>
       <r>   21.9271    0.0000 </r>
       <r>   22.0520    0.0000 </r>
       <r>   22.6568    0.0000 </r>
      </set>
      <set comment="kpoint 178">
       <r>   -4.5718    1.0000 </r>
       <r>    0.2638    1.0000 </r>
       <r>    2.3926    1.0000 </r>
       <r>    4.3807    1.0000 </r>
       <r>    8.0428    0.0000 </r>
       <r>    9.6360    0.0000 </r>
       <r>    9.7335    0.0000 </r>
       <r>   11.6444    0.0000 </r>
       <r>   11.9838    0.0000 </r>
       <r>   15.3873    0.0000 </r>
       <r>   17.0215    0.0000 </r>
       <r>   17.3688    0.0000 </r>
       <r>   19.1424    0.0000 </r>
       <r>   21.1400    0.0000 </r>
       <r>   21.8094    0.0000 </r>
       <r>   22.6818    0.0000 </r>
      </set>
      <set comment="kpoint 179">
       <r>   -5.0473    1.0000 </r>
       <r>    0.7189    1.0000 </r>
       <r>    3.6485    1.0000 </r>
       <r>    4.6853    1.0000 </r>
       <r>    7.7461    0.0000 </r>
       <r>    8.9697    0.0000 </r>
       <r>    9.1605    0.0000 </r>
       <r>   12.0159    0.0000 </r>
       <r>   12.2539    0.0000 </r>
       <r>   14.6967    0.0000 </r>
       <r>   14.8304    0.0000 </r>
       <r>   17.9785    0.0000 </r>
       <r>   19.3339    0.0000 </r>
       <r>   21.1491    0.0000 </r>
       <r>   21.1501    0.0000 </r>
       <r>   22.7372    0.0000 </r>
      </set>
      <set comment="kpoint 180">
       <r>   -5.5995    1.0000 </r>
       <r>    2.2239    1.0000 </r>
       <r>    3.9434    1.0000 </r>
       <r>    5.0389    1.0000 </r>
       <r>    8.0419    0.0000 </r>
       <r>    8.6806    0.0000 </r>
       <r>    9.0161    0.0000 </r>
       <r>   11.1032    0.0000 </r>
       <r>   11.8557    0.0000 </r>
       <r>   13.5207    0.0000 </r>
       <r>   14.9909    0.0000 </r>
       <r>   16.6003    0.0000 </r>
       <r>   18.3859    0.0000 </r>
       <r>   20.1516    0.0000 </r>
       <r>   22.2621    0.0000 </r>
       <r>   23.5220    0.0000 </r>
      </set>
      <set comment="kpoint 181">
       <r>   -5.5621    1.0000 </r>
       <r>    2.4362    1.0000 </r>
       <r>    3.6856    1.0000 </r>
       <r>    4.6470    1.0000 </r>
       <r>    7.7787    0.0000 </r>
       <r>    8.9305    0.0000 </r>
       <r>    9.7532    0.0000 </r>
       <r>   10.1898    0.0000 </r>
       <r>   12.3300    0.0000 </r>
       <r>   13.7669    0.0000 </r>
       <r>   15.4776    0.0000 </r>
       <r>   16.8282    0.0000 </r>
       <r>   17.9641    0.0000 </r>
       <r>   19.8361    0.0000 </r>
       <r>   22.2455    0.0000 </r>
       <r>   23.8733    0.0000 </r>
      </set>
      <set comment="kpoint 182">
       <r>   -5.3209    1.0000 </r>
       <r>    1.9943    1.0000 </r>
       <r>    3.7591    1.0000 </r>
       <r>    3.8392    1.0000 </r>
       <r>    7.1117    0.0000 </r>
       <r>    9.0989    0.0000 </r>
       <r>   10.2359    0.0000 </r>
       <r>   10.5271    0.0000 </r>
       <r>   13.1747    0.0000 </r>
       <r>   14.0860    0.0000 </r>
       <r>   16.0462    0.0000 </r>
       <r>   17.4797    0.0000 </r>
       <r>   18.4145    0.0000 </r>
       <r>   19.6666    0.0000 </r>
       <r>   22.1750    0.0000 </r>
       <r>   22.6090    0.0000 </r>
      </set>
      <set comment="kpoint 183">
       <r>   -4.8864    1.0000 </r>
       <r>    1.1615    1.0000 </r>
       <r>    2.9924    1.0000 </r>
       <r>    3.6796    1.0000 </r>
       <r>    7.2351    0.0000 </r>
       <r>    8.7420    0.0000 </r>
       <r>   10.3366    0.0000 </r>
       <r>   11.3628    0.0000 </r>
       <r>   13.7624    0.0000 </r>
       <r>   15.2334    0.0000 </r>
       <r>   16.7126    0.0000 </r>
       <r>   17.8058    0.0000 </r>
       <r>   19.0522    0.0000 </r>
       <r>   20.4805    0.0000 </r>
       <r>   20.5558    0.0000 </r>
       <r>   22.7262    0.0000 </r>
      </set>
      <set comment="kpoint 184">
       <r>   -4.2901    1.0000 </r>
       <r>    0.1154    1.0000 </r>
       <r>    2.4312    1.0000 </r>
       <r>    3.3805    1.0000 </r>
       <r>    7.5903    0.0000 </r>
       <r>    9.1488    0.0000 </r>
       <r>   10.0265    0.0000 </r>
       <r>   11.7489    0.0000 </r>
       <r>   14.6253    0.0000 </r>
       <r>   15.9707    0.0000 </r>
       <r>   17.0337    0.0000 </r>
       <r>   17.7968    0.0000 </r>
       <r>   19.3485    0.0000 </r>
       <r>   19.9580    0.0000 </r>
       <r>   21.5656    0.0000 </r>
       <r>   23.2688    0.0000 </r>
      </set>
      <set comment="kpoint 185">
       <r>   -3.6441    1.0000 </r>
       <r>   -0.8541    1.0000 </r>
       <r>    2.0524    1.0000 </r>
       <r>    3.2321    1.0000 </r>
       <r>    7.7214    0.0000 </r>
       <r>    9.6660    0.0000 </r>
       <r>   10.4616    0.0000 </r>
       <r>   11.7067    0.0000 </r>
       <r>   14.3235    0.0000 </r>
       <r>   15.9768    0.0000 </r>
       <r>   16.9800    0.0000 </r>
       <r>   18.2130    0.0000 </r>
       <r>   18.9381    0.0000 </r>
       <r>   21.5697    0.0000 </r>
       <r>   22.8862    0.0000 </r>
       <r>   23.6325    0.0000 </r>
      </set>
      <set comment="kpoint 186">
       <r>   -3.3911    1.0000 </r>
       <r>   -1.1863    1.0000 </r>
       <r>    1.8304    1.0000 </r>
       <r>    3.3177    1.0000 </r>
       <r>    7.9245    0.0000 </r>
       <r>    9.4062    0.0000 </r>
       <r>   11.5919    0.0000 </r>
       <r>   12.1226    0.0000 </r>
       <r>   12.5872    0.0000 </r>
       <r>   15.3020    0.0000 </r>
       <r>   17.4438    0.0000 </r>
       <r>   18.2453    0.0000 </r>
       <r>   20.7190    0.0000 </r>
       <r>   21.2226    0.0000 </r>
       <r>   22.4527    0.0000 </r>
       <r>   23.3890    0.0000 </r>
      </set>
      <set comment="kpoint 187">
       <r>   -3.8745    1.0000 </r>
       <r>   -0.5275    1.0000 </r>
       <r>    1.8270    1.0000 </r>
       <r>    3.6012    1.0000 </r>
       <r>    8.2671    0.0000 </r>
       <r>    9.2245    0.0000 </r>
       <r>   10.9063    0.0000 </r>
       <r>   11.5412    0.0000 </r>
       <r>   13.8045    0.0000 </r>
       <r>   14.0467    0.0000 </r>
       <r>   17.6822    0.0000 </r>
       <r>   19.1771    0.0000 </r>
       <r>   19.7870    0.0000 </r>
       <r>   20.2980    0.0000 </r>
       <r>   22.6189    0.0000 </r>
       <r>   22.9141    0.0000 </r>
      </set>
      <set comment="kpoint 188">
       <r>   -4.5247    1.0000 </r>
       <r>    0.4212    1.0000 </r>
       <r>    2.1985    1.0000 </r>
       <r>    3.9989    1.0000 </r>
       <r>    8.6738    0.0000 </r>
       <r>    8.8137    0.0000 </r>
       <r>   10.0620    0.0000 </r>
       <r>   11.0813    0.0000 </r>
       <r>   12.9015    0.0000 </r>
       <r>   15.7134    0.0000 </r>
       <r>   17.1199    0.0000 </r>
       <r>   17.7998    0.0000 </r>
       <r>   18.7629    0.0000 </r>
       <r>   21.0155    0.0000 </r>
       <r>   21.3216    0.0000 </r>
       <r>   23.7940    0.0000 </r>
      </set>
      <set comment="kpoint 189">
       <r>   -5.0663    1.0000 </r>
       <r>    1.1558    1.0000 </r>
       <r>    3.1326    1.0000 </r>
       <r>    4.3400    1.0000 </r>
       <r>    8.0707    0.0000 </r>
       <r>    8.9147    0.0000 </r>
       <r>   10.0894    0.0000 </r>
       <r>   10.3075    0.0000 </r>
       <r>   12.8892    0.0000 </r>
       <r>   15.1058    0.0000 </r>
       <r>   15.6703    0.0000 </r>
       <r>   17.5442    0.0000 </r>
       <r>   19.0977    0.0000 </r>
       <r>   20.5066    0.0000 </r>
       <r>   21.1639    0.0000 </r>
       <r>   23.1238    0.0000 </r>
      </set>
      <set comment="kpoint 190">
       <r>   -5.5995    1.0000 </r>
       <r>    2.2238    1.0000 </r>
       <r>    3.9434    1.0000 </r>
       <r>    5.0389    1.0000 </r>
       <r>    8.0419    0.0000 </r>
       <r>    8.6806    0.0000 </r>
       <r>    9.0161    0.0000 </r>
       <r>   11.1031    0.0000 </r>
       <r>   11.8557    0.0000 </r>
       <r>   13.5207    0.0000 </r>
       <r>   14.9909    0.0000 </r>
       <r>   16.6003    0.0000 </r>
       <r>   18.3859    0.0000 </r>
       <r>   20.1516    0.0000 </r>
       <r>   22.2621    0.0000 </r>
       <r>   23.5220    0.0000 </r>
      </set>
      <set comment="kpoint 191">
       <r>   -5.4318    1.0000 </r>
       <r>    1.7143    1.0000 </r>
       <r>    4.2808    1.0000 </r>
       <r>    4.3897    1.0000 </r>
       <r>    7.7981    0.0000 </r>
       <r>    8.6552    0.0000 </r>
       <r>    9.5730    0.0000 </r>
       <r>   10.7514    0.0000 </r>
       <r>   12.9798    0.0000 </r>
       <r>   13.4441    0.0000 </r>
       <r>   14.8766    0.0000 </r>
       <r>   17.0982    0.0000 </r>
       <r>   19.0684    0.0000 </r>
       <r>   20.2502    0.0000 </r>
       <r>   22.2396    0.0000 </r>
       <r>   22.7396    0.0000 </r>
      </set>
      <set comment="kpoint 192">
       <r>   -5.0663    1.0000 </r>
       <r>    1.1557    1.0000 </r>
       <r>    3.1326    1.0000 </r>
       <r>    4.3401    1.0000 </r>
       <r>    8.0707    0.0000 </r>
       <r>    8.9147    0.0000 </r>
       <r>   10.0894    0.0000 </r>
       <r>   10.3074    0.0000 </r>
       <r>   12.8892    0.0000 </r>
       <r>   15.1057    0.0000 </r>
       <r>   15.6703    0.0000 </r>
       <r>   17.5442    0.0000 </r>
       <r>   19.0977    0.0000 </r>
       <r>   20.5065    0.0000 </r>
       <r>   21.1640    0.0000 </r>
       <r>   23.1238    0.0000 </r>
      </set>
      <set comment="kpoint 193">
       <r>   -4.5247    1.0000 </r>
       <r>    0.4211    1.0000 </r>
       <r>    2.1985    1.0000 </r>
       <r>    3.9990    1.0000 </r>
       <r>    8.6739    0.0000 </r>
       <r>    8.8136    0.0000 </r>
       <r>   10.0620    0.0000 </r>
       <r>   11.0813    0.0000 </r>
       <r>   12.9014    0.0000 </r>
       <r>   15.7133    0.0000 </r>
       <r>   17.1198    0.0000 </r>
       <r>   17.7998    0.0000 </r>
       <r>   18.7628    0.0000 </r>
       <r>   21.0155    0.0000 </r>
       <r>   21.3216    0.0000 </r>
       <r>   23.7940    0.0000 </r>
      </set>
      <set comment="kpoint 194">
       <r>   -3.8745    1.0000 </r>
       <r>   -0.5275    1.0000 </r>
       <r>    1.8270    1.0000 </r>
       <r>    3.6013    1.0000 </r>
       <r>    8.2671    0.0000 </r>
       <r>    9.2245    0.0000 </r>
       <r>   10.9064    0.0000 </r>
       <r>   11.5412    0.0000 </r>
       <r>   13.8045    0.0000 </r>
       <r>   14.0466    0.0000 </r>
       <r>   17.6822    0.0000 </r>
       <r>   19.1770    0.0000 </r>
       <r>   19.7870    0.0000 </r>
       <r>   20.2981    0.0000 </r>
       <r>   22.6190    0.0000 </r>
       <r>   22.9141    0.0000 </r>
      </set>
      <set comment="kpoint 195">
       <r>   -3.3911    1.0000 </r>
       <r>   -1.1863    1.0000 </r>
       <r>    1.8304    1.0000 </r>
       <r>    3.3178    1.0000 </r>
       <r>    7.9245    0.0000 </r>
       <r>    9.4061    0.0000 </r>
       <r>   11.5919    0.0000 </r>
       <r>   12.1225    0.0000 </r>
       <r>   12.5873    0.0000 </r>
       <r>   15.3020    0.0000 </r>
       <r>   17.4438    0.0000 </r>
       <r>   18.2453    0.0000 </r>
       <r>   20.7190    0.0000 </r>
       <r>   21.2225    0.0000 </r>
       <r>   22.4527    0.0000 </r>
       <r>   23.3890    0.0000 </r>
      </set>
      <set comment="kpoint 196">
       <r>   -3.6441    1.0000 </r>
       <r>   -0.8541    1.0000 </r>
       <r>    2.0523    1.0000 </r>
       <r>    3.2321    1.0000 </r>
       <r>    7.7215    0.0000 </r>
       <r>    9.6659    0.0000 </r>
       <r>   10.4616    0.0000 </r>
       <r>   11.7067    0.0000 </r>
       <r>   14.3235    0.0000 </r>
       <r>   15.9768    0.0000 </r>
       <r>   16.9800    0.0000 </r>
       <r>   18.2130    0.0000 </r>
       <r>   18.9382    0.0000 </r>
       <r>   21.5697    0.0000 </r>
       <r>   22.8861    0.0000 </r>
       <r>   23.6325    0.0000 </r>
      </set>
      <set comment="kpoint 197">
       <r>   -4.2901    1.0000 </r>
       <r>    0.1154    1.0000 </r>
       <r>    2.4312    1.0000 </r>
       <r>    3.3804    1.0000 </r>
       <r>    7.5904    0.0000 </r>
       <r>    9.1488    0.0000 </r>
       <r>   10.0265    0.0000 </r>
       <r>   11.7488    0.0000 </r>
       <r>   14.6253    0.0000 </r>
       <r>   15.9707    0.0000 </r>
       <r>   17.0338    0.0000 </r>
       <r>   17.7968    0.0000 </r>
       <r>   19.3485    0.0000 </r>
       <r>   19.9580    0.0000 </r>
       <r>   21.5656    0.0000 </r>
       <r>   23.2688    0.0000 </r>
      </set>
      <set comment="kpoint 198">
       <r>   -4.8864    1.0000 </r>
       <r>    1.1615    1.0000 </r>
       <r>    2.9923    1.0000 </r>
       <r>    3.6795    1.0000 </r>
       <r>    7.2351    0.0000 </r>
       <r>    8.7420    0.0000 </r>
       <r>   10.3366    0.0000 </r>
       <r>   11.3629    0.0000 </r>
       <r>   13.7624    0.0000 </r>
       <r>   15.2335    0.0000 </r>
       <r>   16.7126    0.0000 </r>
       <r>   17.8058    0.0000 </r>
       <r>   19.0522    0.0000 </r>
       <r>   20.4805    0.0000 </r>
       <r>   20.5559    0.0000 </r>
       <r>   22.7262    0.0000 </r>
      </set>
      <set comment="kpoint 199">
       <r>   -5.3390    1.0000 </r>
       <r>    1.2003    1.0000 </r>
       <r>    4.6417    1.0000 </r>
       <r>    4.6417    1.0000 </r>
       <r>    7.2669    0.0000 </r>
       <r>    8.9557    0.0000 </r>
       <r>    8.9558    0.0000 </r>
       <r>   12.4338    0.0000 </r>
       <r>   12.7745    0.0000 </r>
       <r>   12.7745    0.0000 </r>
       <r>   14.2476    0.0000 </r>
       <r>   17.5163    0.0000 </r>
       <r>   20.1441    0.0000 </r>
       <r>   20.1441    0.0000 </r>
       <r>   22.6137    0.0000 </r>
       <r>   22.6137    0.0000 </r>
      </set>
      <set comment="kpoint 200">
       <r>   -5.0473    1.0000 </r>
       <r>    0.7189    1.0000 </r>
       <r>    3.6485    1.0000 </r>
       <r>    4.6853    1.0000 </r>
       <r>    7.7462    0.0000 </r>
       <r>    8.9697    0.0000 </r>
       <r>    9.1606    0.0000 </r>
       <r>   12.0158    0.0000 </r>
       <r>   12.2539    0.0000 </r>
       <r>   14.6967    0.0000 </r>
       <r>   14.8303    0.0000 </r>
       <r>   17.9785    0.0000 </r>
       <r>   19.3338    0.0000 </r>
       <r>   21.1490    0.0000 </r>
       <r>   21.1501    0.0000 </r>
       <r>   22.7371    0.0000 </r>
      </set>
      <set comment="kpoint 201">
       <r>   -4.5718    1.0000 </r>
       <r>    0.2637    1.0000 </r>
       <r>    2.3926    1.0000 </r>
       <r>    4.3807    1.0000 </r>
       <r>    8.0429    0.0000 </r>
       <r>    9.6360    0.0000 </r>
       <r>    9.7335    0.0000 </r>
       <r>   11.6444    0.0000 </r>
       <r>   11.9838    0.0000 </r>
       <r>   15.3873    0.0000 </r>
       <r>   17.0214    0.0000 </r>
       <r>   17.3688    0.0000 </r>
       <r>   19.1423    0.0000 </r>
       <r>   21.1400    0.0000 </r>
       <r>   21.8094    0.0000 </r>
       <r>   22.6818    0.0000 </r>
      </set>
      <set comment="kpoint 202">
       <r>   -3.9541    1.0000 </r>
       <r>   -0.3541    1.0000 </r>
       <r>    1.5857    1.0000 </r>
       <r>    3.9483    1.0000 </r>
       <r>    7.6498    0.0000 </r>
       <r>   10.5673    0.0000 </r>
       <r>   10.9076    0.0000 </r>
       <r>   11.6753    0.0000 </r>
       <r>   12.1626    0.0000 </r>
       <r>   13.9716    0.0000 </r>
       <r>   18.3127    0.0000 </r>
       <r>   18.9722    0.0000 </r>
       <r>   19.3582    0.0000 </r>
       <r>   21.9272    0.0000 </r>
       <r>   22.0519    0.0000 </r>
       <r>   22.6568    0.0000 </r>
      </set>
      <set comment="kpoint 203">
       <r>   -3.3452    1.0000 </r>
       <r>   -1.0868    1.0000 </r>
       <r>    1.4270    1.0000 </r>
       <r>    3.5600    1.0000 </r>
       <r>    7.2292    0.0000 </r>
       <r>   11.1632    0.0000 </r>
       <r>   11.1749    0.0000 </r>
       <r>   12.0332    0.0000 </r>
       <r>   13.0444    0.0000 </r>
       <r>   13.2125    0.0000 </r>
       <r>   18.3544    0.0000 </r>
       <r>   20.2581    0.0000 </r>
       <r>   20.3496    0.0000 </r>
       <r>   21.0994    0.0000 </r>
       <r>   21.7111    0.0000 </r>
       <r>   22.9181    0.0000 </r>
      </set>
      <set comment="kpoint 204">
       <r>   -3.2896    1.0000 </r>
       <r>   -1.1644    1.0000 </r>
       <r>    1.6993    1.0000 </r>
       <r>    3.2951    1.0000 </r>
       <r>    6.9530    0.0000 </r>
       <r>   10.1573    0.0000 </r>
       <r>   11.3952    0.0000 </r>
       <r>   11.5130    0.0000 </r>
       <r>   14.7387    0.0000 </r>
       <r>   14.9180    0.0000 </r>
       <r>   18.3953    0.0000 </r>
       <r>   18.4010    0.0000 </r>
       <r>   18.8017    0.0000 </r>
       <r>   22.7101    0.0000 </r>
       <r>   22.7548    0.0000 </r>
       <r>   23.2063    0.0000 </r>
      </set>
      <set comment="kpoint 205">
       <r>   -3.8769    1.0000 </r>
       <r>   -0.3958    1.0000 </r>
       <r>    2.2531    1.0000 </r>
       <r>    3.1871    1.0000 </r>
       <r>    6.8225    0.0000 </r>
       <r>    8.7095    0.0000 </r>
       <r>   11.5689    0.0000 </r>
       <r>   11.8263    0.0000 </r>
       <r>   16.2671    0.0000 </r>
       <r>   16.5894    0.0000 </r>
       <r>   16.9282    0.0000 </r>
       <r>   16.9659    0.0000 </r>
       <r>   18.9189    0.0000 </r>
       <r>   20.7997    0.0000 </r>
       <r>   21.9446    0.0000 </r>
       <r>   23.5237    0.0000 </r>
      </set>
      <set comment="kpoint 206">
       <r>   -4.5130    1.0000 </r>
       <r>    0.5989    1.0000 </r>
       <r>    2.9547    1.0000 </r>
       <r>    3.2477    1.0000 </r>
       <r>    6.6209    0.0000 </r>
       <r>    7.9845    0.0000 </r>
       <r>   11.7391    0.0000 </r>
       <r>   11.9414    0.0000 </r>
       <r>   15.0553    0.0000 </r>
       <r>   15.2719    0.0000 </r>
       <r>   17.3283    0.0000 </r>
       <r>   18.5718    0.0000 </r>
       <r>   19.0355    0.0000 </r>
       <r>   19.9854    0.0000 </r>
       <r>   21.0600    0.0000 </r>
       <r>   21.9715    0.0000 </r>
      </set>
      <set comment="kpoint 207">
       <r>   -4.8320    1.0000 </r>
       <r>    0.2512    1.0000 </r>
       <r>    4.0174    1.0000 </r>
       <r>    4.0972    1.0000 </r>
       <r>    7.6199    0.0000 </r>
       <r>    8.7370    0.0000 </r>
       <r>    9.5263    0.0000 </r>
       <r>   11.5113    0.0000 </r>
       <r>   14.2234    0.0000 </r>
       <r>   14.3189    0.0000 </r>
       <r>   14.7963    0.0000 </r>
       <r>   18.6148    0.0000 </r>
       <r>   18.9155    0.0000 </r>
       <r>   20.3643    0.0000 </r>
       <r>   22.0741    0.0000 </r>
       <r>   22.3611    0.0000 </r>
      </set>
      <set comment="kpoint 208">
       <r>   -4.4319    1.0000 </r>
       <r>   -0.1414    1.0000 </r>
       <r>    2.8738    1.0000 </r>
       <r>    4.0102    1.0000 </r>
       <r>    8.0778    0.0000 </r>
       <r>    8.7755    0.0000 </r>
       <r>   10.1778    0.0000 </r>
       <r>   11.1272    0.0000 </r>
       <r>   13.9590    0.0000 </r>
       <r>   15.1323    0.0000 </r>
       <r>   16.8183    0.0000 </r>
       <r>   17.1848    0.0000 </r>
       <r>   19.3481    0.0000 </r>
       <r>   20.4832    0.0000 </r>
       <r>   21.9994    0.0000 </r>
       <r>   22.8958    0.0000 </r>
      </set>
      <set comment="kpoint 209">
       <r>   -3.8745    1.0000 </r>
       <r>   -0.5276    1.0000 </r>
       <r>    1.8270    1.0000 </r>
       <r>    3.6013    1.0000 </r>
       <r>    8.2671    0.0000 </r>
       <r>    9.2245    0.0000 </r>
       <r>   10.9063    0.0000 </r>
       <r>   11.5412    0.0000 </r>
       <r>   13.8045    0.0000 </r>
       <r>   14.0466    0.0000 </r>
       <r>   17.6822    0.0000 </r>
       <r>   19.1770    0.0000 </r>
       <r>   19.7869    0.0000 </r>
       <r>   20.2980    0.0000 </r>
       <r>   22.6189    0.0000 </r>
       <r>   22.9141    0.0000 </r>
      </set>
      <set comment="kpoint 210">
       <r>   -3.2356    1.0000 </r>
       <r>   -1.0687    1.0000 </r>
       <r>    1.3157    1.0000 </r>
       <r>    3.1624    1.0000 </r>
       <r>    7.8006    0.0000 </r>
       <r>   10.4632    0.0000 </r>
       <r>   11.1660    0.0000 </r>
       <r>   12.0502    0.0000 </r>
       <r>   12.8624    0.0000 </r>
       <r>   14.0759    0.0000 </r>
       <r>   19.4186    0.0000 </r>
       <r>   19.6757    0.0000 </r>
       <r>   19.8795    0.0000 </r>
       <r>   21.6121    0.0000 </r>
       <r>   21.7070    0.0000 </r>
       <r>   22.7984    0.0000 </r>
      </set>
      <set comment="kpoint 211">
       <r>   -2.8632    1.0000 </r>
       <r>   -1.4578    1.0000 </r>
       <r>    1.4159    1.0000 </r>
       <r>    2.8513    1.0000 </r>
       <r>    7.4436    0.0000 </r>
       <r>   10.0705    0.0000 </r>
       <r>   11.0467    0.0000 </r>
       <r>   12.6133    0.0000 </r>
       <r>   13.3861    0.0000 </r>
       <r>   15.3913    0.0000 </r>
       <r>   18.2795    0.0000 </r>
       <r>   19.5221    0.0000 </r>
       <r>   20.7149    0.0000 </r>
       <r>   21.1817    0.0000 </r>
       <r>   22.4004    0.0000 </r>
       <r>   23.2840    0.0000 </r>
      </set>
      <set comment="kpoint 212">
       <r>   -3.3101    1.0000 </r>
       <r>   -0.9797    1.0000 </r>
       <r>    1.9156    1.0000 </r>
       <r>    2.7400    1.0000 </r>
       <r>    7.2349    0.0000 </r>
       <r>    8.5303    0.0000 </r>
       <r>   11.3437    0.0000 </r>
       <r>   13.4117    0.0000 </r>
       <r>   14.6037    0.0000 </r>
       <r>   16.4256    0.0000 </r>
       <r>   17.2870    0.0000 </r>
       <r>   18.9596    0.0000 </r>
       <r>   19.7753    0.0000 </r>
       <r>   20.3030    0.0000 </r>
       <r>   22.2228    0.0000 </r>
       <r>   22.7501    0.0000 </r>
      </set>
      <set comment="kpoint 213">
       <r>   -3.9660    1.0000 </r>
       <r>   -0.1814    1.0000 </r>
       <r>    2.5319    1.0000 </r>
       <r>    2.9110    1.0000 </r>
       <r>    6.8922    0.0000 </r>
       <r>    7.7449    0.0000 </r>
       <r>   11.6832    0.0000 </r>
       <r>   13.0622    0.0000 </r>
       <r>   15.3713    0.0000 </r>
       <r>   16.5071    0.0000 </r>
       <r>   16.9916    0.0000 </r>
       <r>   18.4931    0.0000 </r>
       <r>   19.3155    0.0000 </r>
       <r>   20.0139    0.0000 </r>
       <r>   21.4029    0.0000 </r>
       <r>   21.9794    0.0000 </r>
      </set>
      <set comment="kpoint 214">
       <r>   -4.1154    1.0000 </r>
       <r>   -0.5246    1.0000 </r>
       <r>    2.7732    1.0000 </r>
       <r>    3.6138    1.0000 </r>
       <r>    7.3794    0.0000 </r>
       <r>    9.7886    0.0000 </r>
       <r>   10.3893    0.0000 </r>
       <r>   10.6610    0.0000 </r>
       <r>   15.2423    0.0000 </r>
       <r>   16.1777    0.0000 </r>
       <r>   16.6958    0.0000 </r>
       <r>   16.9302    0.0000 </r>
       <r>   17.9286    0.0000 </r>
       <r>   21.2835    0.0000 </r>
       <r>   22.9021    0.0000 </r>
       <r>   23.0064    0.0000 </r>
      </set>
      <set comment="kpoint 215">
       <r>   -3.6441    1.0000 </r>
       <r>   -0.8541    1.0000 </r>
       <r>    2.0524    1.0000 </r>
       <r>    3.2321    1.0000 </r>
       <r>    7.7214    0.0000 </r>
       <r>    9.6660    0.0000 </r>
       <r>   10.4616    0.0000 </r>
       <r>   11.7068    0.0000 </r>
       <r>   14.3235    0.0000 </r>
       <r>   15.9767    0.0000 </r>
       <r>   16.9799    0.0000 </r>
       <r>   18.2130    0.0000 </r>
       <r>   18.9381    0.0000 </r>
       <r>   21.5697    0.0000 </r>
       <r>   22.8861    0.0000 </r>
       <r>   23.6325    0.0000 </r>
      </set>
      <set comment="kpoint 216">
       <r>   -3.0595    1.0000 </r>
       <r>   -1.2386    1.0000 </r>
       <r>    1.5341    1.0000 </r>
       <r>    2.6301    1.0000 </r>
       <r>    8.8864    0.0000 </r>
       <r>    9.2099    0.0000 </r>
       <r>   10.4532    0.0000 </r>
       <r>   12.2749    0.0000 </r>
       <r>   13.4169    0.0000 </r>
       <r>   15.9073    0.0000 </r>
       <r>   17.7604    0.0000 </r>
       <r>   19.2336    0.0000 </r>
       <r>   20.6240    0.0000 </r>
       <r>   21.4242    0.0000 </r>
       <r>   22.1251    0.0000 </r>
       <r>   23.6350    0.0000 </r>
      </set>
      <set comment="kpoint 217">
       <r>   -2.4695    1.0000 </r>
       <r>   -1.7493    1.0000 </r>
       <r>    1.4949    1.0000 </r>
       <r>    2.1664    1.0000 </r>
       <r>    8.7780    0.0000 </r>
       <r>   10.0542    0.0000 </r>
       <r>   10.7050    0.0000 </r>
       <r>   10.7305    0.0000 </r>
       <r>   14.9065    0.0000 </r>
       <r>   15.9797    0.0000 </r>
       <r>   17.9271    0.0000 </r>
       <r>   19.0858    0.0000 </r>
       <r>   20.8854    0.0000 </r>
       <r>   21.8899    0.0000 </r>
       <r>   23.1552    0.0000 </r>
       <r>   23.3416    0.0000 </r>
      </set>
      <set comment="kpoint 218">
       <r>   -2.6590    1.0000 </r>
       <r>   -1.5908    1.0000 </r>
       <r>    1.7608    1.0000 </r>
       <r>    2.1318    1.0000 </r>
       <r>    8.4317    0.0000 </r>
       <r>    8.6438    0.0000 </r>
       <r>   10.9467    0.0000 </r>
       <r>   12.5054    0.0000 </r>
       <r>   14.8923    0.0000 </r>
       <r>   16.3173    0.0000 </r>
       <r>   17.6317    0.0000 </r>
       <r>   18.9327    0.0000 </r>
       <r>   20.7929    0.0000 </r>
       <r>   21.5147    0.0000 </r>
       <r>   22.1286    0.0000 </r>
       <r>   23.2389    0.0000 </r>
      </set>
      <set comment="kpoint 219">
       <r>   -3.3101    1.0000 </r>
       <r>   -0.9797    1.0000 </r>
       <r>    1.9157    1.0000 </r>
       <r>    2.7400    1.0000 </r>
       <r>    7.2348    0.0000 </r>
       <r>    8.5304    0.0000 </r>
       <r>   11.3437    0.0000 </r>
       <r>   13.4117    0.0000 </r>
       <r>   14.6037    0.0000 </r>
       <r>   16.4255    0.0000 </r>
       <r>   17.2869    0.0000 </r>
       <r>   18.9596    0.0000 </r>
       <r>   19.7753    0.0000 </r>
       <r>   20.3031    0.0000 </r>
       <r>   22.2229    0.0000 </r>
       <r>   22.7501    0.0000 </r>
      </set>
      <set comment="kpoint 220">
       <r>   -3.2896    1.0000 </r>
       <r>   -1.1645    1.0000 </r>
       <r>    1.6994    1.0000 </r>
       <r>    3.2951    1.0000 </r>
       <r>    6.9530    0.0000 </r>
       <r>   10.1573    0.0000 </r>
       <r>   11.3952    0.0000 </r>
       <r>   11.5130    0.0000 </r>
       <r>   14.7387    0.0000 </r>
       <r>   14.9179    0.0000 </r>
       <r>   18.3952    0.0000 </r>
       <r>   18.4011    0.0000 </r>
       <r>   18.8017    0.0000 </r>
       <r>   22.7101    0.0000 </r>
       <r>   22.7550    0.0000 </r>
       <r>   23.2063    0.0000 </r>
      </set>
      <set comment="kpoint 221">
       <r>   -2.8632    1.0000 </r>
       <r>   -1.4578    1.0000 </r>
       <r>    1.4159    1.0000 </r>
       <r>    2.8513    1.0000 </r>
       <r>    7.4436    0.0000 </r>
       <r>   10.0705    0.0000 </r>
       <r>   11.0467    0.0000 </r>
       <r>   12.6132    0.0000 </r>
       <r>   13.3861    0.0000 </r>
       <r>   15.3912    0.0000 </r>
       <r>   18.2794    0.0000 </r>
       <r>   19.5221    0.0000 </r>
       <r>   20.7149    0.0000 </r>
       <r>   21.1818    0.0000 </r>
       <r>   22.4004    0.0000 </r>
       <r>   23.2841    0.0000 </r>
      </set>
      <set comment="kpoint 222">
       <r>   -2.4695    1.0000 </r>
       <r>   -1.7492    1.0000 </r>
       <r>    1.4949    1.0000 </r>
       <r>    2.1663    1.0000 </r>
       <r>    8.7780    0.0000 </r>
       <r>   10.0542    0.0000 </r>
       <r>   10.7050    0.0000 </r>
       <r>   10.7305    0.0000 </r>
       <r>   14.9065    0.0000 </r>
       <r>   15.9797    0.0000 </r>
       <r>   17.9271    0.0000 </r>
       <r>   19.0858    0.0000 </r>
       <r>   20.8854    0.0000 </r>
       <r>   21.8899    0.0000 </r>
       <r>   23.1552    0.0000 </r>
       <r>   23.3417    0.0000 </r>
      </set>
      <set comment="kpoint 223">
       <r>   -2.4695    1.0000 </r>
       <r>   -1.7492    1.0000 </r>
       <r>    1.4949    1.0000 </r>
       <r>    2.1663    1.0000 </r>
       <r>    8.7780    0.0000 </r>
       <r>   10.0542    0.0000 </r>
       <r>   10.7050    0.0000 </r>
       <r>   10.7305    0.0000 </r>
       <r>   14.9066    0.0000 </r>
       <r>   15.9797    0.0000 </r>
       <r>   17.9271    0.0000 </r>
       <r>   19.0858    0.0000 </r>
       <r>   20.8853    0.0000 </r>
       <r>   21.8899    0.0000 </r>
       <r>   23.1552    0.0000 </r>
       <r>   23.3417    0.0000 </r>
      </set>
      <set comment="kpoint 224">
       <r>   -2.8632    1.0000 </r>
       <r>   -1.4578    1.0000 </r>
       <r>    1.4159    1.0000 </r>
       <r>    2.8512    1.0000 </r>
       <r>    7.4436    0.0000 </r>
       <r>   10.0706    0.0000 </r>
       <r>   11.0467    0.0000 </r>
       <r>   12.6133    0.0000 </r>
       <r>   13.3861    0.0000 </r>
       <r>   15.3912    0.0000 </r>
       <r>   18.2795    0.0000 </r>
       <r>   19.5221    0.0000 </r>
       <r>   20.7149    0.0000 </r>
       <r>   21.1818    0.0000 </r>
       <r>   22.4004    0.0000 </r>
       <r>   23.2840    0.0000 </r>
      </set>
      <set comment="kpoint 225">
       <r>   -2.7663    1.0000 </r>
       <r>   -1.5599    1.0000 </r>
       <r>    1.2621    1.0000 </r>
       <r>    3.1849    1.0000 </r>
       <r>    6.7926    0.0000 </r>
       <r>    9.9989    0.0000 </r>
       <r>   12.4873    0.0000 </r>
       <r>   13.0051    0.0000 </r>
       <r>   13.1871    0.0000 </r>
       <r>   13.6763    0.0000 </r>
       <r>   19.8754    0.0000 </r>
       <r>   20.3492    0.0000 </r>
       <r>   20.6429    0.0000 </r>
       <r>   20.8335    0.0000 </r>
       <r>   20.9136    0.0000 </r>
       <r>   22.4582    0.0000 </r>
      </set>
      <set comment="kpoint 226">
       <r>   -2.8632    1.0000 </r>
       <r>   -1.4577    1.0000 </r>
       <r>    1.4159    1.0000 </r>
       <r>    2.8513    1.0000 </r>
       <r>    7.4436    0.0000 </r>
       <r>   10.0705    0.0000 </r>
       <r>   11.0467    0.0000 </r>
       <r>   12.6133    0.0000 </r>
       <r>   13.3861    0.0000 </r>
       <r>   15.3913    0.0000 </r>
       <r>   18.2795    0.0000 </r>
       <r>   19.5221    0.0000 </r>
       <r>   20.7149    0.0000 </r>
       <r>   21.1818    0.0000 </r>
       <r>   22.4004    0.0000 </r>
       <r>   23.2840    0.0000 </r>
      </set>
      <set comment="kpoint 227">
       <r>   -3.0595    1.0000 </r>
       <r>   -1.2385    1.0000 </r>
       <r>    1.5340    1.0000 </r>
       <r>    2.6301    1.0000 </r>
       <r>    8.8864    0.0000 </r>
       <r>    9.2099    0.0000 </r>
       <r>   10.4532    0.0000 </r>
       <r>   12.2750    0.0000 </r>
       <r>   13.4168    0.0000 </r>
       <r>   15.9073    0.0000 </r>
       <r>   17.7604    0.0000 </r>
       <r>   19.2336    0.0000 </r>
       <r>   20.6239    0.0000 </r>
       <r>   21.4243    0.0000 </r>
       <r>   22.1251    0.0000 </r>
       <r>   23.6350    0.0000 </r>
      </set>
      <set comment="kpoint 228">
       <r>   -3.2356    1.0000 </r>
       <r>   -1.0686    1.0000 </r>
       <r>    1.3157    1.0000 </r>
       <r>    3.1624    1.0000 </r>
       <r>    7.8005    0.0000 </r>
       <r>   10.4632    0.0000 </r>
       <r>   11.1660    0.0000 </r>
       <r>   12.0503    0.0000 </r>
       <r>   12.8624    0.0000 </r>
       <r>   14.0759    0.0000 </r>
       <r>   19.4185    0.0000 </r>
       <r>   19.6757    0.0000 </r>
       <r>   19.8796    0.0000 </r>
       <r>   21.6122    0.0000 </r>
       <r>   21.7070    0.0000 </r>
       <r>   22.7985    0.0000 </r>
      </set>
      <set comment="kpoint 229">
       <r>   -3.2897    1.0000 </r>
       <r>   -1.1644    1.0000 </r>
       <r>    1.6993    1.0000 </r>
       <r>    3.2951    1.0000 </r>
       <r>    6.9530    0.0000 </r>
       <r>   10.1573    0.0000 </r>
       <r>   11.3952    0.0000 </r>
       <r>   11.5129    0.0000 </r>
       <r>   14.7387    0.0000 </r>
       <r>   14.9180    0.0000 </r>
       <r>   18.3953    0.0000 </r>
       <r>   18.4010    0.0000 </r>
       <r>   18.8017    0.0000 </r>
       <r>   22.7101    0.0000 </r>
       <r>   22.7548    0.0000 </r>
       <r>   23.2064    0.0000 </r>
      </set>
      <set comment="kpoint 230">
       <r>   -3.6441    1.0000 </r>
       <r>   -0.8540    1.0000 </r>
       <r>    2.0523    1.0000 </r>
       <r>    3.2321    1.0000 </r>
       <r>    7.7214    0.0000 </r>
       <r>    9.6659    0.0000 </r>
       <r>   10.4616    0.0000 </r>
       <r>   11.7067    0.0000 </r>
       <r>   14.3235    0.0000 </r>
       <r>   15.9768    0.0000 </r>
       <r>   16.9800    0.0000 </r>
       <r>   18.2130    0.0000 </r>
       <r>   18.9382    0.0000 </r>
       <r>   21.5697    0.0000 </r>
       <r>   22.8861    0.0000 </r>
       <r>   23.6325    0.0000 </r>
      </set>
      <set comment="kpoint 231">
       <r>   -3.8745    1.0000 </r>
       <r>   -0.5275    1.0000 </r>
       <r>    1.8270    1.0000 </r>
       <r>    3.6012    1.0000 </r>
       <r>    8.2671    0.0000 </r>
       <r>    9.2245    0.0000 </r>
       <r>   10.9064    0.0000 </r>
       <r>   11.5412    0.0000 </r>
       <r>   13.8046    0.0000 </r>
       <r>   14.0467    0.0000 </r>
       <r>   17.6821    0.0000 </r>
       <r>   19.1771    0.0000 </r>
       <r>   19.7870    0.0000 </r>
       <r>   20.2980    0.0000 </r>
       <r>   22.6189    0.0000 </r>
       <r>   22.9141    0.0000 </r>
      </set>
      <set comment="kpoint 232">
       <r>   -4.1154    1.0000 </r>
       <r>   -0.5245    1.0000 </r>
       <r>    2.7731    1.0000 </r>
       <r>    3.6138    1.0000 </r>
       <r>    7.3794    0.0000 </r>
       <r>    9.7885    0.0000 </r>
       <r>   10.3892    0.0000 </r>
       <r>   10.6610    0.0000 </r>
       <r>   15.2423    0.0000 </r>
       <r>   16.1778    0.0000 </r>
       <r>   16.6959    0.0000 </r>
       <r>   16.9303    0.0000 </r>
       <r>   17.9285    0.0000 </r>
       <r>   21.2835    0.0000 </r>
       <r>   22.9021    0.0000 </r>
       <r>   23.0064    0.0000 </r>
      </set>
      <set comment="kpoint 233">
       <r>   -4.4320    1.0000 </r>
       <r>   -0.1414    1.0000 </r>
       <r>    2.8738    1.0000 </r>
       <r>    4.0102    1.0000 </r>
       <r>    8.0778    0.0000 </r>
       <r>    8.7755    0.0000 </r>
       <r>   10.1777    0.0000 </r>
       <r>   11.1272    0.0000 </r>
       <r>   13.9590    0.0000 </r>
       <r>   15.1323    0.0000 </r>
       <r>   16.8184    0.0000 </r>
       <r>   17.1848    0.0000 </r>
       <r>   19.3482    0.0000 </r>
       <r>   20.4832    0.0000 </r>
       <r>   21.9995    0.0000 </r>
       <r>   22.8958    0.0000 </r>
      </set>
      <set comment="kpoint 234">
       <r>   -4.8320    1.0000 </r>
       <r>    0.2513    1.0000 </r>
       <r>    4.0173    1.0000 </r>
       <r>    4.0972    1.0000 </r>
       <r>    7.6199    0.0000 </r>
       <r>    8.7371    0.0000 </r>
       <r>    9.5262    0.0000 </r>
       <r>   11.5113    0.0000 </r>
       <r>   14.2234    0.0000 </r>
       <r>   14.3190    0.0000 </r>
       <r>   14.7964    0.0000 </r>
       <r>   18.6147    0.0000 </r>
       <r>   18.9156    0.0000 </r>
       <r>   20.3643    0.0000 </r>
       <r>   22.0741    0.0000 </r>
       <r>   22.3611    0.0000 </r>
      </set>
      <set comment="kpoint 235">
       <r>   -4.7033    1.0000 </r>
       <r>   -0.2116    1.0000 </r>
       <r>    4.4148    1.0000 </r>
       <r>    4.4149    1.0000 </r>
       <r>    7.0074    0.0000 </r>
       <r>    8.9169    0.0000 </r>
       <r>    8.9170    0.0000 </r>
       <r>   13.2440    0.0000 </r>
       <r>   13.7902    0.0000 </r>
       <r>   13.7903    0.0000 </r>
       <r>   14.6561    0.0000 </r>
       <r>   19.0801    0.0000 </r>
       <r>   19.2070    0.0000 </r>
       <r>   19.2071    0.0000 </r>
       <r>   21.6954    0.0000 </r>
       <r>   23.4332    0.0000 </r>
      </set>
      <set comment="kpoint 236">
       <r>   -4.8320    1.0000 </r>
       <r>    0.2513    1.0000 </r>
       <r>    4.0173    1.0000 </r>
       <r>    4.0972    1.0000 </r>
       <r>    7.6199    0.0000 </r>
       <r>    8.7370    0.0000 </r>
       <r>    9.5262    0.0000 </r>
       <r>   11.5113    0.0000 </r>
       <r>   14.2234    0.0000 </r>
       <r>   14.3189    0.0000 </r>
       <r>   14.7964    0.0000 </r>
       <r>   18.6147    0.0000 </r>
       <r>   18.9156    0.0000 </r>
       <r>   20.3643    0.0000 </r>
       <r>   22.0741    0.0000 </r>
       <r>   22.3612    0.0000 </r>
      </set>
      <set comment="kpoint 237">
       <r>   -4.7693    1.0000 </r>
       <r>    0.6687    1.0000 </r>
       <r>    3.2377    1.0000 </r>
       <r>    3.6469    1.0000 </r>
       <r>    7.3425    0.0000 </r>
       <r>    9.4507    0.0000 </r>
       <r>   10.0376    0.0000 </r>
       <r>   10.6225    0.0000 </r>
       <r>   14.8730    0.0000 </r>
       <r>   14.8807    0.0000 </r>
       <r>   15.8350    0.0000 </r>
       <r>   18.5027    0.0000 </r>
       <r>   18.6799    0.0000 </r>
       <r>   20.2859    0.0000 </r>
       <r>   21.2420    0.0000 </r>
       <r>   22.4799    0.0000 </r>
      </set>
      <set comment="kpoint 238">
       <r>   -4.5130    1.0000 </r>
       <r>    0.5989    1.0000 </r>
       <r>    2.9548    1.0000 </r>
       <r>    3.2476    1.0000 </r>
       <r>    6.6209    0.0000 </r>
       <r>    7.9845    0.0000 </r>
       <r>   11.7391    0.0000 </r>
       <r>   11.9414    0.0000 </r>
       <r>   15.0553    0.0000 </r>
       <r>   15.2719    0.0000 </r>
       <r>   17.3283    0.0000 </r>
       <r>   18.5718    0.0000 </r>
       <r>   19.0355    0.0000 </r>
       <r>   19.9854    0.0000 </r>
       <r>   21.0601    0.0000 </r>
       <r>   21.9715    0.0000 </r>
      </set>
      <set comment="kpoint 239">
       <r>   -4.0706    1.0000 </r>
       <r>   -0.0484    1.0000 </r>
       <r>    2.9810    1.0000 </r>
       <r>    2.9810    1.0000 </r>
       <r>    6.1486    0.0000 </r>
       <r>    7.1644    0.0000 </r>
       <r>   13.0954    0.0000 </r>
       <r>   13.0954    0.0000 </r>
       <r>   15.5007    0.0000 </r>
       <r>   15.6374    0.0000 </r>
       <r>   18.3998    0.0000 </r>
       <r>   18.3999    0.0000 </r>
       <r>   18.6405    0.0000 </r>
       <r>   20.6783    0.0000 </r>
       <r>   20.9655    0.0000 </r>
       <r>   21.8350    0.0000 </r>
      </set>
      <set comment="kpoint 240">
       <r>   -3.4694    1.0000 </r>
       <r>   -0.8399    1.0000 </r>
       <r>    2.4703    1.0000 </r>
       <r>    2.8785    1.0000 </r>
       <r>    6.3559    0.0000 </r>
       <r>    7.1693    0.0000 </r>
       <r>   13.3998    0.0000 </r>
       <r>   13.4298    0.0000 </r>
       <r>   16.6717    0.0000 </r>
       <r>   16.7469    0.0000 </r>
       <r>   17.0300    0.0000 </r>
       <r>   17.1575    0.0000 </r>
       <r>   19.6901    0.0000 </r>
       <r>   20.3097    0.0000 </r>
       <r>   20.9508    0.0000 </r>
       <r>   22.9697    0.0000 </r>
      </set>
      <set comment="kpoint 241">
       <r>   -2.8213    1.0000 </r>
       <r>   -1.5344    1.0000 </r>
       <r>    1.7266    1.0000 </r>
       <r>    2.9488    1.0000 </r>
       <r>    6.5254    0.0000 </r>
       <r>    8.3150    0.0000 </r>
       <r>   13.1591    0.0000 </r>
       <r>   13.2613    0.0000 </r>
       <r>   14.9792    0.0000 </r>
       <r>   15.1337    0.0000 </r>
       <r>   18.5407    0.0000 </r>
       <r>   18.7505    0.0000 </r>
       <r>   20.4656    0.0000 </r>
       <r>   20.5477    0.0000 </r>
       <r>   21.1063    0.0000 </r>
       <r>   23.2700    0.0000 </r>
      </set>
      <set comment="kpoint 242">
       <r>   -2.7663    1.0000 </r>
       <r>   -1.5599    1.0000 </r>
       <r>    1.2621    1.0000 </r>
       <r>    3.1849    1.0000 </r>
       <r>    6.7926    0.0000 </r>
       <r>    9.9989    0.0000 </r>
       <r>   12.4873    0.0000 </r>
       <r>   13.0051    0.0000 </r>
       <r>   13.1871    0.0000 </r>
       <r>   13.6762    0.0000 </r>
       <r>   19.8754    0.0000 </r>
       <r>   20.3492    0.0000 </r>
       <r>   20.6429    0.0000 </r>
       <r>   20.8335    0.0000 </r>
       <r>   20.9136    0.0000 </r>
       <r>   22.4581    0.0000 </r>
      </set>
      <set comment="kpoint 243">
       <r>   -3.3452    1.0000 </r>
       <r>   -1.0868    1.0000 </r>
       <r>    1.4270    1.0000 </r>
       <r>    3.5600    1.0000 </r>
       <r>    7.2291    0.0000 </r>
       <r>   11.1632    0.0000 </r>
       <r>   11.1750    0.0000 </r>
       <r>   12.0332    0.0000 </r>
       <r>   13.0443    0.0000 </r>
       <r>   13.2125    0.0000 </r>
       <r>   18.3544    0.0000 </r>
       <r>   20.2581    0.0000 </r>
       <r>   20.3495    0.0000 </r>
       <r>   21.0994    0.0000 </r>
       <r>   21.7112    0.0000 </r>
       <r>   22.9182    0.0000 </r>
      </set>
      <set comment="kpoint 244">
       <r>   -3.9275    1.0000 </r>
       <r>   -0.8100    1.0000 </r>
       <r>    2.3045    1.0000 </r>
       <r>    4.0069    1.0000 </r>
       <r>    7.7026    0.0000 </r>
       <r>    9.6721    0.0000 </r>
       <r>    9.8882    0.0000 </r>
       <r>   13.0202    0.0000 </r>
       <r>   13.1895    0.0000 </r>
       <r>   13.9649    0.0000 </r>
       <r>   16.6766    0.0000 </r>
       <r>   18.9656    0.0000 </r>
       <r>   19.9776    0.0000 </r>
       <r>   20.1208    0.0000 </r>
       <r>   21.5978    0.0000 </r>
       <r>   23.9161    0.0000 </r>
      </set>
      <set comment="kpoint 245">
       <r>   -4.3944    1.0000 </r>
       <r>   -0.5656    1.0000 </r>
       <r>    3.5258    1.0000 </r>
       <r>    4.3712    1.0000 </r>
       <r>    7.5336    0.0000 </r>
       <r>    8.9656    0.0000 </r>
       <r>    9.0499    0.0000 </r>
       <r>   13.0868    0.0000 </r>
       <r>   13.3969    0.0000 </r>
       <r>   14.5235    0.0000 </r>
       <r>   16.4442    0.0000 </r>
       <r>   17.1358    0.0000 </r>
       <r>   19.5663    0.0000 </r>
       <r>   19.6585    0.0000 </r>
       <r>   21.8371    0.0000 </r>
       <r>   23.3291    0.0000 </r>
      </set>
      <set comment="kpoint 246">
       <r>   -5.0473    1.0000 </r>
       <r>    0.7189    1.0000 </r>
       <r>    3.6485    1.0000 </r>
       <r>    4.6853    1.0000 </r>
       <r>    7.7461    0.0000 </r>
       <r>    8.9696    0.0000 </r>
       <r>    9.1606    0.0000 </r>
       <r>   12.0159    0.0000 </r>
       <r>   12.2539    0.0000 </r>
       <r>   14.6967    0.0000 </r>
       <r>   14.8303    0.0000 </r>
       <r>   17.9785    0.0000 </r>
       <r>   19.3338    0.0000 </r>
       <r>   21.1491    0.0000 </r>
       <r>   21.1502    0.0000 </r>
       <r>   22.7372    0.0000 </r>
      </set>
      <set comment="kpoint 247">
       <r>   -5.0663    1.0000 </r>
       <r>    1.1558    1.0000 </r>
       <r>    3.1326    1.0000 </r>
       <r>    4.3400    1.0000 </r>
       <r>    8.0707    0.0000 </r>
       <r>    8.9147    0.0000 </r>
       <r>   10.0894    0.0000 </r>
       <r>   10.3074    0.0000 </r>
       <r>   12.8892    0.0000 </r>
       <r>   15.1058    0.0000 </r>
       <r>   15.6703    0.0000 </r>
       <r>   17.5442    0.0000 </r>
       <r>   19.0977    0.0000 </r>
       <r>   20.5065    0.0000 </r>
       <r>   21.1640    0.0000 </r>
       <r>   23.1238    0.0000 </r>
      </set>
      <set comment="kpoint 248">
       <r>   -4.8864    1.0000 </r>
       <r>    1.1615    1.0000 </r>
       <r>    2.9923    1.0000 </r>
       <r>    3.6795    1.0000 </r>
       <r>    7.2351    0.0000 </r>
       <r>    8.7420    0.0000 </r>
       <r>   10.3366    0.0000 </r>
       <r>   11.3628    0.0000 </r>
       <r>   13.7624    0.0000 </r>
       <r>   15.2334    0.0000 </r>
       <r>   16.7126    0.0000 </r>
       <r>   17.8058    0.0000 </r>
       <r>   19.0522    0.0000 </r>
       <r>   20.4805    0.0000 </r>
       <r>   20.5558    0.0000 </r>
       <r>   22.7262    0.0000 </r>
      </set>
      <set comment="kpoint 249">
       <r>   -4.5130    1.0000 </r>
       <r>    0.5988    1.0000 </r>
       <r>    2.9548    1.0000 </r>
       <r>    3.2477    1.0000 </r>
       <r>    6.6209    0.0000 </r>
       <r>    7.9845    0.0000 </r>
       <r>   11.7391    0.0000 </r>
       <r>   11.9415    0.0000 </r>
       <r>   15.0553    0.0000 </r>
       <r>   15.2718    0.0000 </r>
       <r>   17.3283    0.0000 </r>
       <r>   18.5718    0.0000 </r>
       <r>   19.0356    0.0000 </r>
       <r>   19.9854    0.0000 </r>
       <r>   21.0600    0.0000 </r>
       <r>   21.9714    0.0000 </r>
      </set>
      <set comment="kpoint 250">
       <r>   -3.9660    1.0000 </r>
       <r>   -0.1814    1.0000 </r>
       <r>    2.5319    1.0000 </r>
       <r>    2.9110    1.0000 </r>
       <r>    6.8922    0.0000 </r>
       <r>    7.7449    0.0000 </r>
       <r>   11.6833    0.0000 </r>
       <r>   13.0622    0.0000 </r>
       <r>   15.3713    0.0000 </r>
       <r>   16.5070    0.0000 </r>
       <r>   16.9916    0.0000 </r>
       <r>   18.4931    0.0000 </r>
       <r>   19.3155    0.0000 </r>
       <r>   20.0140    0.0000 </r>
       <r>   21.4029    0.0000 </r>
       <r>   21.9794    0.0000 </r>
      </set>
      <set comment="kpoint 251">
       <r>   -3.3101    1.0000 </r>
       <r>   -0.9797    1.0000 </r>
       <r>    1.9157    1.0000 </r>
       <r>    2.7400    1.0000 </r>
       <r>    7.2348    0.0000 </r>
       <r>    8.5304    0.0000 </r>
       <r>   11.3437    0.0000 </r>
       <r>   13.4117    0.0000 </r>
       <r>   14.6037    0.0000 </r>
       <r>   16.4255    0.0000 </r>
       <r>   17.2870    0.0000 </r>
       <r>   18.9595    0.0000 </r>
       <r>   19.7753    0.0000 </r>
       <r>   20.3030    0.0000 </r>
       <r>   22.2229    0.0000 </r>
       <r>   22.7501    0.0000 </r>
      </set>
      <set comment="kpoint 252">
       <r>   -2.8632    1.0000 </r>
       <r>   -1.4578    1.0000 </r>
       <r>    1.4159    1.0000 </r>
       <r>    2.8512    1.0000 </r>
       <r>    7.4436    0.0000 </r>
       <r>   10.0706    0.0000 </r>
       <r>   11.0467    0.0000 </r>
       <r>   12.6132    0.0000 </r>
       <r>   13.3861    0.0000 </r>
       <r>   15.3912    0.0000 </r>
       <r>   18.2795    0.0000 </r>
       <r>   19.5221    0.0000 </r>
       <r>   20.7149    0.0000 </r>
       <r>   21.1817    0.0000 </r>
       <r>   22.4004    0.0000 </r>
       <r>   23.2841    0.0000 </r>
      </set>
      <set comment="kpoint 253">
       <r>   -3.2356    1.0000 </r>
       <r>   -1.0686    1.0000 </r>
       <r>    1.3157    1.0000 </r>
       <r>    3.1624    1.0000 </r>
       <r>    7.8005    0.0000 </r>
       <r>   10.4632    0.0000 </r>
       <r>   11.1660    0.0000 </r>
       <r>   12.0503    0.0000 </r>
       <r>   12.8624    0.0000 </r>
       <r>   14.0759    0.0000 </r>
       <r>   19.4185    0.0000 </r>
       <r>   19.6757    0.0000 </r>
       <r>   19.8796    0.0000 </r>
       <r>   21.6122    0.0000 </r>
       <r>   21.7070    0.0000 </r>
       <r>   22.7985    0.0000 </r>
      </set>
      <set comment="kpoint 254">
       <r>   -3.8745    1.0000 </r>
       <r>   -0.5275    1.0000 </r>
       <r>    1.8270    1.0000 </r>
       <r>    3.6012    1.0000 </r>
       <r>    8.2671    0.0000 </r>
       <r>    9.2245    0.0000 </r>
       <r>   10.9064    0.0000 </r>
       <r>   11.5412    0.0000 </r>
       <r>   13.8045    0.0000 </r>
       <r>   14.0467    0.0000 </r>
       <r>   17.6821    0.0000 </r>
       <r>   19.1771    0.0000 </r>
       <r>   19.7870    0.0000 </r>
       <r>   20.2980    0.0000 </r>
       <r>   22.6190    0.0000 </r>
       <r>   22.9141    0.0000 </r>
      </set>
      <set comment="kpoint 255">
       <r>   -4.4320    1.0000 </r>
       <r>   -0.1414    1.0000 </r>
       <r>    2.8738    1.0000 </r>
       <r>    4.0101    1.0000 </r>
       <r>    8.0778    0.0000 </r>
       <r>    8.7755    0.0000 </r>
       <r>   10.1778    0.0000 </r>
       <r>   11.1272    0.0000 </r>
       <r>   13.9590    0.0000 </r>
       <r>   15.1323    0.0000 </r>
       <r>   16.8184    0.0000 </r>
       <r>   17.1848    0.0000 </r>
       <r>   19.3481    0.0000 </r>
       <r>   20.4832    0.0000 </r>
       <r>   21.9995    0.0000 </r>
       <r>   22.8959    0.0000 </r>
      </set>
      <set comment="kpoint 256">
       <r>   -5.1666    1.0000 </r>
       <r>    1.4178    1.0000 </r>
       <r>    2.8693    1.0000 </r>
       <r>    4.7802    1.0000 </r>
       <r>    8.3380    0.0000 </r>
       <r>    9.1495    0.0000 </r>
       <r>    9.4286    0.0000 </r>
       <r>   10.9837    0.0000 </r>
       <r>   11.5706    0.0000 </r>
       <r>   15.1910    0.0000 </r>
       <r>   15.8915    0.0000 </r>
       <r>   16.9884    0.0000 </r>
       <r>   18.9779    0.0000 </r>
       <r>   20.2141    0.0000 </r>
       <r>   21.6896    0.0000 </r>
       <r>   23.6190    0.0000 </r>
      </set>
      <set comment="kpoint 257">
       <r>   -5.0663    1.0000 </r>
       <r>    1.1557    1.0000 </r>
       <r>    3.1327    1.0000 </r>
       <r>    4.3400    1.0000 </r>
       <r>    8.0707    0.0000 </r>
       <r>    8.9147    0.0000 </r>
       <r>   10.0894    0.0000 </r>
       <r>   10.3075    0.0000 </r>
       <r>   12.8892    0.0000 </r>
       <r>   15.1058    0.0000 </r>
       <r>   15.6703    0.0000 </r>
       <r>   17.5442    0.0000 </r>
       <r>   19.0977    0.0000 </r>
       <r>   20.5065    0.0000 </r>
       <r>   21.1639    0.0000 </r>
       <r>   23.1238    0.0000 </r>
      </set>
      <set comment="kpoint 258">
       <r>   -4.7693    1.0000 </r>
       <r>    0.6687    1.0000 </r>
       <r>    3.2377    1.0000 </r>
       <r>    3.6469    1.0000 </r>
       <r>    7.3425    0.0000 </r>
       <r>    9.4506    0.0000 </r>
       <r>   10.0376    0.0000 </r>
       <r>   10.6225    0.0000 </r>
       <r>   14.8729    0.0000 </r>
       <r>   14.8807    0.0000 </r>
       <r>   15.8350    0.0000 </r>
       <r>   18.5028    0.0000 </r>
       <r>   18.6798    0.0000 </r>
       <r>   20.2859    0.0000 </r>
       <r>   21.2419    0.0000 </r>
       <r>   22.4799    0.0000 </r>
      </set>
      <set comment="kpoint 259">
       <r>   -4.2901    1.0000 </r>
       <r>    0.1154    1.0000 </r>
       <r>    2.4312    1.0000 </r>
       <r>    3.3805    1.0000 </r>
       <r>    7.5903    0.0000 </r>
       <r>    9.1488    0.0000 </r>
       <r>   10.0265    0.0000 </r>
       <r>   11.7489    0.0000 </r>
       <r>   14.6253    0.0000 </r>
       <r>   15.9707    0.0000 </r>
       <r>   17.0337    0.0000 </r>
       <r>   17.7968    0.0000 </r>
       <r>   19.3485    0.0000 </r>
       <r>   19.9580    0.0000 </r>
       <r>   21.5656    0.0000 </r>
       <r>   23.2688    0.0000 </r>
      </set>
      <set comment="kpoint 260">
       <r>   -3.6689    1.0000 </r>
       <r>   -0.5610    1.0000 </r>
       <r>    1.8052    1.0000 </r>
       <r>    2.9366    1.0000 </r>
       <r>    8.5055    0.0000 </r>
       <r>    9.1697    0.0000 </r>
       <r>    9.6517    0.0000 </r>
       <r>   12.9666    0.0000 </r>
       <r>   14.2364    0.0000 </r>
       <r>   14.7916    0.0000 </r>
       <r>   18.7960    0.0000 </r>
       <r>   19.0207    0.0000 </r>
       <r>   19.4221    0.0000 </r>
       <r>   19.8302    0.0000 </r>
       <r>   21.8251    0.0000 </r>
       <r>   23.1925    0.0000 </r>
      </set>
      <set comment="kpoint 261">
       <r>   -3.0595    1.0000 </r>
       <r>   -1.2386    1.0000 </r>
       <r>    1.5341    1.0000 </r>
       <r>    2.6301    1.0000 </r>
       <r>    8.8864    0.0000 </r>
       <r>    9.2099    0.0000 </r>
       <r>   10.4533    0.0000 </r>
       <r>   12.2749    0.0000 </r>
       <r>   13.4168    0.0000 </r>
       <r>   15.9073    0.0000 </r>
       <r>   17.7604    0.0000 </r>
       <r>   19.2336    0.0000 </r>
       <r>   20.6240    0.0000 </r>
       <r>   21.4242    0.0000 </r>
       <r>   22.1251    0.0000 </r>
       <r>   23.6351    0.0000 </r>
      </set>
      <set comment="kpoint 262">
       <r>   -3.0595    1.0000 </r>
       <r>   -1.2386    1.0000 </r>
       <r>    1.5341    1.0000 </r>
       <r>    2.6301    1.0000 </r>
       <r>    8.8865    0.0000 </r>
       <r>    9.2099    0.0000 </r>
       <r>   10.4532    0.0000 </r>
       <r>   12.2750    0.0000 </r>
       <r>   13.4168    0.0000 </r>
       <r>   15.9073    0.0000 </r>
       <r>   17.7604    0.0000 </r>
       <r>   19.2336    0.0000 </r>
       <r>   20.6239    0.0000 </r>
       <r>   21.4243    0.0000 </r>
       <r>   22.1251    0.0000 </r>
       <r>   23.6350    0.0000 </r>
      </set>
      <set comment="kpoint 263">
       <r>   -3.6689    1.0000 </r>
       <r>   -0.5609    1.0000 </r>
       <r>    1.8052    1.0000 </r>
       <r>    2.9366    1.0000 </r>
       <r>    8.5055    0.0000 </r>
       <r>    9.1697    0.0000 </r>
       <r>    9.6516    0.0000 </r>
       <r>   12.9666    0.0000 </r>
       <r>   14.2365    0.0000 </r>
       <r>   14.7916    0.0000 </r>
       <r>   18.7959    0.0000 </r>
       <r>   19.0208    0.0000 </r>
       <r>   19.4221    0.0000 </r>
       <r>   19.8303    0.0000 </r>
       <r>   21.8251    0.0000 </r>
       <r>   23.1925    0.0000 </r>
      </set>
      <set comment="kpoint 264">
       <r>   -4.2901    1.0000 </r>
       <r>    0.1154    1.0000 </r>
       <r>    2.4312    1.0000 </r>
       <r>    3.3804    1.0000 </r>
       <r>    7.5903    0.0000 </r>
       <r>    9.1488    0.0000 </r>
       <r>   10.0265    0.0000 </r>
       <r>   11.7489    0.0000 </r>
       <r>   14.6253    0.0000 </r>
       <r>   15.9707    0.0000 </r>
       <r>   17.0338    0.0000 </r>
       <r>   17.7968    0.0000 </r>
       <r>   19.3485    0.0000 </r>
       <r>   19.9580    0.0000 </r>
       <r>   21.5656    0.0000 </r>
       <r>   23.2688    0.0000 </r>
      </set>
      <set comment="kpoint 265">
       <r>   -5.0473    1.0000 </r>
       <r>    0.7189    1.0000 </r>
       <r>    3.6485    1.0000 </r>
       <r>    4.6853    1.0000 </r>
       <r>    7.7462    0.0000 </r>
       <r>    8.9697    0.0000 </r>
       <r>    9.1606    0.0000 </r>
       <r>   12.0158    0.0000 </r>
       <r>   12.2539    0.0000 </r>
       <r>   14.6967    0.0000 </r>
       <r>   14.8303    0.0000 </r>
       <r>   17.9785    0.0000 </r>
       <r>   19.3338    0.0000 </r>
       <r>   21.1491    0.0000 </r>
       <r>   21.1501    0.0000 </r>
       <r>   22.7371    0.0000 </r>
      </set>
      <set comment="kpoint 266">
       <r>   -4.8320    1.0000 </r>
       <r>    0.2512    1.0000 </r>
       <r>    4.0173    1.0000 </r>
       <r>    4.0972    1.0000 </r>
       <r>    7.6199    0.0000 </r>
       <r>    8.7371    0.0000 </r>
       <r>    9.5262    0.0000 </r>
       <r>   11.5113    0.0000 </r>
       <r>   14.2234    0.0000 </r>
       <r>   14.3189    0.0000 </r>
       <r>   14.7963    0.0000 </r>
       <r>   18.6148    0.0000 </r>
       <r>   18.9155    0.0000 </r>
       <r>   20.3643    0.0000 </r>
       <r>   22.0741    0.0000 </r>
       <r>   22.3611    0.0000 </r>
      </set>
      <set comment="kpoint 267">
       <r>   -4.4319    1.0000 </r>
       <r>   -0.1414    1.0000 </r>
       <r>    2.8738    1.0000 </r>
       <r>    4.0102    1.0000 </r>
       <r>    8.0778    0.0000 </r>
       <r>    8.7756    0.0000 </r>
       <r>   10.1778    0.0000 </r>
       <r>   11.1272    0.0000 </r>
       <r>   13.9590    0.0000 </r>
       <r>   15.1323    0.0000 </r>
       <r>   16.8183    0.0000 </r>
       <r>   17.1848    0.0000 </r>
       <r>   19.3481    0.0000 </r>
       <r>   20.4831    0.0000 </r>
       <r>   21.9995    0.0000 </r>
       <r>   22.8958    0.0000 </r>
      </set>
      <set comment="kpoint 268">
       <r>   -3.8745    1.0000 </r>
       <r>   -0.5276    1.0000 </r>
       <r>    1.8270    1.0000 </r>
       <r>    3.6013    1.0000 </r>
       <r>    8.2671    0.0000 </r>
       <r>    9.2245    0.0000 </r>
       <r>   10.9063    0.0000 </r>
       <r>   11.5412    0.0000 </r>
       <r>   13.8045    0.0000 </r>
       <r>   14.0466    0.0000 </r>
       <r>   17.6822    0.0000 </r>
       <r>   19.1770    0.0000 </r>
       <r>   19.7869    0.0000 </r>
       <r>   20.2980    0.0000 </r>
       <r>   22.6189    0.0000 </r>
       <r>   22.9141    0.0000 </r>
      </set>
      <set comment="kpoint 269">
       <r>   -3.2356    1.0000 </r>
       <r>   -1.0687    1.0000 </r>
       <r>    1.3157    1.0000 </r>
       <r>    3.1624    1.0000 </r>
       <r>    7.8006    0.0000 </r>
       <r>   10.4632    0.0000 </r>
       <r>   11.1660    0.0000 </r>
       <r>   12.0502    0.0000 </r>
       <r>   12.8624    0.0000 </r>
       <r>   14.0759    0.0000 </r>
       <r>   19.4186    0.0000 </r>
       <r>   19.6757    0.0000 </r>
       <r>   19.8795    0.0000 </r>
       <r>   21.6121    0.0000 </r>
       <r>   21.7070    0.0000 </r>
       <r>   22.7984    0.0000 </r>
      </set>
      <set comment="kpoint 270">
       <r>   -2.8632    1.0000 </r>
       <r>   -1.4578    1.0000 </r>
       <r>    1.4159    1.0000 </r>
       <r>    2.8513    1.0000 </r>
       <r>    7.4436    0.0000 </r>
       <r>   10.0705    0.0000 </r>
       <r>   11.0467    0.0000 </r>
       <r>   12.6133    0.0000 </r>
       <r>   13.3861    0.0000 </r>
       <r>   15.3912    0.0000 </r>
       <r>   18.2795    0.0000 </r>
       <r>   19.5221    0.0000 </r>
       <r>   20.7149    0.0000 </r>
       <r>   21.1818    0.0000 </r>
       <r>   22.4004    0.0000 </r>
       <r>   23.2840    0.0000 </r>
      </set>
      <set comment="kpoint 271">
       <r>   -3.3101    1.0000 </r>
       <r>   -0.9797    1.0000 </r>
       <r>    1.9156    1.0000 </r>
       <r>    2.7400    1.0000 </r>
       <r>    7.2349    0.0000 </r>
       <r>    8.5303    0.0000 </r>
       <r>   11.3437    0.0000 </r>
       <r>   13.4117    0.0000 </r>
       <r>   14.6037    0.0000 </r>
       <r>   16.4255    0.0000 </r>
       <r>   17.2870    0.0000 </r>
       <r>   18.9596    0.0000 </r>
       <r>   19.7753    0.0000 </r>
       <r>   20.3030    0.0000 </r>
       <r>   22.2228    0.0000 </r>
       <r>   22.7501    0.0000 </r>
      </set>
      <set comment="kpoint 272">
       <r>   -3.9660    1.0000 </r>
       <r>   -0.1814    1.0000 </r>
       <r>    2.5319    1.0000 </r>
       <r>    2.9110    1.0000 </r>
       <r>    6.8922    0.0000 </r>
       <r>    7.7449    0.0000 </r>
       <r>   11.6832    0.0000 </r>
       <r>   13.0622    0.0000 </r>
       <r>   15.3713    0.0000 </r>
       <r>   16.5071    0.0000 </r>
       <r>   16.9916    0.0000 </r>
       <r>   18.4931    0.0000 </r>
       <r>   19.3155    0.0000 </r>
       <r>   20.0139    0.0000 </r>
       <r>   21.4029    0.0000 </r>
       <r>   21.9793    0.0000 </r>
      </set>
      <set comment="kpoint 273">
       <r>   -4.7033    1.0000 </r>
       <r>   -0.2116    1.0000 </r>
       <r>    4.4148    1.0000 </r>
       <r>    4.4149    1.0000 </r>
       <r>    7.0074    0.0000 </r>
       <r>    8.9170    0.0000 </r>
       <r>    8.9170    0.0000 </r>
       <r>   13.2440    0.0000 </r>
       <r>   13.7902    0.0000 </r>
       <r>   13.7902    0.0000 </r>
       <r>   14.6561    0.0000 </r>
       <r>   19.0801    0.0000 </r>
       <r>   19.2070    0.0000 </r>
       <r>   19.2070    0.0000 </r>
       <r>   21.6954    0.0000 </r>
       <r>   23.4332    0.0000 </r>
      </set>
      <set comment="kpoint 274">
       <r>   -4.3943    1.0000 </r>
       <r>   -0.5656    1.0000 </r>
       <r>    3.5258    1.0000 </r>
       <r>    4.3713    1.0000 </r>
       <r>    7.5337    0.0000 </r>
       <r>    8.9656    0.0000 </r>
       <r>    9.0499    0.0000 </r>
       <r>   13.0868    0.0000 </r>
       <r>   13.3968    0.0000 </r>
       <r>   14.5234    0.0000 </r>
       <r>   16.4441    0.0000 </r>
       <r>   17.1358    0.0000 </r>
       <r>   19.5663    0.0000 </r>
       <r>   19.6585    0.0000 </r>
       <r>   21.8371    0.0000 </r>
       <r>   23.3291    0.0000 </r>
      </set>
      <set comment="kpoint 275">
       <r>   -3.9275    1.0000 </r>
       <r>   -0.8101    1.0000 </r>
       <r>    2.3045    1.0000 </r>
       <r>    4.0070    1.0000 </r>
       <r>    7.7026    0.0000 </r>
       <r>    9.6721    0.0000 </r>
       <r>    9.8882    0.0000 </r>
       <r>   13.0202    0.0000 </r>
       <r>   13.1895    0.0000 </r>
       <r>   13.9649    0.0000 </r>
       <r>   16.6766    0.0000 </r>
       <r>   18.9655    0.0000 </r>
       <r>   19.9776    0.0000 </r>
       <r>   20.1208    0.0000 </r>
       <r>   21.5978    0.0000 </r>
       <r>   23.9161    0.0000 </r>
      </set>
      <set comment="kpoint 276">
       <r>   -3.3452    1.0000 </r>
       <r>   -1.0869    1.0000 </r>
       <r>    1.4270    1.0000 </r>
       <r>    3.5600    1.0000 </r>
       <r>    7.2292    0.0000 </r>
       <r>   11.1632    0.0000 </r>
       <r>   11.1750    0.0000 </r>
       <r>   12.0331    0.0000 </r>
       <r>   13.0443    0.0000 </r>
       <r>   13.2124    0.0000 </r>
       <r>   18.3544    0.0000 </r>
       <r>   20.2580    0.0000 </r>
       <r>   20.3495    0.0000 </r>
       <r>   21.0994    0.0000 </r>
       <r>   21.7111    0.0000 </r>
       <r>   22.9183    0.0000 </r>
      </set>
      <set comment="kpoint 277">
       <r>   -2.7663    1.0000 </r>
       <r>   -1.5600    1.0000 </r>
       <r>    1.2620    1.0000 </r>
       <r>    3.1850    1.0000 </r>
       <r>    6.7926    0.0000 </r>
       <r>    9.9989    0.0000 </r>
       <r>   12.4872    0.0000 </r>
       <r>   13.0051    0.0000 </r>
       <r>   13.1871    0.0000 </r>
       <r>   13.6763    0.0000 </r>
       <r>   19.8754    0.0000 </r>
       <r>   20.3493    0.0000 </r>
       <r>   20.6429    0.0000 </r>
       <r>   20.8335    0.0000 </r>
       <r>   20.9136    0.0000 </r>
       <r>   22.4582    0.0000 </r>
      </set>
      <set comment="kpoint 278">
       <r>   -2.8213    1.0000 </r>
       <r>   -1.5344    1.0000 </r>
       <r>    1.7266    1.0000 </r>
       <r>    2.9489    1.0000 </r>
       <r>    6.5255    0.0000 </r>
       <r>    8.3149    0.0000 </r>
       <r>   13.1591    0.0000 </r>
       <r>   13.2613    0.0000 </r>
       <r>   14.9793    0.0000 </r>
       <r>   15.1338    0.0000 </r>
       <r>   18.5408    0.0000 </r>
       <r>   18.7505    0.0000 </r>
       <r>   20.4657    0.0000 </r>
       <r>   20.5476    0.0000 </r>
       <r>   21.1063    0.0000 </r>
       <r>   23.2700    0.0000 </r>
      </set>
      <set comment="kpoint 279">
       <r>   -3.4694    1.0000 </r>
       <r>   -0.8399    1.0000 </r>
       <r>    2.4702    1.0000 </r>
       <r>    2.8786    1.0000 </r>
       <r>    6.3559    0.0000 </r>
       <r>    7.1692    0.0000 </r>
       <r>   13.3998    0.0000 </r>
       <r>   13.4298    0.0000 </r>
       <r>   16.6717    0.0000 </r>
       <r>   16.7469    0.0000 </r>
       <r>   17.0300    0.0000 </r>
       <r>   17.1575    0.0000 </r>
       <r>   19.6900    0.0000 </r>
       <r>   20.3097    0.0000 </r>
       <r>   20.9508    0.0000 </r>
       <r>   22.9697    0.0000 </r>
      </set>
      <set comment="kpoint 280">
       <r>   -4.1905    1.0000 </r>
       <r>   -0.8999    1.0000 </r>
       <r>    3.7280    1.0000 </r>
       <r>    4.0555    1.0000 </r>
       <r>    7.4712    0.0000 </r>
       <r>    8.7184    0.0000 </r>
       <r>    9.3075    0.0000 </r>
       <r>   12.7217    0.0000 </r>
       <r>   14.1569    0.0000 </r>
       <r>   15.7030    0.0000 </r>
       <r>   16.2890    0.0000 </r>
       <r>   17.0240    0.0000 </r>
       <r>   17.7551    0.0000 </r>
       <r>   20.0104    0.0000 </r>
       <r>   22.5691    0.0000 </r>
       <r>   24.1427    0.0000 </r>
      </set>
      <set comment="kpoint 281">
       <r>   -3.8449    1.0000 </r>
       <r>   -1.0840    1.0000 </r>
       <r>    2.7717    1.0000 </r>
       <r>    3.8089    1.0000 </r>
       <r>    8.0345    0.0000 </r>
       <r>    8.6071    0.0000 </r>
       <r>   10.1193    0.0000 </r>
       <r>   12.5501    0.0000 </r>
       <r>   14.0617    0.0000 </r>
       <r>   15.2116    0.0000 </r>
       <r>   16.4185    0.0000 </r>
       <r>   17.7696    0.0000 </r>
       <r>   18.6413    0.0000 </r>
       <r>   20.4200    0.0000 </r>
       <r>   22.8466    0.0000 </r>
       <r>   24.6206    0.0000 </r>
      </set>
      <set comment="kpoint 282">
       <r>   -3.3911    1.0000 </r>
       <r>   -1.1864    1.0000 </r>
       <r>    1.8304    1.0000 </r>
       <r>    3.3178    1.0000 </r>
       <r>    7.9245    0.0000 </r>
       <r>    9.4061    0.0000 </r>
       <r>   11.5919    0.0000 </r>
       <r>   12.1225    0.0000 </r>
       <r>   12.5873    0.0000 </r>
       <r>   15.3020    0.0000 </r>
       <r>   17.4438    0.0000 </r>
       <r>   18.2453    0.0000 </r>
       <r>   20.7190    0.0000 </r>
       <r>   21.2225    0.0000 </r>
       <r>   22.4528    0.0000 </r>
       <r>   23.3890    0.0000 </r>
      </set>
      <set comment="kpoint 283">
       <r>   -2.8632    1.0000 </r>
       <r>   -1.4578    1.0000 </r>
       <r>    1.4159    1.0000 </r>
       <r>    2.8513    1.0000 </r>
       <r>    7.4436    0.0000 </r>
       <r>   10.0705    0.0000 </r>
       <r>   11.0467    0.0000 </r>
       <r>   12.6132    0.0000 </r>
       <r>   13.3862    0.0000 </r>
       <r>   15.3912    0.0000 </r>
       <r>   18.2795    0.0000 </r>
       <r>   19.5221    0.0000 </r>
       <r>   20.7149    0.0000 </r>
       <r>   21.1818    0.0000 </r>
       <r>   22.4004    0.0000 </r>
       <r>   23.2840    0.0000 </r>
      </set>
      <set comment="kpoint 284">
       <r>   -2.3517    1.0000 </r>
       <r>   -1.9764    1.0000 </r>
       <r>    1.7190    1.0000 </r>
       <r>    2.5354    1.0000 </r>
       <r>    7.1084    0.0000 </r>
       <r>    8.3253    0.0000 </r>
       <r>   12.7454    0.0000 </r>
       <r>   12.9699    0.0000 </r>
       <r>   14.9768    0.0000 </r>
       <r>   15.6197    0.0000 </r>
       <r>   18.1616    0.0000 </r>
       <r>   18.9595    0.0000 </r>
       <r>   20.6473    0.0000 </r>
       <r>   21.2817    0.0000 </r>
       <r>   21.8990    0.0000 </r>
       <r>   22.3057    0.0000 </r>
      </set>
      <set comment="kpoint 285">
       <r>   -2.8341    1.0000 </r>
       <r>   -1.5451    1.0000 </r>
       <r>    2.3473    1.0000 </r>
       <r>    2.4660    1.0000 </r>
       <r>    6.8315    0.0000 </r>
       <r>    7.1034    0.0000 </r>
       <r>   13.1844    0.0000 </r>
       <r>   14.5305    0.0000 </r>
       <r>   15.2170    0.0000 </r>
       <r>   16.5797    0.0000 </r>
       <r>   17.2897    0.0000 </r>
       <r>   18.7446    0.0000 </r>
       <r>   18.9084    0.0000 </r>
       <r>   20.5251    0.0000 </r>
       <r>   21.8089    0.0000 </r>
       <r>   23.1226    0.0000 </r>
      </set>
      <set comment="kpoint 286">
       <r>   -3.6564    1.0000 </r>
       <r>   -1.2032    1.0000 </r>
       <r>    2.4486    1.0000 </r>
       <r>    3.7390    1.0000 </r>
       <r>    7.4695    0.0000 </r>
       <r>    9.6720    0.0000 </r>
       <r>   10.1105    0.0000 </r>
       <r>   12.2444    0.0000 </r>
       <r>   14.3868    0.0000 </r>
       <r>   14.8723    0.0000 </r>
       <r>   16.7798    0.0000 </r>
       <r>   18.0290    0.0000 </r>
       <r>   18.5906    0.0000 </r>
       <r>   20.8051    0.0000 </r>
       <r>   23.8297    0.0000 </r>
       <r>   24.0742    0.0000 </r>
      </set>
      <set comment="kpoint 287">
       <r>   -3.3911    1.0000 </r>
       <r>   -1.1864    1.0000 </r>
       <r>    1.8304    1.0000 </r>
       <r>    3.3178    1.0000 </r>
       <r>    7.9245    0.0000 </r>
       <r>    9.4062    0.0000 </r>
       <r>   11.5919    0.0000 </r>
       <r>   12.1225    0.0000 </r>
       <r>   12.5872    0.0000 </r>
       <r>   15.3020    0.0000 </r>
       <r>   17.4438    0.0000 </r>
       <r>   18.2453    0.0000 </r>
       <r>   20.7190    0.0000 </r>
       <r>   21.2225    0.0000 </r>
       <r>   22.4528    0.0000 </r>
       <r>   23.3890    0.0000 </r>
      </set>
      <set comment="kpoint 288">
       <r>   -3.0595    1.0000 </r>
       <r>   -1.2386    1.0000 </r>
       <r>    1.5341    1.0000 </r>
       <r>    2.6301    1.0000 </r>
       <r>    8.8865    0.0000 </r>
       <r>    9.2099    0.0000 </r>
       <r>   10.4532    0.0000 </r>
       <r>   12.2749    0.0000 </r>
       <r>   13.4169    0.0000 </r>
       <r>   15.9073    0.0000 </r>
       <r>   17.7604    0.0000 </r>
       <r>   19.2336    0.0000 </r>
       <r>   20.6240    0.0000 </r>
       <r>   21.4243    0.0000 </r>
       <r>   22.1251    0.0000 </r>
       <r>   23.6350    0.0000 </r>
      </set>
      <set comment="kpoint 289">
       <r>   -2.6590    1.0000 </r>
       <r>   -1.5908    1.0000 </r>
       <r>    1.7608    1.0000 </r>
       <r>    2.1318    1.0000 </r>
       <r>    8.4317    0.0000 </r>
       <r>    8.6438    0.0000 </r>
       <r>   10.9467    0.0000 </r>
       <r>   12.5053    0.0000 </r>
       <r>   14.8923    0.0000 </r>
       <r>   16.3173    0.0000 </r>
       <r>   17.6317    0.0000 </r>
       <r>   18.9327    0.0000 </r>
       <r>   20.7929    0.0000 </r>
       <r>   21.5147    0.0000 </r>
       <r>   22.1286    0.0000 </r>
       <r>   23.2389    0.0000 </r>
      </set>
      <set comment="kpoint 290">
       <r>   -2.3517    1.0000 </r>
       <r>   -1.9764    1.0000 </r>
       <r>    1.7190    1.0000 </r>
       <r>    2.5354    1.0000 </r>
       <r>    7.1083    0.0000 </r>
       <r>    8.3253    0.0000 </r>
       <r>   12.7454    0.0000 </r>
       <r>   12.9699    0.0000 </r>
       <r>   14.9768    0.0000 </r>
       <r>   15.6197    0.0000 </r>
       <r>   18.1616    0.0000 </r>
       <r>   18.9595    0.0000 </r>
       <r>   20.6473    0.0000 </r>
       <r>   21.2816    0.0000 </r>
       <r>   21.8989    0.0000 </r>
       <r>   22.3058    0.0000 </r>
      </set>
      <set comment="kpoint 291">
       <r>   -3.3452    1.0000 </r>
       <r>   -1.0868    1.0000 </r>
       <r>    1.4270    1.0000 </r>
       <r>    3.5600    1.0000 </r>
       <r>    7.2291    0.0000 </r>
       <r>   11.1632    0.0000 </r>
       <r>   11.1750    0.0000 </r>
       <r>   12.0331    0.0000 </r>
       <r>   13.0443    0.0000 </r>
       <r>   13.2124    0.0000 </r>
       <r>   18.3544    0.0000 </r>
       <r>   20.2580    0.0000 </r>
       <r>   20.3495    0.0000 </r>
       <r>   21.0994    0.0000 </r>
       <r>   21.7111    0.0000 </r>
       <r>   22.9183    0.0000 </r>
      </set>
      <set comment="kpoint 292">
       <r>   -3.2356    1.0000 </r>
       <r>   -1.0687    1.0000 </r>
       <r>    1.3157    1.0000 </r>
       <r>    3.1624    1.0000 </r>
       <r>    7.8005    0.0000 </r>
       <r>   10.4632    0.0000 </r>
       <r>   11.1660    0.0000 </r>
       <r>   12.0502    0.0000 </r>
       <r>   12.8624    0.0000 </r>
       <r>   14.0759    0.0000 </r>
       <r>   19.4186    0.0000 </r>
       <r>   19.6757    0.0000 </r>
       <r>   19.8795    0.0000 </r>
       <r>   21.6121    0.0000 </r>
       <r>   21.7070    0.0000 </r>
       <r>   22.7984    0.0000 </r>
      </set>
      <set comment="kpoint 293">
       <r>   -3.0595    1.0000 </r>
       <r>   -1.2386    1.0000 </r>
       <r>    1.5340    1.0000 </r>
       <r>    2.6301    1.0000 </r>
       <r>    8.8864    0.0000 </r>
       <r>    9.2099    0.0000 </r>
       <r>   10.4533    0.0000 </r>
       <r>   12.2749    0.0000 </r>
       <r>   13.4168    0.0000 </r>
       <r>   15.9073    0.0000 </r>
       <r>   17.7604    0.0000 </r>
       <r>   19.2336    0.0000 </r>
       <r>   20.6239    0.0000 </r>
       <r>   21.4243    0.0000 </r>
       <r>   22.1251    0.0000 </r>
       <r>   23.6351    0.0000 </r>
      </set>
      <set comment="kpoint 294">
       <r>   -2.8632    1.0000 </r>
       <r>   -1.4577    1.0000 </r>
       <r>    1.4159    1.0000 </r>
       <r>    2.8512    1.0000 </r>
       <r>    7.4436    0.0000 </r>
       <r>   10.0706    0.0000 </r>
       <r>   11.0467    0.0000 </r>
       <r>   12.6133    0.0000 </r>
       <r>   13.3861    0.0000 </r>
       <r>   15.3913    0.0000 </r>
       <r>   18.2795    0.0000 </r>
       <r>   19.5221    0.0000 </r>
       <r>   20.7149    0.0000 </r>
       <r>   21.1817    0.0000 </r>
       <r>   22.4004    0.0000 </r>
       <r>   23.2840    0.0000 </r>
      </set>
      <set comment="kpoint 295">
       <r>   -3.3452    1.0000 </r>
       <r>   -1.0868    1.0000 </r>
       <r>    1.4270    1.0000 </r>
       <r>    3.5600    1.0000 </r>
       <r>    7.2292    0.0000 </r>
       <r>   11.1632    0.0000 </r>
       <r>   11.1749    0.0000 </r>
       <r>   12.0332    0.0000 </r>
       <r>   13.0444    0.0000 </r>
       <r>   13.2125    0.0000 </r>
       <r>   18.3544    0.0000 </r>
       <r>   20.2581    0.0000 </r>
       <r>   20.3496    0.0000 </r>
       <r>   21.0994    0.0000 </r>
       <r>   21.7112    0.0000 </r>
       <r>   22.9181    0.0000 </r>
      </set>
      <set comment="kpoint 296">
       <r>   -3.3911    1.0000 </r>
       <r>   -1.1863    1.0000 </r>
       <r>    1.8303    1.0000 </r>
       <r>    3.3178    1.0000 </r>
       <r>    7.9245    0.0000 </r>
       <r>    9.4061    0.0000 </r>
       <r>   11.5919    0.0000 </r>
       <r>   12.1226    0.0000 </r>
       <r>   12.5873    0.0000 </r>
       <r>   15.3020    0.0000 </r>
       <r>   17.4438    0.0000 </r>
       <r>   18.2453    0.0000 </r>
       <r>   20.7190    0.0000 </r>
       <r>   21.2226    0.0000 </r>
       <r>   22.4527    0.0000 </r>
       <r>   23.3890    0.0000 </r>
      </set>
      <set comment="kpoint 297">
       <r>   -3.3911    1.0000 </r>
       <r>   -1.1863    1.0000 </r>
       <r>    1.8304    1.0000 </r>
       <r>    3.3178    1.0000 </r>
       <r>    7.9245    0.0000 </r>
       <r>    9.4062    0.0000 </r>
       <r>   11.5919    0.0000 </r>
       <r>   12.1226    0.0000 </r>
       <r>   12.5872    0.0000 </r>
       <r>   15.3020    0.0000 </r>
       <r>   17.4438    0.0000 </r>
       <r>   18.2453    0.0000 </r>
       <r>   20.7190    0.0000 </r>
       <r>   21.2226    0.0000 </r>
       <r>   22.4527    0.0000 </r>
       <r>   23.3890    0.0000 </r>
      </set>
      <set comment="kpoint 298">
       <r>   -3.6564    1.0000 </r>
       <r>   -1.2032    1.0000 </r>
       <r>    2.4486    1.0000 </r>
       <r>    3.7391    1.0000 </r>
       <r>    7.4695    0.0000 </r>
       <r>    9.6720    0.0000 </r>
       <r>   10.1105    0.0000 </r>
       <r>   12.2445    0.0000 </r>
       <r>   14.3868    0.0000 </r>
       <r>   14.8724    0.0000 </r>
       <r>   16.7798    0.0000 </r>
       <r>   18.0291    0.0000 </r>
       <r>   18.5906    0.0000 </r>
       <r>   20.8051    0.0000 </r>
       <r>   23.8298    0.0000 </r>
       <r>   24.0742    0.0000 </r>
      </set>
      <set comment="kpoint 299">
       <r>   -3.8450    1.0000 </r>
       <r>   -1.0839    1.0000 </r>
       <r>    2.7716    1.0000 </r>
       <r>    3.8089    1.0000 </r>
       <r>    8.0345    0.0000 </r>
       <r>    8.6071    0.0000 </r>
       <r>   10.1192    0.0000 </r>
       <r>   12.5501    0.0000 </r>
       <r>   14.0618    0.0000 </r>
       <r>   15.2117    0.0000 </r>
       <r>   16.4185    0.0000 </r>
       <r>   17.7697    0.0000 </r>
       <r>   18.6414    0.0000 </r>
       <r>   20.4200    0.0000 </r>
       <r>   22.8466    0.0000 </r>
       <r>   24.6206    0.0000 </r>
      </set>
      <set comment="kpoint 300">
       <r>   -4.1906    1.0000 </r>
       <r>   -0.8998    1.0000 </r>
       <r>    3.7279    1.0000 </r>
       <r>    4.0555    1.0000 </r>
       <r>    7.4712    0.0000 </r>
       <r>    8.7184    0.0000 </r>
       <r>    9.3074    0.0000 </r>
       <r>   12.7217    0.0000 </r>
       <r>   14.1569    0.0000 </r>
       <r>   15.7031    0.0000 </r>
       <r>   16.2891    0.0000 </r>
       <r>   17.0240    0.0000 </r>
       <r>   17.7550    0.0000 </r>
       <r>   20.0104    0.0000 </r>
       <r>   22.5691    0.0000 </r>
       <r>   24.1427    0.0000 </r>
      </set>
      <set comment="kpoint 301">
       <r>   -4.1213    1.0000 </r>
       <r>   -1.1888    1.0000 </r>
       <r>    4.2990    1.0000 </r>
       <r>    4.2990    1.0000 </r>
       <r>    6.8721    0.0000 </r>
       <r>    8.8211    0.0000 </r>
       <r>    8.8211    0.0000 </r>
       <r>   13.1508    0.0000 </r>
       <r>   15.2861    0.0000 </r>
       <r>   15.2861    0.0000 </r>
       <r>   16.0859    0.0000 </r>
       <r>   17.2522    0.0000 </r>
       <r>   17.2522    0.0000 </r>
       <r>   18.3374    0.0000 </r>
       <r>   23.3412    0.0000 </r>
       <r>   25.6525    0.0000 </r>
      </set>
      <set comment="kpoint 302">
       <r>   -4.1906    1.0000 </r>
       <r>   -0.8998    1.0000 </r>
       <r>    3.7280    1.0000 </r>
       <r>    4.0555    1.0000 </r>
       <r>    7.4712    0.0000 </r>
       <r>    8.7184    0.0000 </r>
       <r>    9.3075    0.0000 </r>
       <r>   12.7217    0.0000 </r>
       <r>   14.1569    0.0000 </r>
       <r>   15.7031    0.0000 </r>
       <r>   16.2891    0.0000 </r>
       <r>   17.0240    0.0000 </r>
       <r>   17.7551    0.0000 </r>
       <r>   20.0104    0.0000 </r>
       <r>   22.5691    0.0000 </r>
       <r>   24.1427    0.0000 </r>
      </set>
      <set comment="kpoint 303">
       <r>   -4.1154    1.0000 </r>
       <r>   -0.5245    1.0000 </r>
       <r>    2.7731    1.0000 </r>
       <r>    3.6138    1.0000 </r>
       <r>    7.3793    0.0000 </r>
       <r>    9.7886    0.0000 </r>
       <r>   10.3893    0.0000 </r>
       <r>   10.6610    0.0000 </r>
       <r>   15.2423    0.0000 </r>
       <r>   16.1778    0.0000 </r>
       <r>   16.6959    0.0000 </r>
       <r>   16.9302    0.0000 </r>
       <r>   17.9285    0.0000 </r>
       <r>   21.2835    0.0000 </r>
       <r>   22.9022    0.0000 </r>
       <r>   23.0064    0.0000 </r>
      </set>
      <set comment="kpoint 304">
       <r>   -3.8770    1.0000 </r>
       <r>   -0.3958    1.0000 </r>
       <r>    2.2531    1.0000 </r>
       <r>    3.1871    1.0000 </r>
       <r>    6.8225    0.0000 </r>
       <r>    8.7096    0.0000 </r>
       <r>   11.5689    0.0000 </r>
       <r>   11.8263    0.0000 </r>
       <r>   16.2670    0.0000 </r>
       <r>   16.5894    0.0000 </r>
       <r>   16.9282    0.0000 </r>
       <r>   16.9660    0.0000 </r>
       <r>   18.9189    0.0000 </r>
       <r>   20.7997    0.0000 </r>
       <r>   21.9446    0.0000 </r>
       <r>   23.5237    0.0000 </r>
      </set>
      <set comment="kpoint 305">
       <r>   -3.4694    1.0000 </r>
       <r>   -0.8399    1.0000 </r>
       <r>    2.4703    1.0000 </r>
       <r>    2.8785    1.0000 </r>
       <r>    6.3559    0.0000 </r>
       <r>    7.1693    0.0000 </r>
       <r>   13.3998    0.0000 </r>
       <r>   13.4298    0.0000 </r>
       <r>   16.6717    0.0000 </r>
       <r>   16.7469    0.0000 </r>
       <r>   17.0300    0.0000 </r>
       <r>   17.1575    0.0000 </r>
       <r>   19.6900    0.0000 </r>
       <r>   20.3097    0.0000 </r>
       <r>   20.9508    0.0000 </r>
       <r>   22.9697    0.0000 </r>
      </set>
      <set comment="kpoint 306">
       <r>   -2.9033    1.0000 </r>
       <r>   -1.5453    1.0000 </r>
       <r>    2.7294    1.0000 </r>
       <r>    2.7294    1.0000 </r>
       <r>    6.1168    0.0000 </r>
       <r>    6.4443    0.0000 </r>
       <r>   14.7321    0.0000 </r>
       <r>   14.7321    0.0000 </r>
       <r>   16.8292    0.0000 </r>
       <r>   16.8292    0.0000 </r>
       <r>   17.0284    0.0000 </r>
       <r>   17.2776    0.0000 </r>
       <r>   18.6310    0.0000 </r>
       <r>   18.7119    0.0000 </r>
       <r>   23.0043    0.0000 </r>
       <r>   23.7771    0.0000 </r>
      </set>
      <set comment="kpoint 307">
       <r>   -2.2810    1.0000 </r>
       <r>   -2.1688    1.0000 </r>
       <r>    2.3102    1.0000 </r>
       <r>    2.7536    1.0000 </r>
       <r>    6.2972    0.0000 </r>
       <r>    6.8607    0.0000 </r>
       <r>   14.6544    0.0000 </r>
       <r>   14.8603    0.0000 </r>
       <r>   15.4514    0.0000 </r>
       <r>   15.6710    0.0000 </r>
       <r>   18.4118    0.0000 </r>
       <r>   18.4537    0.0000 </r>
       <r>   18.4647    0.0000 </r>
       <r>   19.0132    0.0000 </r>
       <r>   23.0413    0.0000 </r>
       <r>   23.3648    0.0000 </r>
      </set>
      <set comment="kpoint 308">
       <r>   -2.8213    1.0000 </r>
       <r>   -1.5344    1.0000 </r>
       <r>    1.7266    1.0000 </r>
       <r>    2.9488    1.0000 </r>
       <r>    6.5254    0.0000 </r>
       <r>    8.3150    0.0000 </r>
       <r>   13.1591    0.0000 </r>
       <r>   13.2613    0.0000 </r>
       <r>   14.9793    0.0000 </r>
       <r>   15.1337    0.0000 </r>
       <r>   18.5408    0.0000 </r>
       <r>   18.7505    0.0000 </r>
       <r>   20.4656    0.0000 </r>
       <r>   20.5476    0.0000 </r>
       <r>   21.1063    0.0000 </r>
       <r>   23.2700    0.0000 </r>
      </set>
      <set comment="kpoint 309">
       <r>   -3.2897    1.0000 </r>
       <r>   -1.1644    1.0000 </r>
       <r>    1.6994    1.0000 </r>
       <r>    3.2951    1.0000 </r>
       <r>    6.9530    0.0000 </r>
       <r>   10.1574    0.0000 </r>
       <r>   11.3952    0.0000 </r>
       <r>   11.5130    0.0000 </r>
       <r>   14.7387    0.0000 </r>
       <r>   14.9179    0.0000 </r>
       <r>   18.3952    0.0000 </r>
       <r>   18.4010    0.0000 </r>
       <r>   18.8017    0.0000 </r>
       <r>   22.7101    0.0000 </r>
       <r>   22.7549    0.0000 </r>
       <r>   23.2064    0.0000 </r>
      </set>
      <set comment="kpoint 310">
       <r>   -3.6564    1.0000 </r>
       <r>   -1.2032    1.0000 </r>
       <r>    2.4486    1.0000 </r>
       <r>    3.7390    1.0000 </r>
       <r>    7.4695    0.0000 </r>
       <r>    9.6720    0.0000 </r>
       <r>   10.1105    0.0000 </r>
       <r>   12.2445    0.0000 </r>
       <r>   14.3868    0.0000 </r>
       <r>   14.8723    0.0000 </r>
       <r>   16.7798    0.0000 </r>
       <r>   18.0291    0.0000 </r>
       <r>   18.5906    0.0000 </r>
       <r>   20.8051    0.0000 </r>
       <r>   23.8297    0.0000 </r>
       <r>   24.0742    0.0000 </r>
      </set>
      <set comment="kpoint 311">
       <r>   -3.9352    1.0000 </r>
       <r>   -1.2834    1.0000 </r>
       <r>    3.5573    1.0000 </r>
       <r>    4.1519    1.0000 </r>
       <r>    7.4383    0.0000 </r>
       <r>    8.7802    0.0000 </r>
       <r>    9.1305    0.0000 </r>
       <r>   13.4337    0.0000 </r>
       <r>   14.6595    0.0000 </r>
       <r>   14.9981    0.0000 </r>
       <r>   16.2101    0.0000 </r>
       <r>   17.6066    0.0000 </r>
       <r>   17.9102    0.0000 </r>
       <r>   18.6118    0.0000 </r>
       <r>   23.9393    0.0000 </r>
       <r>   25.0768    0.0000 </r>
      </set>
      <set comment="kpoint 312">
       <r>   -4.3944    1.0000 </r>
       <r>   -0.5656    1.0000 </r>
       <r>    3.5258    1.0000 </r>
       <r>    4.3713    1.0000 </r>
       <r>    7.5336    0.0000 </r>
       <r>    8.9656    0.0000 </r>
       <r>    9.0498    0.0000 </r>
       <r>   13.0868    0.0000 </r>
       <r>   13.3969    0.0000 </r>
       <r>   14.5235    0.0000 </r>
       <r>   16.4441    0.0000 </r>
       <r>   17.1358    0.0000 </r>
       <r>   19.5663    0.0000 </r>
       <r>   19.6585    0.0000 </r>
       <r>   21.8371    0.0000 </r>
       <r>   23.3291    0.0000 </r>
      </set>
      <set comment="kpoint 313">
       <r>   -4.4320    1.0000 </r>
       <r>   -0.1414    1.0000 </r>
       <r>    2.8738    1.0000 </r>
       <r>    4.0102    1.0000 </r>
       <r>    8.0777    0.0000 </r>
       <r>    8.7755    0.0000 </r>
       <r>   10.1777    0.0000 </r>
       <r>   11.1272    0.0000 </r>
       <r>   13.9590    0.0000 </r>
       <r>   15.1323    0.0000 </r>
       <r>   16.8183    0.0000 </r>
       <r>   17.1848    0.0000 </r>
       <r>   19.3482    0.0000 </r>
       <r>   20.4832    0.0000 </r>
       <r>   21.9995    0.0000 </r>
       <r>   22.8959    0.0000 </r>
      </set>
      <set comment="kpoint 314">
       <r>   -4.2901    1.0000 </r>
       <r>    0.1154    1.0000 </r>
       <r>    2.4312    1.0000 </r>
       <r>    3.3804    1.0000 </r>
       <r>    7.5903    0.0000 </r>
       <r>    9.1488    0.0000 </r>
       <r>   10.0265    0.0000 </r>
       <r>   11.7488    0.0000 </r>
       <r>   14.6253    0.0000 </r>
       <r>   15.9707    0.0000 </r>
       <r>   17.0338    0.0000 </r>
       <r>   17.7968    0.0000 </r>
       <r>   19.3485    0.0000 </r>
       <r>   19.9580    0.0000 </r>
       <r>   21.5656    0.0000 </r>
       <r>   23.2688    0.0000 </r>
      </set>
      <set comment="kpoint 315">
       <r>   -3.9660    1.0000 </r>
       <r>   -0.1814    1.0000 </r>
       <r>    2.5319    1.0000 </r>
       <r>    2.9110    1.0000 </r>
       <r>    6.8922    0.0000 </r>
       <r>    7.7449    0.0000 </r>
       <r>   11.6832    0.0000 </r>
       <r>   13.0622    0.0000 </r>
       <r>   15.3713    0.0000 </r>
       <r>   16.5071    0.0000 </r>
       <r>   16.9916    0.0000 </r>
       <r>   18.4931    0.0000 </r>
       <r>   19.3155    0.0000 </r>
       <r>   20.0139    0.0000 </r>
       <r>   21.4029    0.0000 </r>
       <r>   21.9794    0.0000 </r>
      </set>
      <set comment="kpoint 316">
       <r>   -3.4694    1.0000 </r>
       <r>   -0.8399    1.0000 </r>
       <r>    2.4703    1.0000 </r>
       <r>    2.8786    1.0000 </r>
       <r>    6.3559    0.0000 </r>
       <r>    7.1692    0.0000 </r>
       <r>   13.3998    0.0000 </r>
       <r>   13.4298    0.0000 </r>
       <r>   16.6718    0.0000 </r>
       <r>   16.7469    0.0000 </r>
       <r>   17.0300    0.0000 </r>
       <r>   17.1574    0.0000 </r>
       <r>   19.6901    0.0000 </r>
       <r>   20.3097    0.0000 </r>
       <r>   20.9509    0.0000 </r>
       <r>   22.9697    0.0000 </r>
      </set>
      <set comment="kpoint 317">
       <r>   -2.8341    1.0000 </r>
       <r>   -1.5451    1.0000 </r>
       <r>    2.3473    1.0000 </r>
       <r>    2.4660    1.0000 </r>
       <r>    6.8315    0.0000 </r>
       <r>    7.1034    0.0000 </r>
       <r>   13.1845    0.0000 </r>
       <r>   14.5305    0.0000 </r>
       <r>   15.2169    0.0000 </r>
       <r>   16.5797    0.0000 </r>
       <r>   17.2897    0.0000 </r>
       <r>   18.7446    0.0000 </r>
       <r>   18.9084    0.0000 </r>
       <r>   20.5252    0.0000 </r>
       <r>   21.8089    0.0000 </r>
       <r>   23.1226    0.0000 </r>
      </set>
      <set comment="kpoint 318">
       <r>   -2.3517    1.0000 </r>
       <r>   -1.9764    1.0000 </r>
       <r>    1.7190    1.0000 </r>
       <r>    2.5354    1.0000 </r>
       <r>    7.1083    0.0000 </r>
       <r>    8.3253    0.0000 </r>
       <r>   12.7454    0.0000 </r>
       <r>   12.9699    0.0000 </r>
       <r>   14.9768    0.0000 </r>
       <r>   15.6197    0.0000 </r>
       <r>   18.1616    0.0000 </r>
       <r>   18.9595    0.0000 </r>
       <r>   20.6473    0.0000 </r>
       <r>   21.2816    0.0000 </r>
       <r>   21.8989    0.0000 </r>
       <r>   22.3058    0.0000 </r>
      </set>
      <set comment="kpoint 319">
       <r>   -2.8632    1.0000 </r>
       <r>   -1.4577    1.0000 </r>
       <r>    1.4159    1.0000 </r>
       <r>    2.8512    1.0000 </r>
       <r>    7.4436    0.0000 </r>
       <r>   10.0706    0.0000 </r>
       <r>   11.0467    0.0000 </r>
       <r>   12.6133    0.0000 </r>
       <r>   13.3861    0.0000 </r>
       <r>   15.3912    0.0000 </r>
       <r>   18.2795    0.0000 </r>
       <r>   19.5221    0.0000 </r>
       <r>   20.7149    0.0000 </r>
       <r>   21.1818    0.0000 </r>
       <r>   22.4004    0.0000 </r>
       <r>   23.2840    0.0000 </r>
      </set>
      <set comment="kpoint 320">
       <r>   -3.3911    1.0000 </r>
       <r>   -1.1863    1.0000 </r>
       <r>    1.8304    1.0000 </r>
       <r>    3.3177    1.0000 </r>
       <r>    7.9245    0.0000 </r>
       <r>    9.4061    0.0000 </r>
       <r>   11.5919    0.0000 </r>
       <r>   12.1226    0.0000 </r>
       <r>   12.5873    0.0000 </r>
       <r>   15.3020    0.0000 </r>
       <r>   17.4438    0.0000 </r>
       <r>   18.2453    0.0000 </r>
       <r>   20.7191    0.0000 </r>
       <r>   21.2226    0.0000 </r>
       <r>   22.4528    0.0000 </r>
       <r>   23.3890    0.0000 </r>
      </set>
      <set comment="kpoint 321">
       <r>   -3.8450    1.0000 </r>
       <r>   -1.0839    1.0000 </r>
       <r>    2.7717    1.0000 </r>
       <r>    3.8088    1.0000 </r>
       <r>    8.0345    0.0000 </r>
       <r>    8.6070    0.0000 </r>
       <r>   10.1192    0.0000 </r>
       <r>   12.5502    0.0000 </r>
       <r>   14.0618    0.0000 </r>
       <r>   15.2117    0.0000 </r>
       <r>   16.4185    0.0000 </r>
       <r>   17.7697    0.0000 </r>
       <r>   18.6414    0.0000 </r>
       <r>   20.4201    0.0000 </r>
       <r>   22.8466    0.0000 </r>
       <r>   24.6206    0.0000 </r>
      </set>
      <set comment="kpoint 322">
       <r>   -4.5718    1.0000 </r>
       <r>    0.2638    1.0000 </r>
       <r>    2.3926    1.0000 </r>
       <r>    4.3807    1.0000 </r>
       <r>    8.0428    0.0000 </r>
       <r>    9.6360    0.0000 </r>
       <r>    9.7335    0.0000 </r>
       <r>   11.6444    0.0000 </r>
       <r>   11.9838    0.0000 </r>
       <r>   15.3873    0.0000 </r>
       <r>   17.0214    0.0000 </r>
       <r>   17.3688    0.0000 </r>
       <r>   19.1424    0.0000 </r>
       <r>   21.1400    0.0000 </r>
       <r>   21.8095    0.0000 </r>
       <r>   22.6818    0.0000 </r>
      </set>
      <set comment="kpoint 323">
       <r>   -4.5247    1.0000 </r>
       <r>    0.4212    1.0000 </r>
       <r>    2.1985    1.0000 </r>
       <r>    3.9990    1.0000 </r>
       <r>    8.6738    0.0000 </r>
       <r>    8.8137    0.0000 </r>
       <r>   10.0620    0.0000 </r>
       <r>   11.0813    0.0000 </r>
       <r>   12.9015    0.0000 </r>
       <r>   15.7133    0.0000 </r>
       <r>   17.1199    0.0000 </r>
       <r>   17.7998    0.0000 </r>
       <r>   18.7628    0.0000 </r>
       <r>   21.0155    0.0000 </r>
       <r>   21.3216    0.0000 </r>
       <r>   23.7940    0.0000 </r>
      </set>
      <set comment="kpoint 324">
       <r>   -4.2901    1.0000 </r>
       <r>    0.1154    1.0000 </r>
       <r>    2.4312    1.0000 </r>
       <r>    3.3804    1.0000 </r>
       <r>    7.5904    0.0000 </r>
       <r>    9.1488    0.0000 </r>
       <r>   10.0265    0.0000 </r>
       <r>   11.7489    0.0000 </r>
       <r>   14.6253    0.0000 </r>
       <r>   15.9707    0.0000 </r>
       <r>   17.0338    0.0000 </r>
       <r>   17.7968    0.0000 </r>
       <r>   19.3485    0.0000 </r>
       <r>   19.9580    0.0000 </r>
       <r>   21.5656    0.0000 </r>
       <r>   23.2688    0.0000 </r>
      </set>
      <set comment="kpoint 325">
       <r>   -3.8769    1.0000 </r>
       <r>   -0.3959    1.0000 </r>
       <r>    2.2531    1.0000 </r>
       <r>    3.1871    1.0000 </r>
       <r>    6.8225    0.0000 </r>
       <r>    8.7095    0.0000 </r>
       <r>   11.5689    0.0000 </r>
       <r>   11.8263    0.0000 </r>
       <r>   16.2670    0.0000 </r>
       <r>   16.5893    0.0000 </r>
       <r>   16.9282    0.0000 </r>
       <r>   16.9659    0.0000 </r>
       <r>   18.9189    0.0000 </r>
       <r>   20.7997    0.0000 </r>
       <r>   21.9446    0.0000 </r>
       <r>   23.5237    0.0000 </r>
      </set>
      <set comment="kpoint 326">
       <r>   -3.3101    1.0000 </r>
       <r>   -0.9797    1.0000 </r>
       <r>    1.9156    1.0000 </r>
       <r>    2.7400    1.0000 </r>
       <r>    7.2349    0.0000 </r>
       <r>    8.5303    0.0000 </r>
       <r>   11.3437    0.0000 </r>
       <r>   13.4117    0.0000 </r>
       <r>   14.6037    0.0000 </r>
       <r>   16.4255    0.0000 </r>
       <r>   17.2870    0.0000 </r>
       <r>   18.9595    0.0000 </r>
       <r>   19.7753    0.0000 </r>
       <r>   20.3031    0.0000 </r>
       <r>   22.2229    0.0000 </r>
       <r>   22.7501    0.0000 </r>
      </set>
      <set comment="kpoint 327">
       <r>   -2.6590    1.0000 </r>
       <r>   -1.5909    1.0000 </r>
       <r>    1.7608    1.0000 </r>
       <r>    2.1318    1.0000 </r>
       <r>    8.4317    0.0000 </r>
       <r>    8.6438    0.0000 </r>
       <r>   10.9467    0.0000 </r>
       <r>   12.5053    0.0000 </r>
       <r>   14.8923    0.0000 </r>
       <r>   16.3173    0.0000 </r>
       <r>   17.6317    0.0000 </r>
       <r>   18.9327    0.0000 </r>
       <r>   20.7929    0.0000 </r>
       <r>   21.5146    0.0000 </r>
       <r>   22.1286    0.0000 </r>
       <r>   23.2389    0.0000 </r>
      </set>
      <set comment="kpoint 328">
       <r>   -2.4695    1.0000 </r>
       <r>   -1.7492    1.0000 </r>
       <r>    1.4949    1.0000 </r>
       <r>    2.1663    1.0000 </r>
       <r>    8.7780    0.0000 </r>
       <r>   10.0542    0.0000 </r>
       <r>   10.7050    0.0000 </r>
       <r>   10.7305    0.0000 </r>
       <r>   14.9066    0.0000 </r>
       <r>   15.9797    0.0000 </r>
       <r>   17.9271    0.0000 </r>
       <r>   19.0858    0.0000 </r>
       <r>   20.8853    0.0000 </r>
       <r>   21.8899    0.0000 </r>
       <r>   23.1552    0.0000 </r>
       <r>   23.3417    0.0000 </r>
      </set>
      <set comment="kpoint 329">
       <r>   -3.0595    1.0000 </r>
       <r>   -1.2385    1.0000 </r>
       <r>    1.5341    1.0000 </r>
       <r>    2.6301    1.0000 </r>
       <r>    8.8864    0.0000 </r>
       <r>    9.2099    0.0000 </r>
       <r>   10.4533    0.0000 </r>
       <r>   12.2750    0.0000 </r>
       <r>   13.4169    0.0000 </r>
       <r>   15.9073    0.0000 </r>
       <r>   17.7604    0.0000 </r>
       <r>   19.2336    0.0000 </r>
       <r>   20.6240    0.0000 </r>
       <r>   21.4243    0.0000 </r>
       <r>   22.1252    0.0000 </r>
       <r>   23.6351    0.0000 </r>
      </set>
      <set comment="kpoint 330">
       <r>   -3.6441    1.0000 </r>
       <r>   -0.8541    1.0000 </r>
       <r>    2.0524    1.0000 </r>
       <r>    3.2320    1.0000 </r>
       <r>    7.7214    0.0000 </r>
       <r>    9.6659    0.0000 </r>
       <r>   10.4616    0.0000 </r>
       <r>   11.7067    0.0000 </r>
       <r>   14.3235    0.0000 </r>
       <r>   15.9767    0.0000 </r>
       <r>   16.9800    0.0000 </r>
       <r>   18.2130    0.0000 </r>
       <r>   18.9382    0.0000 </r>
       <r>   21.5697    0.0000 </r>
       <r>   22.8862    0.0000 </r>
       <r>   23.6325    0.0000 </r>
      </set>
      <set comment="kpoint 331">
       <r>   -4.5718    1.0000 </r>
       <r>    0.2638    1.0000 </r>
       <r>    2.3926    1.0000 </r>
       <r>    4.3807    1.0000 </r>
       <r>    8.0428    0.0000 </r>
       <r>    9.6361    0.0000 </r>
       <r>    9.7335    0.0000 </r>
       <r>   11.6444    0.0000 </r>
       <r>   11.9838    0.0000 </r>
       <r>   15.3873    0.0000 </r>
       <r>   17.0215    0.0000 </r>
       <r>   17.3688    0.0000 </r>
       <r>   19.1423    0.0000 </r>
       <r>   21.1400    0.0000 </r>
       <r>   21.8094    0.0000 </r>
       <r>   22.6818    0.0000 </r>
      </set>
      <set comment="kpoint 332">
       <r>   -4.4319    1.0000 </r>
       <r>   -0.1414    1.0000 </r>
       <r>    2.8738    1.0000 </r>
       <r>    4.0102    1.0000 </r>
       <r>    8.0778    0.0000 </r>
       <r>    8.7755    0.0000 </r>
       <r>   10.1778    0.0000 </r>
       <r>   11.1272    0.0000 </r>
       <r>   13.9590    0.0000 </r>
       <r>   15.1323    0.0000 </r>
       <r>   16.8183    0.0000 </r>
       <r>   17.1848    0.0000 </r>
       <r>   19.3481    0.0000 </r>
       <r>   20.4831    0.0000 </r>
       <r>   21.9994    0.0000 </r>
       <r>   22.8958    0.0000 </r>
      </set>
      <set comment="kpoint 333">
       <r>   -4.1154    1.0000 </r>
       <r>   -0.5246    1.0000 </r>
       <r>    2.7732    1.0000 </r>
       <r>    3.6138    1.0000 </r>
       <r>    7.3794    0.0000 </r>
       <r>    9.7886    0.0000 </r>
       <r>   10.3893    0.0000 </r>
       <r>   10.6609    0.0000 </r>
       <r>   15.2423    0.0000 </r>
       <r>   16.1777    0.0000 </r>
       <r>   16.6958    0.0000 </r>
       <r>   16.9303    0.0000 </r>
       <r>   17.9286    0.0000 </r>
       <r>   21.2835    0.0000 </r>
       <r>   22.9021    0.0000 </r>
       <r>   23.0064    0.0000 </r>
      </set>
      <set comment="kpoint 334">
       <r>   -3.6441    1.0000 </r>
       <r>   -0.8541    1.0000 </r>
       <r>    2.0524    1.0000 </r>
       <r>    3.2321    1.0000 </r>
       <r>    7.7214    0.0000 </r>
       <r>    9.6660    0.0000 </r>
       <r>   10.4616    0.0000 </r>
       <r>   11.7067    0.0000 </r>
       <r>   14.3235    0.0000 </r>
       <r>   15.9767    0.0000 </r>
       <r>   16.9800    0.0000 </r>
       <r>   18.2130    0.0000 </r>
       <r>   18.9381    0.0000 </r>
       <r>   21.5697    0.0000 </r>
       <r>   22.8861    0.0000 </r>
       <r>   23.6325    0.0000 </r>
      </set>
      <set comment="kpoint 335">
       <r>   -3.0595    1.0000 </r>
       <r>   -1.2386    1.0000 </r>
       <r>    1.5340    1.0000 </r>
       <r>    2.6301    1.0000 </r>
       <r>    8.8865    0.0000 </r>
       <r>    9.2099    0.0000 </r>
       <r>   10.4532    0.0000 </r>
       <r>   12.2749    0.0000 </r>
       <r>   13.4169    0.0000 </r>
       <r>   15.9073    0.0000 </r>
       <r>   17.7604    0.0000 </r>
       <r>   19.2336    0.0000 </r>
       <r>   20.6240    0.0000 </r>
       <r>   21.4242    0.0000 </r>
       <r>   22.1251    0.0000 </r>
       <r>   23.6350    0.0000 </r>
      </set>
      <set comment="kpoint 336">
       <r>   -2.4695    1.0000 </r>
       <r>   -1.7493    1.0000 </r>
       <r>    1.4949    1.0000 </r>
       <r>    2.1664    1.0000 </r>
       <r>    8.7780    0.0000 </r>
       <r>   10.0542    0.0000 </r>
       <r>   10.7050    0.0000 </r>
       <r>   10.7305    0.0000 </r>
       <r>   14.9065    0.0000 </r>
       <r>   15.9797    0.0000 </r>
       <r>   17.9271    0.0000 </r>
       <r>   19.0858    0.0000 </r>
       <r>   20.8854    0.0000 </r>
       <r>   21.8899    0.0000 </r>
       <r>   23.1552    0.0000 </r>
       <r>   23.3416    0.0000 </r>
      </set>
      <set comment="kpoint 337">
       <r>   -2.6590    1.0000 </r>
       <r>   -1.5908    1.0000 </r>
       <r>    1.7608    1.0000 </r>
       <r>    2.1318    1.0000 </r>
       <r>    8.4317    0.0000 </r>
       <r>    8.6438    0.0000 </r>
       <r>   10.9467    0.0000 </r>
       <r>   12.5054    0.0000 </r>
       <r>   14.8923    0.0000 </r>
       <r>   16.3173    0.0000 </r>
       <r>   17.6317    0.0000 </r>
       <r>   18.9327    0.0000 </r>
       <r>   20.7929    0.0000 </r>
       <r>   21.5147    0.0000 </r>
       <r>   22.1286    0.0000 </r>
       <r>   23.2389    0.0000 </r>
      </set>
      <set comment="kpoint 338">
       <r>   -3.3101    1.0000 </r>
       <r>   -0.9797    1.0000 </r>
       <r>    1.9157    1.0000 </r>
       <r>    2.7400    1.0000 </r>
       <r>    7.2348    0.0000 </r>
       <r>    8.5304    0.0000 </r>
       <r>   11.3437    0.0000 </r>
       <r>   13.4117    0.0000 </r>
       <r>   14.6037    0.0000 </r>
       <r>   16.4255    0.0000 </r>
       <r>   17.2869    0.0000 </r>
       <r>   18.9596    0.0000 </r>
       <r>   19.7753    0.0000 </r>
       <r>   20.3031    0.0000 </r>
       <r>   22.2228    0.0000 </r>
       <r>   22.7501    0.0000 </r>
      </set>
      <set comment="kpoint 339">
       <r>   -4.3943    1.0000 </r>
       <r>   -0.5656    1.0000 </r>
       <r>    3.5258    1.0000 </r>
       <r>    4.3712    1.0000 </r>
       <r>    7.5337    0.0000 </r>
       <r>    8.9656    0.0000 </r>
       <r>    9.0499    0.0000 </r>
       <r>   13.0868    0.0000 </r>
       <r>   13.3968    0.0000 </r>
       <r>   14.5234    0.0000 </r>
       <r>   16.4441    0.0000 </r>
       <r>   17.1358    0.0000 </r>
       <r>   19.5662    0.0000 </r>
       <r>   19.6585    0.0000 </r>
       <r>   21.8371    0.0000 </r>
       <r>   23.3291    0.0000 </r>
      </set>
      <set comment="kpoint 340">
       <r>   -4.1905    1.0000 </r>
       <r>   -0.8999    1.0000 </r>
       <r>    3.7280    1.0000 </r>
       <r>    4.0555    1.0000 </r>
       <r>    7.4712    0.0000 </r>
       <r>    8.7184    0.0000 </r>
       <r>    9.3075    0.0000 </r>
       <r>   12.7217    0.0000 </r>
       <r>   14.1569    0.0000 </r>
       <r>   15.7030    0.0000 </r>
       <r>   16.2890    0.0000 </r>
       <r>   17.0240    0.0000 </r>
       <r>   17.7551    0.0000 </r>
       <r>   20.0103    0.0000 </r>
       <r>   22.5691    0.0000 </r>
       <r>   24.1426    0.0000 </r>
      </set>
      <set comment="kpoint 341">
       <r>   -3.8449    1.0000 </r>
       <r>   -1.0840    1.0000 </r>
       <r>    2.7716    1.0000 </r>
       <r>    3.8089    1.0000 </r>
       <r>    8.0345    0.0000 </r>
       <r>    8.6071    0.0000 </r>
       <r>   10.1192    0.0000 </r>
       <r>   12.5501    0.0000 </r>
       <r>   14.0617    0.0000 </r>
       <r>   15.2116    0.0000 </r>
       <r>   16.4185    0.0000 </r>
       <r>   17.7696    0.0000 </r>
       <r>   18.6413    0.0000 </r>
       <r>   20.4200    0.0000 </r>
       <r>   22.8466    0.0000 </r>
       <r>   24.6206    0.0000 </r>
      </set>
      <set comment="kpoint 342">
       <r>   -3.3911    1.0000 </r>
       <r>   -1.1864    1.0000 </r>
       <r>    1.8304    1.0000 </r>
       <r>    3.3178    1.0000 </r>
       <r>    7.9245    0.0000 </r>
       <r>    9.4062    0.0000 </r>
       <r>   11.5919    0.0000 </r>
       <r>   12.1225    0.0000 </r>
       <r>   12.5872    0.0000 </r>
       <r>   15.3020    0.0000 </r>
       <r>   17.4438    0.0000 </r>
       <r>   18.2453    0.0000 </r>
       <r>   20.7190    0.0000 </r>
       <r>   21.2225    0.0000 </r>
       <r>   22.4527    0.0000 </r>
       <r>   23.3890    0.0000 </r>
      </set>
      <set comment="kpoint 343">
       <r>   -2.8632    1.0000 </r>
       <r>   -1.4578    1.0000 </r>
       <r>    1.4159    1.0000 </r>
       <r>    2.8513    1.0000 </r>
       <r>    7.4436    0.0000 </r>
       <r>   10.0705    0.0000 </r>
       <r>   11.0467    0.0000 </r>
       <r>   12.6132    0.0000 </r>
       <r>   13.3861    0.0000 </r>
       <r>   15.3912    0.0000 </r>
       <r>   18.2795    0.0000 </r>
       <r>   19.5221    0.0000 </r>
       <r>   20.7149    0.0000 </r>
       <r>   21.1818    0.0000 </r>
       <r>   22.4004    0.0000 </r>
       <r>   23.2841    0.0000 </r>
      </set>
      <set comment="kpoint 344">
       <r>   -2.3517    1.0000 </r>
       <r>   -1.9764    1.0000 </r>
       <r>    1.7190    1.0000 </r>
       <r>    2.5354    1.0000 </r>
       <r>    7.1084    0.0000 </r>
       <r>    8.3253    0.0000 </r>
       <r>   12.7454    0.0000 </r>
       <r>   12.9699    0.0000 </r>
       <r>   14.9768    0.0000 </r>
       <r>   15.6197    0.0000 </r>
       <r>   18.1616    0.0000 </r>
       <r>   18.9595    0.0000 </r>
       <r>   20.6473    0.0000 </r>
       <r>   21.2817    0.0000 </r>
       <r>   21.8990    0.0000 </r>
       <r>   22.3057    0.0000 </r>
      </set>
      <set comment="kpoint 345">
       <r>   -2.8341    1.0000 </r>
       <r>   -1.5451    1.0000 </r>
       <r>    2.3473    1.0000 </r>
       <r>    2.4660    1.0000 </r>
       <r>    6.8315    0.0000 </r>
       <r>    7.1034    0.0000 </r>
       <r>   13.1844    0.0000 </r>
       <r>   14.5305    0.0000 </r>
       <r>   15.2170    0.0000 </r>
       <r>   16.5797    0.0000 </r>
       <r>   17.2897    0.0000 </r>
       <r>   18.7446    0.0000 </r>
       <r>   18.9085    0.0000 </r>
       <r>   20.5251    0.0000 </r>
       <r>   21.8088    0.0000 </r>
       <r>   23.1227    0.0000 </r>
      </set>
      <set comment="kpoint 346">
       <r>   -4.1213    1.0000 </r>
       <r>   -1.1889    1.0000 </r>
       <r>    4.2990    1.0000 </r>
       <r>    4.2990    1.0000 </r>
       <r>    6.8721    0.0000 </r>
       <r>    8.8211    0.0000 </r>
       <r>    8.8212    0.0000 </r>
       <r>   13.1508    0.0000 </r>
       <r>   15.2860    0.0000 </r>
       <r>   15.2860    0.0000 </r>
       <r>   16.0858    0.0000 </r>
       <r>   17.2522    0.0000 </r>
       <r>   17.2522    0.0000 </r>
       <r>   18.3375    0.0000 </r>
       <r>   23.3412    0.0000 </r>
       <r>   25.6525    0.0000 </r>
      </set>
      <set comment="kpoint 347">
       <r>   -3.9351    1.0000 </r>
       <r>   -1.2835    1.0000 </r>
       <r>    3.5573    1.0000 </r>
       <r>    4.1520    1.0000 </r>
       <r>    7.4383    0.0000 </r>
       <r>    8.7803    0.0000 </r>
       <r>    9.1305    0.0000 </r>
       <r>   13.4337    0.0000 </r>
       <r>   14.6594    0.0000 </r>
       <r>   14.9980    0.0000 </r>
       <r>   16.2101    0.0000 </r>
       <r>   17.6066    0.0000 </r>
       <r>   17.9100    0.0000 </r>
       <r>   18.6118    0.0000 </r>
       <r>   23.9393    0.0000 </r>
       <r>   25.0767    0.0000 </r>
      </set>
      <set comment="kpoint 348">
       <r>   -3.6564    1.0000 </r>
       <r>   -1.2032    1.0000 </r>
       <r>    2.4486    1.0000 </r>
       <r>    3.7391    1.0000 </r>
       <r>    7.4696    0.0000 </r>
       <r>    9.6720    0.0000 </r>
       <r>   10.1105    0.0000 </r>
       <r>   12.2444    0.0000 </r>
       <r>   14.3868    0.0000 </r>
       <r>   14.8723    0.0000 </r>
       <r>   16.7798    0.0000 </r>
       <r>   18.0290    0.0000 </r>
       <r>   18.5906    0.0000 </r>
       <r>   20.8050    0.0000 </r>
       <r>   23.8297    0.0000 </r>
       <r>   24.0742    0.0000 </r>
      </set>
      <set comment="kpoint 349">
       <r>   -3.2896    1.0000 </r>
       <r>   -1.1645    1.0000 </r>
       <r>    1.6994    1.0000 </r>
       <r>    3.2951    1.0000 </r>
       <r>    6.9530    0.0000 </r>
       <r>   10.1573    0.0000 </r>
       <r>   11.3952    0.0000 </r>
       <r>   11.5130    0.0000 </r>
       <r>   14.7387    0.0000 </r>
       <r>   14.9179    0.0000 </r>
       <r>   18.3952    0.0000 </r>
       <r>   18.4010    0.0000 </r>
       <r>   18.8017    0.0000 </r>
       <r>   22.7101    0.0000 </r>
       <r>   22.7549    0.0000 </r>
       <r>   23.2063    0.0000 </r>
      </set>
      <set comment="kpoint 350">
       <r>   -2.8213    1.0000 </r>
       <r>   -1.5344    1.0000 </r>
       <r>    1.7266    1.0000 </r>
       <r>    2.9489    1.0000 </r>
       <r>    6.5255    0.0000 </r>
       <r>    8.3149    0.0000 </r>
       <r>   13.1591    0.0000 </r>
       <r>   13.2613    0.0000 </r>
       <r>   14.9792    0.0000 </r>
       <r>   15.1337    0.0000 </r>
       <r>   18.5407    0.0000 </r>
       <r>   18.7505    0.0000 </r>
       <r>   20.4657    0.0000 </r>
       <r>   20.5477    0.0000 </r>
       <r>   21.1063    0.0000 </r>
       <r>   23.2700    0.0000 </r>
      </set>
      <set comment="kpoint 351">
       <r>   -2.2809    1.0000 </r>
       <r>   -2.1689    1.0000 </r>
       <r>    2.3102    1.0000 </r>
       <r>    2.7536    1.0000 </r>
       <r>    6.2972    0.0000 </r>
       <r>    6.8607    0.0000 </r>
       <r>   14.6544    0.0000 </r>
       <r>   14.8603    0.0000 </r>
       <r>   15.4514    0.0000 </r>
       <r>   15.6711    0.0000 </r>
       <r>   18.4117    0.0000 </r>
       <r>   18.4537    0.0000 </r>
       <r>   18.4647    0.0000 </r>
       <r>   19.0133    0.0000 </r>
       <r>   23.0414    0.0000 </r>
       <r>   23.3647    0.0000 </r>
      </set>
      <set comment="kpoint 352">
       <r>   -3.9351    1.0000 </r>
       <r>   -1.2835    1.0000 </r>
       <r>    3.5573    1.0000 </r>
       <r>    4.1519    1.0000 </r>
       <r>    7.4383    0.0000 </r>
       <r>    8.7803    0.0000 </r>
       <r>    9.1306    0.0000 </r>
       <r>   13.4337    0.0000 </r>
       <r>   14.6594    0.0000 </r>
       <r>   14.9980    0.0000 </r>
       <r>   16.2101    0.0000 </r>
       <r>   17.6066    0.0000 </r>
       <r>   17.9100    0.0000 </r>
       <r>   18.6118    0.0000 </r>
       <r>   23.9393    0.0000 </r>
       <r>   25.0767    0.0000 </r>
      </set>
      <set comment="kpoint 353">
       <r>   -3.8449    1.0000 </r>
       <r>   -1.0840    1.0000 </r>
       <r>    2.7717    1.0000 </r>
       <r>    3.8089    1.0000 </r>
       <r>    8.0345    0.0000 </r>
       <r>    8.6071    0.0000 </r>
       <r>   10.1193    0.0000 </r>
       <r>   12.5501    0.0000 </r>
       <r>   14.0617    0.0000 </r>
       <r>   15.2116    0.0000 </r>
       <r>   16.4185    0.0000 </r>
       <r>   17.7696    0.0000 </r>
       <r>   18.6414    0.0000 </r>
       <r>   20.4200    0.0000 </r>
       <r>   22.8466    0.0000 </r>
       <r>   24.6206    0.0000 </r>
      </set>
      <set comment="kpoint 354">
       <r>   -3.6441    1.0000 </r>
       <r>   -0.8541    1.0000 </r>
       <r>    2.0524    1.0000 </r>
       <r>    3.2321    1.0000 </r>
       <r>    7.7214    0.0000 </r>
       <r>    9.6660    0.0000 </r>
       <r>   10.4616    0.0000 </r>
       <r>   11.7068    0.0000 </r>
       <r>   14.3235    0.0000 </r>
       <r>   15.9767    0.0000 </r>
       <r>   16.9800    0.0000 </r>
       <r>   18.2130    0.0000 </r>
       <r>   18.9381    0.0000 </r>
       <r>   21.5697    0.0000 </r>
       <r>   22.8861    0.0000 </r>
       <r>   23.6325    0.0000 </r>
      </set>
      <set comment="kpoint 355">
       <r>   -3.3101    1.0000 </r>
       <r>   -0.9797    1.0000 </r>
       <r>    1.9157    1.0000 </r>
       <r>    2.7400    1.0000 </r>
       <r>    7.2349    0.0000 </r>
       <r>    8.5303    0.0000 </r>
       <r>   11.3437    0.0000 </r>
       <r>   13.4117    0.0000 </r>
       <r>   14.6037    0.0000 </r>
       <r>   16.4255    0.0000 </r>
       <r>   17.2869    0.0000 </r>
       <r>   18.9595    0.0000 </r>
       <r>   19.7753    0.0000 </r>
       <r>   20.3031    0.0000 </r>
       <r>   22.2229    0.0000 </r>
       <r>   22.7501    0.0000 </r>
      </set>
      <set comment="kpoint 356">
       <r>   -2.8341    1.0000 </r>
       <r>   -1.5451    1.0000 </r>
       <r>    2.3473    1.0000 </r>
       <r>    2.4660    1.0000 </r>
       <r>    6.8315    0.0000 </r>
       <r>    7.1034    0.0000 </r>
       <r>   13.1845    0.0000 </r>
       <r>   14.5305    0.0000 </r>
       <r>   15.2170    0.0000 </r>
       <r>   16.5797    0.0000 </r>
       <r>   17.2897    0.0000 </r>
       <r>   18.7446    0.0000 </r>
       <r>   18.9084    0.0000 </r>
       <r>   20.5251    0.0000 </r>
       <r>   21.8089    0.0000 </r>
       <r>   23.1227    0.0000 </r>
      </set>
      <set comment="kpoint 357">
       <r>   -3.9275    1.0000 </r>
       <r>   -0.8101    1.0000 </r>
       <r>    2.3045    1.0000 </r>
       <r>    4.0070    1.0000 </r>
       <r>    7.7026    0.0000 </r>
       <r>    9.6721    0.0000 </r>
       <r>    9.8882    0.0000 </r>
       <r>   13.0202    0.0000 </r>
       <r>   13.1895    0.0000 </r>
       <r>   13.9649    0.0000 </r>
       <r>   16.6766    0.0000 </r>
       <r>   18.9655    0.0000 </r>
       <r>   19.9776    0.0000 </r>
       <r>   20.1207    0.0000 </r>
       <r>   21.5978    0.0000 </r>
       <r>   23.9161    0.0000 </r>
      </set>
      <set comment="kpoint 358">
       <r>   -3.8745    1.0000 </r>
       <r>   -0.5276    1.0000 </r>
       <r>    1.8270    1.0000 </r>
       <r>    3.6012    1.0000 </r>
       <r>    8.2671    0.0000 </r>
       <r>    9.2245    0.0000 </r>
       <r>   10.9063    0.0000 </r>
       <r>   11.5412    0.0000 </r>
       <r>   13.8045    0.0000 </r>
       <r>   14.0466    0.0000 </r>
       <r>   17.6822    0.0000 </r>
       <r>   19.1770    0.0000 </r>
       <r>   19.7869    0.0000 </r>
       <r>   20.2980    0.0000 </r>
       <r>   22.6189    0.0000 </r>
       <r>   22.9141    0.0000 </r>
      </set>
      <set comment="kpoint 359">
       <r>   -3.6689    1.0000 </r>
       <r>   -0.5609    1.0000 </r>
       <r>    1.8052    1.0000 </r>
       <r>    2.9366    1.0000 </r>
       <r>    8.5055    0.0000 </r>
       <r>    9.1697    0.0000 </r>
       <r>    9.6517    0.0000 </r>
       <r>   12.9666    0.0000 </r>
       <r>   14.2364    0.0000 </r>
       <r>   14.7916    0.0000 </r>
       <r>   18.7959    0.0000 </r>
       <r>   19.0207    0.0000 </r>
       <r>   19.4221    0.0000 </r>
       <r>   19.8303    0.0000 </r>
       <r>   21.8251    0.0000 </r>
       <r>   23.1925    0.0000 </r>
      </set>
      <set comment="kpoint 360">
       <r>   -3.3101    1.0000 </r>
       <r>   -0.9797    1.0000 </r>
       <r>    1.9157    1.0000 </r>
       <r>    2.7400    1.0000 </r>
       <r>    7.2348    0.0000 </r>
       <r>    8.5304    0.0000 </r>
       <r>   11.3437    0.0000 </r>
       <r>   13.4117    0.0000 </r>
       <r>   14.6037    0.0000 </r>
       <r>   16.4256    0.0000 </r>
       <r>   17.2870    0.0000 </r>
       <r>   18.9596    0.0000 </r>
       <r>   19.7753    0.0000 </r>
       <r>   20.3030    0.0000 </r>
       <r>   22.2229    0.0000 </r>
       <r>   22.7501    0.0000 </r>
      </set>
      <set comment="kpoint 361">
       <r>   -3.9541    1.0000 </r>
       <r>   -0.3541    1.0000 </r>
       <r>    1.5857    1.0000 </r>
       <r>    3.9483    1.0000 </r>
       <r>    7.6498    0.0000 </r>
       <r>   10.5673    0.0000 </r>
       <r>   10.9076    0.0000 </r>
       <r>   11.6753    0.0000 </r>
       <r>   12.1626    0.0000 </r>
       <r>   13.9716    0.0000 </r>
       <r>   18.3127    0.0000 </r>
       <r>   18.9722    0.0000 </r>
       <r>   19.3582    0.0000 </r>
       <r>   21.9271    0.0000 </r>
       <r>   22.0519    0.0000 </r>
       <r>   22.6568    0.0000 </r>
      </set>
      <set comment="kpoint 362">
       <r>   -3.8745    1.0000 </r>
       <r>   -0.5275    1.0000 </r>
       <r>    1.8270    1.0000 </r>
       <r>    3.6012    1.0000 </r>
       <r>    8.2671    0.0000 </r>
       <r>    9.2245    0.0000 </r>
       <r>   10.9064    0.0000 </r>
       <r>   11.5412    0.0000 </r>
       <r>   13.8046    0.0000 </r>
       <r>   14.0466    0.0000 </r>
       <r>   17.6821    0.0000 </r>
       <r>   19.1770    0.0000 </r>
       <r>   19.7870    0.0000 </r>
       <r>   20.2981    0.0000 </r>
       <r>   22.6190    0.0000 </r>
       <r>   22.9141    0.0000 </r>
      </set>
      <set comment="kpoint 363">
       <r>   -3.6441    1.0000 </r>
       <r>   -0.8541    1.0000 </r>
       <r>    2.0523    1.0000 </r>
       <r>    3.2321    1.0000 </r>
       <r>    7.7214    0.0000 </r>
       <r>    9.6660    0.0000 </r>
       <r>   10.4616    0.0000 </r>
       <r>   11.7067    0.0000 </r>
       <r>   14.3235    0.0000 </r>
       <r>   15.9768    0.0000 </r>
       <r>   16.9800    0.0000 </r>
       <r>   18.2130    0.0000 </r>
       <r>   18.9381    0.0000 </r>
       <r>   21.5697    0.0000 </r>
       <r>   22.8862    0.0000 </r>
       <r>   23.6325    0.0000 </r>
      </set>
      <set comment="kpoint 364">
       <r>   -3.9275    1.0000 </r>
       <r>   -0.8100    1.0000 </r>
       <r>    2.3045    1.0000 </r>
       <r>    4.0070    1.0000 </r>
       <r>    7.7026    0.0000 </r>
       <r>    9.6721    0.0000 </r>
       <r>    9.8881    0.0000 </r>
       <r>   13.0202    0.0000 </r>
       <r>   13.1896    0.0000 </r>
       <r>   13.9649    0.0000 </r>
       <r>   16.6766    0.0000 </r>
       <r>   18.9655    0.0000 </r>
       <r>   19.9777    0.0000 </r>
       <r>   20.1208    0.0000 </r>
       <r>   21.5978    0.0000 </r>
       <r>   23.9161    0.0000 </r>
      </set>
      <set comment="kpoint 365">
       <r>   -3.8450    1.0000 </r>
       <r>   -1.0839    1.0000 </r>
       <r>    2.7716    1.0000 </r>
       <r>    3.8089    1.0000 </r>
       <r>    8.0345    0.0000 </r>
       <r>    8.6071    0.0000 </r>
       <r>   10.1192    0.0000 </r>
       <r>   12.5502    0.0000 </r>
       <r>   14.0617    0.0000 </r>
       <r>   15.2117    0.0000 </r>
       <r>   16.4185    0.0000 </r>
       <r>   17.7697    0.0000 </r>
       <r>   18.6414    0.0000 </r>
       <r>   20.4201    0.0000 </r>
       <r>   22.8466    0.0000 </r>
       <r>   24.6206    0.0000 </r>
      </set>
      <set comment="kpoint 366">
       <r>   -3.9352    1.0000 </r>
       <r>   -1.2834    1.0000 </r>
       <r>    3.5573    1.0000 </r>
       <r>    4.1520    1.0000 </r>
       <r>    7.4383    0.0000 </r>
       <r>    8.7803    0.0000 </r>
       <r>    9.1305    0.0000 </r>
       <r>   13.4337    0.0000 </r>
       <r>   14.6595    0.0000 </r>
       <r>   14.9981    0.0000 </r>
       <r>   16.2101    0.0000 </r>
       <r>   17.6067    0.0000 </r>
       <r>   17.9101    0.0000 </r>
       <r>   18.6118    0.0000 </r>
       <r>   23.9393    0.0000 </r>
       <r>   25.0767    0.0000 </r>
      </set>
     </set>
    </set>
   </array>
  </eigenvalues>
  <separator name="orbital magnetization" >
   <v name="MAGDIPOLOUT">      0.00000000      0.00000000      0.00000000</v>
  </separator>
  <dos>
   <i name="efermi">      5.77677885 </i>
   <total>
    <array>
     <dimension dim="1">gridpoints</dimension>
     <dimension dim="2">spin</dimension>
     <field>energy</field>
     <field>total</field>
     <field>integrated</field>
     <set>
      <set comment="spin 1">
       <r>    -7.9711     0.0000     0.0000 </r>
       <r>    -7.8451     0.0000     0.0000 </r>
       <r>    -7.7190     0.0000     0.0000 </r>
       <r>    -7.5930     0.0000     0.0000 </r>
       <r>    -7.4670     0.0000     0.0000 </r>
       <r>    -7.3409     0.0000     0.0000 </r>
       <r>    -7.2149     0.0000     0.0000 </r>
       <r>    -7.0889     0.0000     0.0000 </r>
       <r>    -6.9628     0.0000     0.0000 </r>
       <r>    -6.8368     0.0000     0.0000 </r>
       <r>    -6.7108     0.0000     0.0000 </r>
       <r>    -6.5847     0.0000     0.0000 </r>
       <r>    -6.4587     0.0000     0.0000 </r>
       <r>    -6.3327     0.0020     0.0003 </r>
       <r>    -6.2067     0.0328     0.0044 </r>
       <r>    -6.0806     0.1143     0.0188 </r>
       <r>    -5.9546     0.1537     0.0382 </r>
       <r>    -5.8286     0.2778     0.0732 </r>
       <r>    -5.7025     0.1781     0.0956 </r>
       <r>    -5.5765     0.3185     0.1358 </r>
       <r>    -5.4505     0.3771     0.1833 </r>
       <r>    -5.3244     0.3554     0.2281 </r>
       <r>    -5.1984     0.2603     0.2609 </r>
       <r>    -5.0724     0.4596     0.3188 </r>
       <r>    -4.9463     0.5710     0.3908 </r>
       <r>    -4.8203     0.4567     0.4483 </r>
       <r>    -4.6943     0.4078     0.4997 </r>
       <r>    -4.5682     0.3787     0.5475 </r>
       <r>    -4.4422     0.8002     0.6483 </r>
       <r>    -4.3162     0.7613     0.7443 </r>
       <r>    -4.1902     0.5844     0.8179 </r>
       <r>    -4.0641     0.5027     0.8813 </r>
       <r>    -3.9381     0.8236     0.9851 </r>
       <r>    -3.8121     1.3247     1.1520 </r>
       <r>    -3.6860     0.7220     1.2430 </r>
       <r>    -3.5600     0.7086     1.3323 </r>
       <r>    -3.4340     0.4875     1.3938 </r>
       <r>    -3.3079     1.0263     1.5231 </r>
       <r>    -3.1819     0.7686     1.6200 </r>
       <r>    -3.0559     0.3816     1.6681 </r>
       <r>    -2.9298     0.4226     1.7213 </r>
       <r>    -2.8038     0.7836     1.8201 </r>
       <r>    -2.6778     0.5120     1.8846 </r>
       <r>    -2.5518     0.2171     1.9120 </r>
       <r>    -2.4257     0.2375     1.9419 </r>
       <r>    -2.2997     0.3105     1.9811 </r>
       <r>    -2.1737     0.2078     2.0072 </r>
       <r>    -2.0476     0.1242     2.0229 </r>
       <r>    -1.9216     0.1869     2.0465 </r>
       <r>    -1.7956     0.1331     2.0632 </r>
       <r>    -1.6695     0.2460     2.0942 </r>
       <r>    -1.5435     0.6410     2.1750 </r>
       <r>    -1.4175     0.7896     2.2745 </r>
       <r>    -1.2914     0.5258     2.3408 </r>
       <r>    -1.1654     1.3072     2.5056 </r>
       <r>    -1.0394     1.3685     2.6780 </r>
       <r>    -0.9133     0.9856     2.8023 </r>
       <r>    -0.7873     0.9527     2.9223 </r>
       <r>    -0.6613     0.3516     2.9666 </r>
       <r>    -0.5353     0.7058     3.0556 </r>
       <r>    -0.4092     0.7647     3.1520 </r>
       <r>    -0.2832     0.3365     3.1944 </r>
       <r>    -0.1572     0.4850     3.2555 </r>
       <r>    -0.0311     0.4727     3.3151 </r>
       <r>     0.0949     0.2827     3.3507 </r>
       <r>     0.2209     0.4823     3.4115 </r>
       <r>     0.3470     0.4193     3.4643 </r>
       <r>     0.4730     0.2483     3.4956 </r>
       <r>     0.5990     0.2563     3.5280 </r>
       <r>     0.7251     0.4528     3.5850 </r>
       <r>     0.8511     0.1944     3.6095 </r>
       <r>     0.9771     0.0149     3.6114 </r>
       <r>     1.1031     0.1948     3.6360 </r>
       <r>     1.2292     0.6689     3.7203 </r>
       <r>     1.3552     0.6090     3.7970 </r>
       <r>     1.4812     0.9935     3.9222 </r>
       <r>     1.6073     0.8990     4.0355 </r>
       <r>     1.7333     1.0213     4.1642 </r>
       <r>     1.8593     1.5679     4.3618 </r>
       <r>     1.9854     1.0569     4.4950 </r>
       <r>     2.1114     0.8309     4.5997 </r>
       <r>     2.2374     0.9892     4.7244 </r>
       <r>     2.3635     1.1395     4.8680 </r>
       <r>     2.4895     1.5757     5.0666 </r>
       <r>     2.6155     1.1167     5.2074 </r>
       <r>     2.7416     1.1441     5.3516 </r>
       <r>     2.8676     1.9234     5.5940 </r>
       <r>     2.9936     1.7726     5.8174 </r>
       <r>     3.1196     0.9689     5.9395 </r>
       <r>     3.2457     1.6052     6.1418 </r>
       <r>     3.3717     1.6057     6.3442 </r>
       <r>     3.4977     0.8749     6.4544 </r>
       <r>     3.6238     1.4680     6.6394 </r>
       <r>     3.7498     1.7787     6.8636 </r>
       <r>     3.8758     1.1807     7.0124 </r>
       <r>     4.0019     1.1876     7.1621 </r>
       <r>     4.1279     1.2847     7.3240 </r>
       <r>     4.2539     0.6921     7.4112 </r>
       <r>     4.3800     1.1377     7.5546 </r>
       <r>     4.5060     0.8965     7.6676 </r>
       <r>     4.6320     0.6235     7.7462 </r>
       <r>     4.7580     0.7241     7.8375 </r>
       <r>     4.8841     0.3261     7.8786 </r>
       <r>     5.0101     0.3173     7.9186 </r>
       <r>     5.1361     0.2539     7.9506 </r>
       <r>     5.2622     0.1295     7.9669 </r>
       <r>     5.3882     0.2018     7.9923 </r>
       <r>     5.5142     0.0545     7.9992 </r>
       <r>     5.6403     0.0065     8.0000 </r>
       <r>     5.7663     0.0001     8.0000 </r>
       <r>     5.8923     0.0001     8.0000 </r>
       <r>     6.0184     0.0081     8.0010 </r>
       <r>     6.1444     0.0751     8.0105 </r>
       <r>     6.2704     0.1392     8.0280 </r>
       <r>     6.3965     0.2917     8.0648 </r>
       <r>     6.5225     0.3273     8.1061 </r>
       <r>     6.6485     0.3405     8.1490 </r>
       <r>     6.7745     0.3293     8.1905 </r>
       <r>     6.9006     0.7925     8.2903 </r>
       <r>     7.0266     0.6531     8.3727 </r>
       <r>     7.1526     0.9452     8.4918 </r>
       <r>     7.2787     1.2513     8.6495 </r>
       <r>     7.4047     1.0581     8.7828 </r>
       <r>     7.5307     1.3273     8.9501 </r>
       <r>     7.6568     1.3314     9.1179 </r>
       <r>     7.7828     1.7525     9.3388 </r>
       <r>     7.9088     1.1501     9.4837 </r>
       <r>     8.0349     1.4434     9.6657 </r>
       <r>     8.1609     1.4478     9.8481 </r>
       <r>     8.2869     1.0042     9.9747 </r>
       <r>     8.4129     1.0468    10.1066 </r>
       <r>     8.5390     0.9816    10.2303 </r>
       <r>     8.6650     1.8529    10.4639 </r>
       <r>     8.7910     2.4582    10.7737 </r>
       <r>     8.9171     2.0279    11.0292 </r>
       <r>     9.0431     1.6790    11.2409 </r>
       <r>     9.1691     1.8031    11.4681 </r>
       <r>     9.2952     1.7881    11.6935 </r>
       <r>     9.4212     0.9042    11.8074 </r>
       <r>     9.5472     0.8771    11.9180 </r>
       <r>     9.6733     1.3035    12.0822 </r>
       <r>     9.7993     1.2545    12.2403 </r>
       <r>     9.9253     0.6215    12.3187 </r>
       <r>    10.0514     1.5675    12.5162 </r>
       <r>    10.1774     2.5939    12.8431 </r>
       <r>    10.3034     1.6293    13.0485 </r>
       <r>    10.4294     1.2427    13.2051 </r>
       <r>    10.5555     1.2495    13.3626 </r>
       <r>    10.6815     0.8432    13.4688 </r>
       <r>    10.8075     0.7765    13.5667 </r>
       <r>    10.9336     0.7809    13.6651 </r>
       <r>    11.0596     1.1161    13.8058 </r>
       <r>    11.1856     1.4361    13.9868 </r>
       <r>    11.3117     0.7909    14.0865 </r>
       <r>    11.4377     0.8925    14.1990 </r>
       <r>    11.5637     1.3767    14.3725 </r>
       <r>    11.6898     1.6906    14.5855 </r>
       <r>    11.8158     1.3863    14.7603 </r>
       <r>    11.9418     0.8568    14.8682 </r>
       <r>    12.0678     1.2226    15.0223 </r>
       <r>    12.1939     1.0976    15.1607 </r>
       <r>    12.3199     1.0807    15.2969 </r>
       <r>    12.4459     0.6527    15.3791 </r>
       <r>    12.5720     1.1480    15.5238 </r>
       <r>    12.6980     1.1604    15.6700 </r>
       <r>    12.8240     0.8643    15.7790 </r>
       <r>    12.9501     1.3894    15.9541 </r>
       <r>    13.0761     1.6700    16.1646 </r>
       <r>    13.2021     1.6485    16.3723 </r>
       <r>    13.3282     1.5119    16.5629 </r>
       <r>    13.4542     2.0959    16.8270 </r>
       <r>    13.5802     1.0795    16.9631 </r>
       <r>    13.7063     0.4584    17.0208 </r>
       <r>    13.8323     1.0029    17.1472 </r>
       <r>    13.9583     0.9627    17.2686 </r>
       <r>    14.0843     1.4854    17.4558 </r>
       <r>    14.2104     1.1424    17.5998 </r>
       <r>    14.3364     1.0603    17.7334 </r>
       <r>    14.4624     0.8107    17.8356 </r>
       <r>    14.5885     1.0621    17.9694 </r>
       <r>    14.7145     1.6957    18.1831 </r>
       <r>    14.8405     1.6612    18.3925 </r>
       <r>    14.9666     2.0650    18.6527 </r>
       <r>    15.0926     1.6195    18.8569 </r>
       <r>    15.2186     1.8752    19.0932 </r>
       <r>    15.3447     1.8876    19.3311 </r>
       <r>    15.4707     1.2343    19.4866 </r>
       <r>    15.5967     0.6316    19.5662 </r>
       <r>    15.7227     0.9901    19.6910 </r>
       <r>    15.8488     0.7704    19.7881 </r>
       <r>    15.9748     1.3021    19.9522 </r>
       <r>    16.1008     1.1346    20.0952 </r>
       <r>    16.2269     0.7199    20.1859 </r>
       <r>    16.3529     1.0355    20.3164 </r>
       <r>    16.4789     1.4819    20.5032 </r>
       <r>    16.6050     1.1909    20.6533 </r>
       <r>    16.7310     1.3557    20.8242 </r>
       <r>    16.8570     1.4857    21.0114 </r>
       <r>    16.9831     1.7968    21.2379 </r>
       <r>    17.1091     2.2826    21.5255 </r>
       <r>    17.2351     1.7554    21.7468 </r>
       <r>    17.3612     1.3697    21.9194 </r>
       <r>    17.4872     1.0825    22.0558 </r>
       <r>    17.6132     1.2484    22.2131 </r>
       <r>    17.7392     1.6659    22.4231 </r>
       <r>    17.8653     1.9075    22.6635 </r>
       <r>    17.9913     1.2399    22.8198 </r>
       <r>    18.1173     0.7061    22.9088 </r>
       <r>    18.2434     1.0824    23.0452 </r>
       <r>    18.3694     1.6429    23.2522 </r>
       <r>    18.4954     1.8820    23.4894 </r>
       <r>    18.6215     2.0329    23.7456 </r>
       <r>    18.7475     1.7600    23.9675 </r>
       <r>    18.8735     1.4853    24.1546 </r>
       <r>    18.9996     2.4799    24.4672 </r>
       <r>    19.1256     2.2959    24.7565 </r>
       <r>    19.2516     1.6075    24.9591 </r>
       <r>    19.3776     1.6762    25.1704 </r>
       <r>    19.5037     1.2149    25.3235 </r>
       <r>    19.6297     0.9018    25.4372 </r>
       <r>    19.7557     1.2688    25.5971 </r>
       <r>    19.8818     1.4849    25.7842 </r>
       <r>    20.0078     1.3773    25.9578 </r>
       <r>    20.1338     1.0203    26.0864 </r>
       <r>    20.2599     1.3181    26.2525 </r>
       <r>    20.3859     2.0836    26.5151 </r>
       <r>    20.5119     2.0459    26.7729 </r>
       <r>    20.6380     1.8267    27.0032 </r>
       <r>    20.7640     1.5985    27.2046 </r>
       <r>    20.8900     1.1879    27.3543 </r>
       <r>    21.0161     0.8674    27.4637 </r>
       <r>    21.1421     1.5933    27.6645 </r>
       <r>    21.2681     2.1253    27.9323 </r>
       <r>    21.3941     1.2480    28.0896 </r>
       <r>    21.5202     1.0670    28.2241 </r>
       <r>    21.6462     1.4573    28.4078 </r>
       <r>    21.7722     1.1601    28.5540 </r>
       <r>    21.8983     1.4046    28.7310 </r>
       <r>    22.0243     1.5801    28.9301 </r>
       <r>    22.1503     1.4972    29.1188 </r>
       <r>    22.2764     1.6101    29.3218 </r>
       <r>    22.4024     1.3235    29.4886 </r>
       <r>    22.5284     1.2083    29.6408 </r>
       <r>    22.6545     1.4140    29.8191 </r>
       <r>    22.7805     2.1451    30.0894 </r>
       <r>    22.9065     2.4802    30.4020 </r>
       <r>    23.0325     1.7932    30.6280 </r>
       <r>    23.1586     1.2420    30.7845 </r>
       <r>    23.2846     1.8485    31.0175 </r>
       <r>    23.4106     1.6386    31.2240 </r>
       <r>    23.5367     0.8473    31.3308 </r>
       <r>    23.6627     1.0080    31.4578 </r>
       <r>    23.7887     0.7133    31.5477 </r>
       <r>    23.9148     0.7763    31.6456 </r>
       <r>    24.0408     0.5787    31.7185 </r>
       <r>    24.1668     0.4215    31.7716 </r>
       <r>    24.2929     0.1496    31.7905 </r>
       <r>    24.4189     0.0484    31.7966 </r>
       <r>    24.5449     0.2855    31.8326 </r>
       <r>    24.6710     0.5640    31.9036 </r>
       <r>    24.7970     0.1985    31.9287 </r>
       <r>    24.9230     0.0100    31.9299 </r>
       <r>    25.0490     0.0952    31.9419 </r>
       <r>    25.1751     0.1632    31.9625 </r>
       <r>    25.3011     0.0233    31.9654 </r>
       <r>    25.4271     0.0003    31.9654 </r>
       <r>    25.5532     0.0076    31.9664 </r>
       <r>    25.6792     0.0541    31.9732 </r>
       <r>    25.8052     0.0322    31.9773 </r>
       <r>    25.9313     0.0015    31.9775 </r>
       <r>    26.0573     0.0000    31.9775 </r>
       <r>    26.1833     0.0000    31.9775 </r>
       <r>    26.3094     0.0001    31.9775 </r>
       <r>    26.4354     0.0077    31.9784 </r>
       <r>    26.5614     0.0429    31.9839 </r>
       <r>    26.6874     0.0201    31.9864 </r>
       <r>    26.8135     0.0021    31.9866 </r>
       <r>    26.9395     0.0313    31.9906 </r>
       <r>    27.0655     0.0547    31.9975 </r>
       <r>    27.1916     0.0080    31.9985 </r>
       <r>    27.3176     0.0001    31.9985 </r>
       <r>    27.4436     0.0000    31.9985 </r>
       <r>    27.5697     0.0000    31.9985 </r>
       <r>    27.6957     0.0000    31.9985 </r>
       <r>    27.8217     0.0000    31.9985 </r>
       <r>    27.9478     0.0001    31.9985 </r>
       <r>    28.0738     0.0030    31.9989 </r>
       <r>    28.1998     0.0073    31.9998 </r>
       <r>    28.3259     0.0015    32.0000 </r>
       <r>    28.4519     0.0000    32.0000 </r>
       <r>    28.5779     0.0000    32.0000 </r>
       <r>    28.7039     0.0000    32.0000 </r>
       <r>    28.8300     0.0000    32.0000 </r>
       <r>    28.9560     0.0000    32.0000 </r>
       <r>    29.0820     0.0000    32.0000 </r>
       <r>    29.2081     0.0000    32.0000 </r>
       <r>    29.3341     0.0000    32.0000 </r>
       <r>    29.4601     0.0000    32.0000 </r>
       <r>    29.5862     0.0000    32.0000 </r>
       <r>    29.7122     0.0000    32.0000 </r>
       <r>    29.8382     0.0000    32.0000 </r>
      </set>
     </set>
    </array>
   </total>
  </dos>
 </calculation>
 <structure name="finalpos" >
  <crystal>
   <varray name="basis" >
    <v>       0.00000000       2.75000000       2.75000000 </v>
    <v>       2.75000000       0.00000000       2.75000000 </v>
    <v>       2.75000000       2.75000000       0.00000000 </v>
   </varray>
   <i name="volume">     41.59375000 </i>
   <varray name="rec_basis" >
    <v>      -0.18181818       0.18181818       0.18181818 </v>
    <v>       0.18181818      -0.18181818       0.18181818 </v>
    <v>       0.18181818       0.18181818      -0.18181818 </v>
   </varray>
  </crystal>
  <varray name="positions" >
   <v>       0.87499996       0.87499996       0.87750162 </v>
   <v>       0.12500004       0.12500004       0.12749838 </v>
  </varray>
 </structure>
</modeling>
