perturbed cd Si                         
           1
     0.000000    2.750000    2.750000
     2.750000    0.000000    2.750000
     2.750000    2.750000    0.000000
   Si
   2
Direct configuration=     1
   0.87500000  0.87500000  0.87500000
   0.12500000  0.12500000  0.13000000
Direct configuration=     2
   0.87494694  0.87494694  0.87809436
   0.12505306  0.12505306  0.12690564
Direct configuration=     3
   0.87495639  0.87495639  0.87754313
   0.12504361  0.12504361  0.12745687
Direct configuration=     4
   0.87495641  0.87495641  0.87754214
   0.12504359  0.12504359  0.12745786
Direct configuration=     5
   0.87500754  0.87500754  0.87749458
   0.12499246  0.12499246  0.12750542
Direct configuration=     6
   0.87500025  0.87500025  0.87750135
   0.12499975  0.12499975  0.12749865
Direct configuration=     7
   0.87500003  0.87500003  0.87750156
   0.12499997  0.12499997  0.12749844
Direct configuration=     8
   0.87499996  0.87499996  0.87750163
   0.12500004  0.12500004  0.12749837
Direct configuration=     9
   0.87499997  0.87499997  0.87750162
   0.12500003  0.12500003  0.12749838
Direct configuration=    10
   0.87499996  0.87499996  0.87750162
   0.12500004  0.12500004  0.12749838
