LAMMPS (23 Jun 2022)
OMP_NUM_THREADS environment is not set. Defaulting to 1 thread. (../comm.cpp:98)
  using 1 OpenMP thread(s) per MPI task
#-----------------------------------------------------------------------------
#----------------------------- General setting -------------------------------
#-----------------------------------------------------------------------------
clear
OMP_NUM_THREADS environment is not set. Defaulting to 1 thread. (../comm.cpp:98)
  using 1 OpenMP thread(s) per MPI task
units metal
dimension 3
boundary p p p
atom_style atomic
variable    T equal 800
variable    V equal vol
variable    dt equal 0.001
variable    p equal 20000   # correlation length  (or Nrepeat)
variable    s equal 1       # sample interval     (or Nevery)
variable    d equal $p*$s   # dump interval       (or Nfreq)
variable    d equal 20000*$s   
variable    d equal 20000*1   

# convert from LAMMPS real units to SI

variable    kB equal 1.3806504e-23    # [J/K] Boltzmann
variable    bar2Pa equal 100000.0
variable    A2m equal 1.0e-10
variable    ps2s equal 1.0e-12
variable    convert equal ${bar2Pa}*${bar2Pa}*${ps2s}*${A2m}*${A2m}*${A2m}
variable    convert equal 100000*${bar2Pa}*${ps2s}*${A2m}*${A2m}*${A2m}
variable    convert equal 100000*100000*${ps2s}*${A2m}*${A2m}*${A2m}
variable    convert equal 100000*100000*1e-12*${A2m}*${A2m}*${A2m}
variable    convert equal 100000*100000*1e-12*1e-10*${A2m}*${A2m}
variable    convert equal 100000*100000*1e-12*1e-10*1e-10*${A2m}
variable    convert equal 100000*100000*1e-12*1e-10*1e-10*1e-10

#-----------------------------------------------------------------------------
#---------------------------- Importing atoms --------------------------------
#-----------------------------------------------------------------------------
read_data cubic400.data
Reading data file ...
  orthogonal box = (4.1844066 5.0243022 4.1908196) to (22.639783 25.586258 22.862247)
  3 by 4 by 3 MPI processor grid
  reading atoms ...
  400 atoms
  read_data CPU = 0.021 seconds

#-----------------------------------------------------------------------------
#------------------------- Interatomic Potential -----------------------------
#-----------------------------------------------------------------------------
pair_style mlip mlip.ini
pair_coeff * *

#-----------------------------------------------------------------------------
#----------------------------- Other Settings --------------------------------
#-----------------------------------------------------------------------------
neighbor 2.0 bin
neigh_modify delay 1 check yes

timestep     ${dt}
timestep     0.001
thermo       $d
thermo       20000

#-----------------------------------------------------------------------------
#--------------------------- Equilibration run -------------------------------
#-----------------------------------------------------------------------------

velocity     all create 1300 102486 mom yes rot yes dist gaussian
fix          NPT all npt temp 1300 $T 0.1 iso 0 0 1 drag 1
fix          NPT all npt temp 1300 800 0.1 iso 0 0 1 drag 1
run          30000
Neighbor list info ...
  update every 1 steps, delay 1 steps, check yes
  max neighbors/atom: 2000, page size: 100000
  master list distance cutoff = 7
  ghost atom cutoff = 7
  binsize = 3.5, bins = 6 6 6
  1 neighbor lists, perpetual/occasional/extra = 1 0 0
  (1) pair mlip, perpetual
      attributes: full, newton on
      pair build: full/bin/atomonly
      stencil: full/bin/3d
      bin: standard
Per MPI rank memory allocation (min/avg/max) = 2.96 | 2.96 | 2.961 Mbytes
   Step          Temp          E_pair         E_mol          TotEng         Press          Volume    
         0   1300          -1686.9698      0             -1619.9225      16905.238      7085.4077    
     20000   950.34566     -1761.409       0             -1712.3951     -3339.7065      6909.5179    
     30000   826.98997     -1784.4018      0             -1741.75       -537.8963       6649.0953    
Loop time of 72.9173 on 36 procs for 30000 steps with 400 atoms

Performance: 35.547 ns/day, 0.675 hours/ns, 411.425 timesteps/s
78.2% CPU use with 36 MPI tasks x 1 OpenMP threads

MPI task timing breakdown:
Section |  min time  |  avg time  |  max time  |%varavg| %total
---------------------------------------------------------------
Pair    | 34.349     | 44.635     | 53.709     |  79.1 | 61.21
Neigh   | 0.040583   | 0.047188   | 0.052572   |   1.5 |  0.06
Comm    | 18.514     | 27.594     | 37.879     | 100.6 | 37.84
Output  | 0.00019814 | 0.00021922 | 0.0005258  |   0.0 |  0.00
Modify  | 0.47077    | 0.48765    | 0.5031     |   1.2 |  0.67
Other   |            | 0.1537     |            |       |  0.21

Nlocal:        11.1111 ave          16 max           7 min
Histogram: 1 2 6 4 11 4 3 2 1 2
Nghost:        451.472 ave         460 max         439 min
Histogram: 2 1 1 4 3 4 6 8 3 4
Neighs:              0 ave           0 max           0 min
Histogram: 36 0 0 0 0 0 0 0 0 0
FullNghs:      951.944 ave        1451 max         565 min
Histogram: 2 3 5 7 8 3 3 3 0 2

Total # of neighbors = 34270
Ave neighs/atom = 85.675
Neighbor list builds = 941
Dangerous builds = 0
unfix        NPT

fix          NPT2 all npt temp $T $T 0.1 iso 0 0 1 drag 1
fix          NPT2 all npt temp 800 $T 0.1 iso 0 0 1 drag 1
fix          NPT2 all npt temp 800 800 0.1 iso 0 0 1 drag 1
run          20000
Per MPI rank memory allocation (min/avg/max) = 2.96 | 2.96 | 2.961 Mbytes
   Step          Temp          E_pair         E_mol          TotEng         Press          Volume    
     30000   826.98997     -1784.4018      0             -1741.75       -537.8963       6649.0953    
     40000   752.99856     -1779.4175      0             -1740.5818     -1371.8463      6794.4097    
     50000   836.50213     -1784.0221      0             -1740.8797      785.80686      6572.3022    
Loop time of 49.4115 on 36 procs for 20000 steps with 400 atoms

Performance: 34.972 ns/day, 0.686 hours/ns, 404.764 timesteps/s
80.1% CPU use with 36 MPI tasks x 1 OpenMP threads

MPI task timing breakdown:
Section |  min time  |  avg time  |  max time  |%varavg| %total
---------------------------------------------------------------
Pair    | 23.145     | 31.821     | 39.659     |  72.1 | 64.40
Neigh   | 0.02154    | 0.025564   | 0.028704   |   1.1 |  0.05
Comm    | 9.3297     | 17.156     | 25.836     |  98.2 | 34.72
Output  | 6.1039e-05 | 6.8541e-05 | 0.0002965  |   0.0 |  0.00
Modify  | 0.29349    | 0.30695    | 0.3185     |   1.2 |  0.62
Other   |            | 0.1023     |            |       |  0.21

Nlocal:        11.1111 ave          15 max           6 min
Histogram: 1 1 0 3 6 11 8 2 3 1
Nghost:        453.111 ave         464 max         441 min
Histogram: 2 0 3 7 3 6 7 4 2 2
Neighs:              0 ave           0 max           0 min
Histogram: 36 0 0 0 0 0 0 0 0 0
FullNghs:      965.333 ave        1334 max         494 min
Histogram: 1 1 0 3 7 10 5 5 3 1

Total # of neighbors = 34752
Ave neighs/atom = 86.88
Neighbor list builds = 490
Dangerous builds = 0
unfix        NPT2

#-----------------------------------------------------------------------------
#----------------------------- Production run --------------------------------
#-----------------------------------------------------------------------------

fix         NVE all nve

reset_timestep 0
variable     pxy equal pxy
variable     pxz equal pxz
variable     pyz equal pyz
fix          SS all ave/correlate $s $p $d              v_pxy v_pxz v_pyz type auto file S0St700.dat ave running
fix          SS all ave/correlate 1 $p $d              v_pxy v_pxz v_pyz type auto file S0St700.dat ave running
fix          SS all ave/correlate 1 20000 $d              v_pxy v_pxz v_pyz type auto file S0St700.dat ave running
fix          SS all ave/correlate 1 20000 20000              v_pxy v_pxz v_pyz type auto file S0St700.dat ave running
variable     scale equal ${convert}/(${kB}*$T)*$V*$s*${dt}
variable     scale equal 1e-32/(${kB}*$T)*$V*$s*${dt}
variable     scale equal 1e-32/(1.3806504e-23*$T)*$V*$s*${dt}
variable     scale equal 1e-32/(1.3806504e-23*800)*$V*$s*${dt}
variable     scale equal 1e-32/(1.3806504e-23*800)*6572.3022101678*$s*${dt}
variable     scale equal 1e-32/(1.3806504e-23*800)*6572.3022101678*1*${dt}
variable     scale equal 1e-32/(1.3806504e-23*800)*6572.3022101678*1*0.001
variable     v11 equal trap(f_SS[3])*${scale}
variable     v11 equal trap(f_SS[3])*5.95036785757622e-12
variable     v22 equal trap(f_SS[4])*${scale}
variable     v22 equal trap(f_SS[4])*5.95036785757622e-12
variable     v33 equal trap(f_SS[5])*${scale}
variable     v33 equal trap(f_SS[5])*5.95036785757622e-12
thermo_style custom step temp press v_pxy v_pxz v_pyz v_v11 v_v22 v_v33
run          5000000
Per MPI rank memory allocation (min/avg/max) = 2.96 | 2.961 | 2.961 Mbytes
   Step          Temp          Press          v_pxy          v_pxz          v_pyz          v_v11          v_v22          v_v33     
         0   836.50213      785.80686      197.17129      2285.9094      1239.469       1.1566479e-07  1.5546472e-05  4.570726e-06 
     20000   818.64922      3985.9735      3269.4777     -3801.6731      1321.3124      0.033615749    0.014100042    0.01255008   
     40000   779.05315      3027.4388     -1967.9347     -4804.7337      800.6519       0.027698905    0.0095860402   0.0030759322 
     60000   821.42347     -1201.8525      3451.5901     -340.01822      171.65692      0.018942272    0.0066169518  -0.0016096272 
     80000   812.34105      1110.5743     -246.32036      328.00484     -1055.5581      0.0148195      0.009702238    0.0065097258 
    100000   823.94822      1833.8795      1999.3015      454.93023     -543.05285      0.010627856    0.0059825987   0.002393315  
    120000   771.46658      2004.1088     -1182.5296     -4122.7851     -416.30408      0.0109675      0.0057888539   0.0075912116 
    140000   785.25909      4680.8751     -339.3666       1891.5155     -2097.5123      0.0093987076   0.0048059889   0.0073132696 
    160000   754.08538      1982.88        2043.6935     -888.78504     -3320.2252      0.0087279715   0.0060652684   0.0066438535 
    180000   828.64368     -538.93403     -441.77302     -1041.5994      666.38522      0.0074834428   0.0063679536   0.0072173715 
    200000   814.04084      1363.5679     -2430.2471     -2171.217       2275.6462      0.0062424347   0.0059403683   0.0066040264 
    220000   804.58651      2058.064       262.77525      1069.7095     -1123.6845      0.0057008586   0.0055077221   0.0060206117 
    240000   790.32039     -1541.2373      1519.504      -1453.4224     -1927.1686      0.006594754    0.0057567916   0.0064921273 
    260000   770.72125      2087.9331      3517.1576     -586.7329      -1418.1103      0.0054916763   0.005555428    0.0056736714 
    280000   847.7667      -541.23165      3587.8932     -630.0482       1892.7793      0.0052844825   0.00497183     0.0097486255 
    300000   809.01508     -792.91683     -663.18963     -494.04734      2352.6975      0.0048757326   0.0045679932   0.011635532  
    320000   793.99849     -476.66771      839.92541     -4003.9141      1825.4207      0.0052378379   0.004866696    0.010714488  
    340000   846.19449     -2869.8777      1274.6265     -400.21484      818.84202      0.0055264158   0.0061030975   0.0096557822 
    360000   833.06382     -289.54173      819.23233      1561.9143     -183.67638      0.0050125561   0.00617887     0.0096367933 
    380000   794.35312     -1721.4695      2959.5896     -898.16338      1601.7087      0.0055588384   0.0058970211   0.00996511   
    400000   793.59962      675.45016      2413.9741     -383.9625       1699.6962      0.0050367839   0.005737801    0.0091398987 
    420000   821.14727     -1227.5895      6406.1576     -393.05491     -594.88344      0.0051378311   0.0054895251   0.0089138263 
    440000   757.07244      2513.647       1133.6099      457.94904      84.267376      0.0050277342   0.004877848    0.0088143208 
    460000   777.99551      482.78306     -177.72022     -1288.5206     -2741.348       0.0080038289   0.0047739986   0.0093133092 
    480000   814.03373      1647.3069     -1167.7201      1168.9454     -1254.0234      0.0080997303   0.0050297231   0.0093237029 
    500000   799.42705      737.56706     -258.69461      633.04748      849.54408      0.0080774451   0.005248111    0.0095204656 
    520000   804.20154      1314.2397      255.31971      185.14056     -1087.9231      0.0082316313   0.005401618    0.0094624203 
    540000   804.62871      2117.9737     -1659.5296     -3573.7509      5011.1711      0.0076929002   0.0054739158   0.0090423199 
    560000   811.09199     -3038.5649      760.63884     -2077.2876      5431.0065      0.0074836416   0.0052623828   0.0089770908 
    580000   803.43966      785.66067     -189.70297     -2797.353       495.38541      0.0073829704   0.0052434033   0.0090648016 
    600000   762.44363      2537.8269      3889.0543     -433.7192      -2987.7596      0.0079578713   0.0051671273   0.0088619681 
    620000   813.45389     -1657.3022     -497.3864       1758.5347      1727.9776      0.0077539324   0.0057100837   0.008668101  
    640000   862.85593      2240.958      -1923.3152     -87.746352     -1278.5571      0.0075331491   0.0056596074   0.0087059422 
    660000   835.73811      1593.3515      2825.5986     -2727.603       864.49217      0.0075891985   0.0053725176   0.0087074673 
    680000   801.50249      324.55713     -1197.8085      2007.5803     -1091.9071      0.0075070915   0.0052415109   0.0084675764 
    700000   805.39743      3263.2349     -741.07575      1999.7834      381.28022      0.0073898313   0.0053134291   0.0087193303 
    720000   793.80824     -665.92326     -2604.7266      926.29279     -518.65404      0.0070697505   0.0058313021   0.0087226861 
    740000   808.47486      1375.4707      2328.4352      132.52763      2594.0512      0.006838418    0.0058805197   0.0086095508 
    760000   780.96038      2820.3023     -1674.9627     -4358.9011      826.12243      0.0066024082   0.0057087375   0.0089053842 
    780000   837.03268      4034.9047     -771.89754      2544.6986     -1025.4948      0.0067765022   0.0056392778   0.0088673399 
    800000   825.53276      469.32821      1149.3991     -1772.1144      1383.721       0.0070512374   0.0054557069   0.0087534015 
    820000   821.42065      1414.9484      25.012358      2582.2034      184.59552      0.0070131451   0.0059287952   0.0085559002 
    840000   819.41246     -1995.3543      1834.1996      1006.9134     -303.51429      0.007062572    0.0058108689   0.0083445531 
    860000   733.90951     -1330.3494      1609.0396      3014.2252      790.32079      0.0071173658   0.0058334636   0.0082397391 
    880000   813.54012      1514.7213      4045.6368     -2129.1561     -421.71468      0.007136349    0.0056893921   0.0079347657 
    900000   790.58124     -860.38789     -736.89768     -71.404596      1163.3697      0.0071622265   0.0054947741   0.0078056541 
    920000   797.03574      2802.7749     -609.17073     -412.53542     -996.42353      0.0074610333   0.0054190839   0.007543128  
    940000   814.09984      418.44862      1360.4179      792.86652     -2460.0604      0.0072773973   0.0053567535   0.0074089007 
    960000   783.47339      367.30735     -1308.1091      2259.439       935.36088      0.0071450696   0.005215636    0.0076253561 
    980000   765.32228      2069.4149     -2195.4203      620.99383     -1430.5404      0.0072714926   0.0051532426   0.0078241999 
   1000000   832.87507      1736.0878     -1588.2149      1037.4264     -1018.4119      0.0074841036   0.005024014    0.0084356944 
   1020000   815.19318      1422.0537      256.39395     -2631.5973     -2021.9784      0.0072996835   0.0051098654   0.0088785235 
   1040000   794.55272      230.66563     -3718.799      -1571.1036      1746.6988      0.0072210006   0.0048115509   0.0094307685 
   1060000   845.36506      667.98047     -1344.8906      2308.073       2379.9387      0.007356537    0.0045353067   0.0089648156 
   1080000   782.33707      2334.1167     -503.91795     -1298.8181      723.4637       0.0074880464   0.0043764732   0.0089451546 
   1100000   760.69309      529.22867      1355.8897     -1640.6815     -1621.1908      0.0073043583   0.0044165575   0.0088402424 
   1120000   776.82977      45.171166      3168.223       2595.608       1854.0636      0.0076550887   0.0042889011   0.0088953342 
   1140000   841.02696     -2866.9488      511.21622      865.09772      2122.4482      0.0072772056   0.0041679271   0.0090095214 
   1160000   810.18131      3193.0293     -1671.6884      276.98159      1138.2204      0.0071794316   0.0039569768   0.0086617911 
   1180000   788.36908     -66.127975      2247.5421      731.15706      508.00717      0.0072022933   0.0042308892   0.0085456424 
   1200000   792.8862      -788.01692     -1242.416       1731.3276      1034.9571      0.0070605861   0.003784185    0.0083914801 
   1220000   778.95225      2792.4727     -27.576546      1421.8084     -223.84148      0.0071288991   0.0037398854   0.0084422819 
   1240000   773.62527      1196.5064     -1018.0434      712.58338      2545.6634      0.0070650345   0.0038650074   0.0085046021 
   1260000   836.04746     -2458.1625     -1734.5207      2446.6506      736.39092      0.0069418485   0.0040417605   0.0086195444 
   1280000   890.01487     -1867.6918     -598.64836      1679.4138     -368.06115      0.0069183179   0.004116658    0.0087323396 
   1300000   789.98843      287.57863      1161.023      -682.49663     -1633.6348      0.0070872922   0.004043695    0.0086306545 
   1320000   837.13055      1137.0966     -1001.4995     -369.70526      3710.0813      0.0069819981   0.0041198055   0.0084350332 
   1340000   774.58278     -140.05332      2555.7759     -651.21576      134.42654      0.00694835     0.0040155709   0.008382203  
   1360000   773.86175      1694.6351      4208.214      -1298.4381      2226.4957      0.0068753194   0.0038574033   0.00824347   
   1380000   827.84161     -734.21742      2507.4263     -260.29586      362.97296      0.0073184214   0.0040285469   0.0082041329 
   1400000   804.42946      1359.7369      1163.1383     -3900.5561      1605.4012      0.0071969021   0.0039000087   0.0081734789 
   1420000   799.61201      3784.9449      1453.1586      193.07849     -735.06291      0.0071077756   0.0042765078   0.0082073251 
   1440000   746.85675     -729.33968     -858.80331     -968.33874     -469.39923      0.0070806234   0.0042459044   0.0081374908 
   1460000   843.69562      1307.5281     -2261.2649     -2601.0124      1334.3086      0.0070390297   0.0041776909   0.007996199  
   1480000   852.45102     -1548.8911      170.28881     -4623.6213     -1861.1323      0.006973104    0.0045233608   0.0079139499 
   1500000   796.68785      229.30054     -2007.8047     -1287.4378     -1826.4293      0.0069817095   0.004976049    0.0078891951 
   1520000   776.00991     -2166.1196      745.65104     -755.17595      721.69465      0.0068486315   0.0050265974   0.0077660118 
   1540000   837.51048     -304.31183      1191.9729      962.17454     -905.56909      0.0070603038   0.0050339843   0.0078087279 
   1560000   771.68233      2193.1548      1210.9429      3448.9627     -1623.3354      0.0071740984   0.0049205396   0.0077537251 
   1580000   826.14082      3497.0997     -1957.5767      1158.5746      1217.7627      0.0072265422   0.0048535998   0.0076187649 
   1600000   765.83514      5225.1072      1909.0765     -4348.793      -1458.5475      0.0071835742   0.0048029533   0.0076838518 
   1620000   782.85758      2066.5844     -152.51623     -1031.99        239.08257      0.0070308652   0.0048952996   0.0075721755 
   1640000   761.3856       230.09163      389.53335      3146.3851      2093.7966      0.0069762179   0.0049475958   0.0076570802 
   1660000   813.41794      490.34262      2082.9398      1291.0653     -929.2866       0.0071314059   0.00485989     0.0075950786 
   1680000   832.2578      -378.68794     -1655.1148      2932.5825     -9.7716863      0.0070642036   0.0047771569   0.0074761271 
   1700000   797.98613     -852.59811      1276.6504     -433.76216     -720.82782      0.0069320209   0.0047060745   0.0073878811 
   1720000   785.81751      2672.7801     -1462.846       2964.3449      1711.8282      0.006815337    0.0047529369   0.0073282294 
   1740000   776.13267      2116.1018     -2185.1454     -2069.4707      1419.7701      0.006898954    0.0048554057   0.0072834728 
   1760000   791.84492      1147.1481     -820.08267     -1715.2147     -778.11516      0.0067679695   0.004797823    0.0072242081 
   1780000   816.70798      2211.0742     -718.85403      319.4324      -2427.5091      0.0066372918   0.0047459202   0.0071938947 
   1800000   761.74041      3934.2958      2921.8704      568.81916     -888.00192      0.0066335443   0.004674441    0.0071537284 
   1820000   830.02774      3972.3136     -2962.6587      618.95702     -620.32509      0.0065746841   0.0046364995   0.0071390011 
   1840000   829.55067     -705.31958     -2163.1837      370.29169     -2744.1014      0.0065430537   0.0046005866   0.0074705174 
   1860000   811.88527      87.199471      1925.2709      570.85681     -444.47516      0.0065293784   0.0045586951   0.0075173252 
   1880000   792.19705      1394.4353     -2047.6819      2499.1767     -1850.6769      0.0064688362   0.004565165    0.0074753307 
   1900000   820.49797      2014.8619      2080.4916     -1089.7098     -1508.0494      0.0064197088   0.0045239632   0.007497256  
   1920000   784.28007      830.95401      1469.9983      1458.6353      3537.9572      0.0064608043   0.0044245519   0.0074893838 
   1940000   799.29774     -772.30402      3008.5688     -2297.5646      2519.7077      0.0063162667   0.0044837638   0.0074624482 
   1960000   775.03986      2561.0276      2435.979       515.32086     -3507.704       0.0062449635   0.0044163615   0.0074445462 
   1980000   829.47734      880.8364      -675.16526     -125.65824     -2704.4735      0.0062570845   0.0044353006   0.0073075475 
   2000000   831.11449      1088.6856     -987.89536     -649.51172     -1821.5852      0.0061904088   0.0043718422   0.0072371948 
   2020000   852.73594     -1292.6446     -816.93233     -2068.3683     -2264.5849      0.0061429227   0.0043226426   0.0071667714 
   2040000   825.34163      338.45787      1438.4975      667.8995      -265.55488      0.0061362691   0.0042872143   0.0070965656 
   2060000   833.38914      3370.9516     -798.97379     -645.23471      1119.1853      0.00625953     0.0043326189   0.0070707872 
   2080000   758.57327      14.358002     -506.20039      11.223187      3637.8677      0.0061725867   0.0043165596   0.007006048  
   2100000   859.87503      1029.4613      1794.6942     -679.24304     -1109.5991      0.0062880692   0.0042380638   0.0069554229 
   2120000   794.30176      1406.1253     -1992.2317     -2195.294       800.73897      0.006285004    0.004263235    0.0068056206 
   2140000   776.10971     -3054.8178      297.04363     -1036.9144     -1631.5254      0.0061492877   0.0042708369   0.0068071024 
   2160000   817.31431     -2672.6801     -1856.8117     -358.48385     -4365.9913      0.0060910585   0.0042676305   0.0067195921 
   2180000   821.87648      1777.3087     -1021.5817      1054.5142     -1030.6706      0.0060477905   0.0042168612   0.006640986  
   2200000   833.98301      1253.3774      2375.7284     -459.25917      1147.1046      0.006026234    0.0041649466   0.0065920354 
   2220000   802.86337      3821.5031     -303.46717     -3634.2433      315.17794      0.0060221667   0.0042359436   0.006562592  
   2240000   808.17989      972.94292      1111.1088     -1117.8503     -209.47425      0.0059846873   0.0042418179   0.0065383886 
   2260000   819.61442     -426.91041     -2008.5501      1036.0134      351.5799       0.0059597633   0.0042261205   0.0064801601 
   2280000   753.77957      2592.71       -952.6318      -1077.9437     -1363.4021      0.0060413013   0.004210854    0.0064031455 
   2300000   773.8113      -1360.131      -1775.7875     -2029.0347      3291.515       0.0059759994   0.0042359789   0.0063826987 
   2320000   816.13611      1988.4854      2385.4841      358.24901      2512.8688      0.0059108537   0.0041461165   0.0063476443 
   2340000   783.72395      2462.9115     -2942.6008     -2677.6255     -2070.4461      0.0058518127   0.0040992397   0.0063068612 
   2360000   804.80947      248.39441      2438.2633     -969.14609     -1071.6116      0.0058005878   0.004071548    0.0062388014 
   2380000   813.39443      299.44765     -4521.5229      776.05702      3424.7299      0.0058098836   0.0040364619   0.0062600542 
   2400000   792.56205      478.85823     -312.92044      1470.5644     -1369.6829      0.0058382154   0.0040275623   0.0062474532 
   2420000   768.92148      1541.0221     -2813.974      -710.59944     -491.86306      0.0057577341   0.0040666564   0.0062983927 
   2440000   813.36666      1535.5579     -1771.3682      2776.5693     -1537.0916      0.0057481978   0.0039985291   0.0063416396 
   2460000   804.30274     -1741.5543     -581.8792       960.57896      1826.5334      0.0059068379   0.0039719547   0.0064802289 
   2480000   777.96454      1659.5424     -718.75038     -1872.8622      988.5625       0.0059734082   0.0039773631   0.0067341471 
   2500000   831.07898     -2598.9104      2295.6863     -19.664556      902.22444      0.0059132383   0.0039477723   0.006661112  
   2520000   779.01692      3929.9996     -2067.3257      1460.7687      499.25023      0.0057434998   0.0041222045   0.0065456315 
   2540000   776.81886      2867.7091      11.026848      877.427        518.50234      0.0057349821   0.0040456236   0.006495846  
   2560000   776.57691      420.77035     -1041.1091     -3369.2933     -669.13372      0.0056695777   0.004062389    0.0064134548 
   2580000   837.60246     -959.01         3431.0943      1327.4576     -2160.061       0.0056029024   0.0039969326   0.0063984539 
   2600000   820.09023     -933.46409      1946.4367      1093.4846      1654.4383      0.0056566707   0.0039803049   0.006357212  
   2620000   829.42454     -1490.6557     -1935.9209     -684.9126      -2218.0043      0.0056774291   0.0039238089   0.0063021969 
   2640000   814.88952      1091.4122     -3689.5761      696.08494      340.0145       0.0056239842   0.0039313177   0.0062902374 
   2660000   787.75809     -207.26823      1034.5029      176.70233      909.33586      0.0056516772   0.0038623783   0.0063018507 
   2680000   801.07276     -615.87525      1780.9089      3799.2362     -4842.9806      0.0057719361   0.0038769034   0.0061811539 
   2700000   770.36825      1212.6737      3111.4696     -4126.3836      681.07974      0.0060029985   0.0038900288   0.0061364157 
   2720000   812.84865      809.2124      -1779.187       175.92217      798.67865      0.0059534047   0.0039261609   0.0061992927 
   2740000   791.13659      3177.0431     -380.60942     -1998.1046     -348.9284       0.0059522153   0.0040710751   0.0060509236 
   2760000   792.95597     -2464.6805     -396.07146      1171.546      -1397.6426      0.0059120372   0.0040631354   0.0060430157 
   2780000   788.23293      1269.2852     -1599.9985      1334.4691     -852.77063      0.0060641029   0.0040829919   0.0062237505 
   2800000   786.0442       1184.1895     -138.16211      359.49587     -1032.0018      0.0060392694   0.0040895264   0.0061841998 
   2820000   776.66846      1698.8109     -1866.1352     -162.96875     -330.2103       0.0060698191   0.0040727861   0.0063431032 
   2840000   814.02697     -768.65869      2836.0184      367.70233      4337.6394      0.0060340295   0.0040496541   0.0065481164 
   2860000   802.4124       3067.4223     -1428.8404     -2610.7331     -2897.4169      0.0059857849   0.0040137298   0.0066951407 
   2880000   750.40307      2133.8779     -1134.3043      3129.0388      38.44824       0.0059389787   0.0040163339   0.006673272  
   2900000   845.39462      3249.0133      1370.4323      2336.7488      1007.1466      0.005964891    0.0039815992   0.006794199  
   2920000   795.83001      55.957067      1408.5937      28.916914     -3523.2846      0.0058922425   0.0039848852   0.0067797804 
   2940000   804.84717      1014.1992     -628.30441      3373.2243      735.49592      0.0058363793   0.0039087718   0.0067600839 
   2960000   808.04814      3494.6436     -141.91285     -2808.4632     -736.85947      0.0058148561   0.0040005188   0.006848713  
   2980000   810.81922     -2875.4857      227.2398      -796.57898     -81.626925      0.0058045562   0.0039761562   0.0069865226 
   3000000   789.06636      644.49667      1122.1387      1380.5784      842.65422      0.0058881393   0.0039475784   0.0068822054 
   3020000   799.5737       1342.1319      3073.3293     -746.71266      3152.5717      0.0058675233   0.0039158279   0.0068330909 
   3040000   802.10883     -1401.7754      722.41257     -2640.8581     -408.51584      0.0058614905   0.0038925927   0.0067885765 
   3060000   805.57538     -1991.9302      2978.0672      1990.3187     -470.4295       0.0058152697   0.0038732247   0.0068363184 
   3080000   797.1334      -1401.8947     -3778.997      -635.42531      2825.3362      0.0058597651   0.003895943    0.0069004942 
   3100000   765.26639      2508.9864     -739.82973     -1144.2298      4053.1259      0.0059202532   0.0039443679   0.0069086282 
   3120000   823.17293      1599.1005     -3777.144       1910.3553      3186.4426      0.0058751954   0.0039353234   0.0068458767 
   3140000   765.34769      2904.4943     -44.799105      253.39971      2980.3758      0.005900295    0.0039184183   0.0068445203 
   3160000   817.96521      1428.9362      2152.9491     -84.727024     -1226.702       0.005864222    0.0039345508   0.0067950423 
   3180000   797.45577      1133.6351     -1518.7784     -499.06526     -2350.2446      0.0058537314   0.0039313209   0.0068913227 
   3200000   785.90062      4289.3891      683.28205      3950.3675     -56.598869      0.0058305163   0.0039242842   0.0068464711 
   3220000   829.11387     -1463.6883      1413.3092     -2194.1792     -917.30071      0.005890133    0.003921749    0.0068080165 
   3240000   731.31967      1074.8581      2751.0233      839.78931     -1619.3609      0.0058161363   0.0039099243   0.0067464222 
   3260000   803.87519     -455.61416     -167.66073      970.06368     -1759.3279      0.0057849463   0.0039299384   0.0067380491 
   3280000   828.87211     -322.36088      1389.9228     -2241.1302      220.95986      0.0057811688   0.0039212015   0.0067298678 
   3300000   750.20647     -1678.3527      861.7323      -1250.1275     -364.84497      0.0056928597   0.0040427125   0.0066955865 
   3320000   794.14411     -693.68402     -400.93596      1779.3225     -2850.0698      0.0056592691   0.0042649541   0.0066783644 
   3340000   831.47243      2004.6836      867.70039      2086.8137      1237.9112      0.0056231865   0.0042252663   0.0067181689 
   3360000   773.98355     -2104.3429      2238.1981     -468.93393      26.457003      0.0056895886   0.0042517473   0.0067232138 
   3380000   816.42479     -183.23245     -412.48746     -2184.4146      1658.9291      0.005679109    0.004280841    0.0067237026 
   3400000   801.32558      1278.9771      1421.0157     -324.03329      1912.5321      0.0056480878   0.0042137021   0.0066783249 
   3420000   783.88655      2635.6871     -817.09815      2091.8592      1643.0602      0.0055892793   0.0042637841   0.0066546687 
   3440000   790.32023      2216.9297      1250.6969     -2207.1136      636.99871      0.0055776594   0.0044574256   0.0066080577 
   3460000   868.91952     -597.10637      1981.9158      1129.9438      944.72004      0.0055379731   0.0044322585   0.0065797519 
   3480000   809.18195      2130.1653      525.07791     -733.48323     -123.33384      0.0057843818   0.0044711401   0.0065771287 
   3500000   806.83915      5250.2752     -1220.3794      3061.5919      367.8664       0.0057715648   0.0044094814   0.0065631227 
   3520000   857.11941      1410.1447     -1094.7748     -828.1539      -2.5600083      0.0057479486   0.0044189193   0.0065320399 
   3540000   820.11633      104.70297     -2875.8953      3339.9123      2315.785       0.0057097928   0.0043900129   0.0067103499 
   3560000   810.60803      1887.6624     -1278.0535     -3378.3635     -1323.8351      0.0056663023   0.0043587975   0.0067502558 
   3580000   821.6035       1014.8975      2924.4044      1852.4099     -3697.9507      0.0056814769   0.0043339076   0.006692668  
   3600000   811.28956      2216.6134      631.36093     -482.96317      1864.0576      0.00568142     0.0043240995   0.0066740859 
   3620000   830.62026      1635.3679     -125.45574      3502.3775      2995.5318      0.0056484606   0.0042741331   0.0067463933 
   3640000   810.10687      2479.1793     -2901.2009      175.31132     -557.59072      0.0056156138   0.0042524481   0.0068987712 
   3660000   795.51394      4844.637      -1072.8065     -2.4299921     -951.24087      0.005586775    0.0042912306   0.0068628942 
   3680000   821.86184      5520.4903      1925.3494     -389.92924      1919.8413      0.0058264133   0.0042802989   0.0068908137 
   3700000   809.3068       1159.1675     -692.16589      2385.2252     -1311.1714      0.0058001778   0.0042518353   0.0068727776 
   3720000   813.96373     -799.14182      1196.2172     -73.95491       146.42969      0.0057970202   0.0042292498   0.0068527284 
   3740000   846.52802      1838.4978     -1263.3057      387.02253      876.07987      0.005824191    0.0042235958   0.0068773481 
   3760000   809.23559      2305.6352      423.55365     -3101.6581     -133.84229      0.0057573818   0.0041991227   0.0069978808 
   3780000   793.07709     -819.56619     -4739.3334     -3796.5932     -2199.1548      0.0057158666   0.0041535484   0.006936813  
   3800000   791.28121      1140.4301      2112.8702      2585.4472      2141.9861      0.0056627877   0.0041208731   0.0069405876 
   3820000   759.87659      521.22897      4916.89       -2624.285      -1311.4386      0.0056611385   0.0040986223   0.0069452448 
   3840000   820.56319     -505.70678      1145.387      -2127.2815      854.97647      0.0056361068   0.0040473281   0.006936941  
   3860000   792.6253       310.83229      330.64709     -3908.7055     -483.44431      0.0055895945   0.0040809203   0.0069599505 
   3880000   848.85771      2164.6576     -121.77007     -1776.6159     -944.10286      0.005587721    0.0041179407   0.0070619133 
   3900000   797.07085     -572.05513      1253.7819     -2072.4073      2823.7336      0.0056746938   0.0041249339   0.0070505139 
   3920000   786.54817      3275.3652      2228.5554     -927.07708      320.60031      0.0056291622   0.0041004707   0.0070150805 
   3940000   815.8459      -522.34165      368.76086     -1152.0898     -2671.375       0.0056415283   0.0040705955   0.0069755154 
   3960000   847.97341      847.58788     -1478.1218      1528.6977      702.02814      0.0057296603   0.0040885701   0.0069685528 
   3980000   830.65729     -2835.7758     -217.97975      788.13375      1043.5208      0.0056188326   0.004074774    0.0070238348 
   4000000   819.24944     -404.77919      1933.3004      2492.9325     -1664.8325      0.0055795431   0.0040818629   0.0070587721 
   4020000   777.24942      1383.1047      1198.7409     -2144.3092     -2697.8232      0.0055152767   0.0040935565   0.0070207909 
   4040000   805.59148      1542.2684     -2436.8191      408.17065      670.24885      0.0055496723   0.0040735543   0.0070094505 
   4060000   819.8979       2848.9166     -897.06693     -1827.3308      2320.4862      0.0054742455   0.0040692994   0.00697621   
   4080000   819.28722      903.19776     -105.5088       712.17323      2284.5197      0.0054962654   0.0040476375   0.0069448365 
   4100000   773.42257      4699.6224      1783.641      -2016.6103     -1250.1176      0.0054475453   0.0040812357   0.0069469347 
   4120000   852.54752      1276.3214     -1702.1392      2271.3969      501.99484      0.0055095247   0.0041051844   0.006925629  
   4140000   789.72747     -1020.7118      540.89828     -1622.3582     -1136.9638      0.0054717541   0.0042044415   0.0068748594 
   4160000   788.11093      847.60149      2607.2737      1506.758      -417.62359      0.0054539025   0.0041901464   0.0073437142 
   4180000   807.82347      1253.1309     -1035.9781      11.478456      635.53424      0.0054323995   0.0041757702   0.0075361489 
   4200000   849.20798      59.04809      -1213.1374      1402.8722     -2892.9624      0.0054242602   0.0041887435   0.0074881234 
   4220000   801.12161     -812.49262      874.90479      4200.9411      268.9674       0.0053626663   0.0041613228   0.0074642066 
   4240000   777.64276      1457.9948      1064.2428      1574.1772      282.82148      0.0053824673   0.0041555749   0.0074631569 
   4260000   776.44123      4690.7627     -1616.1035     -3132.8673     -2550.0517      0.0053789529   0.0041623959   0.0076406949 
   4280000   785.84032     -120.47076     -596.94675      2821.598       156.98336      0.0053518944   0.0041145466   0.00760989   
   4300000   803.207        606.56899     -400.75438     -887.68391      4193.1179      0.0052850088   0.0041492001   0.0075814689 
   4320000   804.51536     -580.92985     -2910.5121      1259.527       2529.3691      0.0052643601   0.0041539912   0.0075800896 
   4340000   804.28477     -2756.2195      1838.8963     -393.60858     -54.023119      0.005235979    0.0041230993   0.00752755   
   4360000   814.2153       2489.9377      792.06587     -2624.4782     -3111.5327      0.0052099797   0.0041076262   0.0075056892 
   4380000   816.37266      2816.1559     -607.40348      1757.3715      2338.3625      0.0051834155   0.0041580621   0.0074910614 
   4400000   810.67145      1156.1292      818.69696     -599.28822      1425.2057      0.0051549763   0.0042032091   0.0075320171 
   4420000   854.15126     -745.15985     -726.24391      2084.5313     -1429.1932      0.0051548152   0.0041252186   0.0074857    
   4440000   801.18802     -338.22084     -933.78498     -999.71462     -69.480081      0.0052560219   0.0040992335   0.0074393654 
   4460000   800.61107      1614.9488     -502.10714      3169.4614      2056.5097      0.0052028774   0.0040754241   0.007436112  
   4480000   795.18119      538.94205      926.16054     -882.25975      501.67433      0.0051768494   0.0041227645   0.0074063582 
   4500000   817.44994      847.65112     -51.910579      587.63516      604.7479       0.0051862167   0.0040790633   0.0073816536 
   4520000   787.68924      119.00717     -3542.4936      2742.6721      952.3773       0.0051906197   0.004065649    0.0073564415 
   4540000   821.65229     -1235.0632      118.13252      1299.1532      732.33343      0.0051418361   0.0041729122   0.0073289904 
   4560000   816.64478      1965.1697      496.75248      1024.1189      763.84617      0.0051266476   0.0040958635   0.007269363  
   4580000   850.23083     -407.28243      1395.7292      6.0657166     -2888.3003      0.0050915673   0.0040993712   0.0072942659 
   4600000   815.10882     -119.76073     -1573.2455     -1832.5664     -1806.3921      0.0051750691   0.004112415    0.0073281647 
   4620000   795.51888      2999.5446      3512.0042      1387.8349      1231.6816      0.0051772324   0.0040883655   0.0073300289 
   4640000   803.753        3035.2677     -2777.348      -1778.292      -374.99144      0.0051840957   0.0040803366   0.0073412019 
   4660000   814.08274      938.59416     -427.60307     -155.70799      1779.985       0.0051927816   0.0040891415   0.007374075  
   4680000   846.23564      404.94747     -79.628894     -1680.1805     -837.83         0.005133783    0.0040615762   0.0073653092 
   4700000   800.06115     -408.00719     -1589.6245      2196.5925      205.06834      0.0050600378   0.0040536043   0.0073339825 
   4720000   808.9163       1345.4502     -2375.8444      2522.7904     -718.65781      0.0050356601   0.0040608251   0.0073085015 
   4740000   783.61074     -1002.9781      1249.5832      1388.7755      3262.2826      0.0050265306   0.0040709319   0.0073217017 
   4760000   782.9983       1859.3513      331.07165      4783.564       1837.8635      0.0050225536   0.0040168182   0.0072952729 
   4780000   848.34459      876.68511     -5013.7531      42.424593     -583.07609      0.0050040553   0.004059561    0.0072744591 
   4800000   786.6704      -131.20661     -2365.3891     -2519.5573      1286.3777      0.0049546265   0.0040748639   0.0072369257 
   4820000   798.08038     -1052.3236      2235.2007     -481.64201      225.31435      0.0049558888   0.0040926256   0.0072321204 
   4840000   803.60105     -714.9552       1719.54        815.76674     -1450.3389      0.0049528275   0.0040904475   0.0073696759 
   4860000   793.6337       412.56641      263.17868     -446.21865     -807.59307      0.0049325498   0.0040738835   0.0073353588 
   4880000   755.05558     -9.9086439      3543.9416      1260.0501      115.35718      0.004912155    0.0040965189   0.007293968  
   4900000   821.24852     -748.96808      415.76331     -2178.7099      1378.6227      0.0048941056   0.0040916531   0.0072671659 
   4920000   811.36506      1011.5086     -1694.8439      2681.5042     -1220.2664      0.0048762757   0.004045235    0.00723044   
   4940000   795.1511       1870.2868     -1135.3252     -3462.3414      485.73005      0.0048469386   0.0041142922   0.0072506089 
   4960000   824.09683      1708.5989      880.26508     -2622.0651     -977.47336      0.0048538677   0.0041586765   0.0073267709 
   4980000   831.08923      3563.5661     -480.80283     -818.08637     -3501.0859      0.0048359834   0.0041844466   0.0073610571 
   5000000   763.93769      2445.7053      1800.3087      828.66619      41.212784      0.0048336937   0.004168346    0.0074651069 
Loop time of 13468.8 on 36 procs for 5000000 steps with 400 atoms

Performance: 32.074 ns/day, 0.748 hours/ns, 371.227 timesteps/s
80.6% CPU use with 36 MPI tasks x 1 OpenMP threads

MPI task timing breakdown:
Section |  min time  |  avg time  |  max time  |%varavg| %total
---------------------------------------------------------------
Pair    | 7603.3     | 8037.9     | 8902.6     | 279.4 | 59.68
Neigh   | 6.0464     | 6.2332     | 6.4931     |   3.2 |  0.05
Comm    | 3589.2     | 4455.4     | 4889.3     | 376.3 | 33.08
Output  | 0.16713    | 11.374     | 11.702     |  56.2 |  0.08
Modify  | 880.24     | 896.55     | 921.41     |  37.0 |  6.66
Other   |            | 61.42      |            |       |  0.46

Nlocal:        11.1111 ave          15 max           4 min
Histogram: 1 0 1 2 5 7 3 6 3 8
Nghost:        452.472 ave         470 max         441 min
Histogram: 2 6 9 3 4 5 0 3 3 1
Neighs:              0 ave           0 max           0 min
Histogram: 36 0 0 0 0 0 0 0 0 0
FullNghs:      961.056 ave        1395 max         314 min
Histogram: 1 0 1 3 8 4 8 4 4 3

Total # of neighbors = 34598
Ave neighs/atom = 86.495
Neighbor list builds = 118643
Dangerous builds = 0
variable     v equal (v_v11+v_v22+v_v33)/3.0
variable     ndens equal count(all)/vol
print        "average viscosity: $v [Pa.s] @ $T K, ${ndens} /A^3"
average viscosity: 0.00548904884518084 [Pa.s] @ 800 K, 0.060861473987178 /A^3
Total wall time: 3:46:31
