<?xml version="1.0" encoding="ISO-8859-1"?>
<modeling>
 <generator>
  <i name="program" type="string">vasp </i>
  <i name="version" type="string">5.4.4.18Apr17-6-g9f103f2a35  </i>
  <i name="subversion" type="string">(build Mar 07 2019 17:46:06) complex            parallel </i>
  <i name="platform" type="string">Magnus_Intel_PSXE_2016U4 </i>
  <i name="date" type="string">2025 09 30 </i>
  <i name="time" type="string">16:18:15 </i>
 </generator>
 <incar>
  <i type="string" name="SYSTEM"> fcc Si</i>
  <i type="string" name="PREC">normal</i>
  <i type="int" name="ICHARG">    11</i>
  <i name="ENCUT">    240.00000000</i>
  <i type="int" name="ISMEAR">     0</i>
  <i name="SIGMA">      0.10000000</i>
  <i type="int" name="LORBIT">    11</i>
  <v type="int" name="KPOINT_BSE">    -1     0     0     0</v>
 </incar>
 <structure name="primitive_cell" >
  <crystal>
   <varray name="basis" >
    <v>       1.95000000       1.95000000       0.00000000 </v>
    <v>       0.00000000       1.95000000       1.95000000 </v>
    <v>       1.95000000       0.00000000       1.95000000 </v>
   </varray>
   <i name="volume">     14.82975000 </i>
   <varray name="rec_basis" >
    <v>       0.25641026       0.25641026      -0.25641026 </v>
    <v>      -0.25641026       0.25641026       0.25641026 </v>
    <v>       0.25641026      -0.25641026       0.25641026 </v>
   </varray>
  </crystal>
  <varray name="positions" >
   <v>       0.00000000       0.00000000       0.00000000 </v>
  </varray>
 </structure>
 <varray name="primitive_index" >
  <v type="int" >        1 </v>
 </varray>
 <kpoints>
  <generation param="listgenerated">
   <i name="divisions" type="int">      10 </i>
   <v>       0.50000000       0.50000000       0.50000000 </v>
   <v>       0.00000000       0.00000000       0.00000000 </v>
   <v>       0.50000000       0.00000000       0.50000000 </v>
   <v>       0.37500000       0.37500000       0.75000000 </v>
   <v>       0.00000000       0.00000000       0.00000000 </v>
  </generation>
  <varray name="kpointlist" >
   <v>       0.50000000       0.50000000       0.50000000 </v>
   <v>       0.44444444       0.44444444       0.44444444 </v>
   <v>       0.38888889       0.38888889       0.38888889 </v>
   <v>       0.33333333       0.33333333       0.33333333 </v>
   <v>       0.27777778       0.27777778       0.27777778 </v>
   <v>       0.22222222       0.22222222       0.22222222 </v>
   <v>       0.16666667       0.16666667       0.16666667 </v>
   <v>       0.11111111       0.11111111       0.11111111 </v>
   <v>       0.05555556       0.05555556       0.05555556 </v>
   <v>       0.00000000       0.00000000       0.00000000 </v>
   <v>       0.00000000       0.00000000       0.00000000 </v>
   <v>       0.05555556       0.00000000       0.05555556 </v>
   <v>       0.11111111       0.00000000       0.11111111 </v>
   <v>       0.16666667       0.00000000       0.16666667 </v>
   <v>       0.22222222       0.00000000       0.22222222 </v>
   <v>       0.27777778       0.00000000       0.27777778 </v>
   <v>       0.33333333       0.00000000       0.33333333 </v>
   <v>       0.38888889       0.00000000       0.38888889 </v>
   <v>       0.44444444       0.00000000       0.44444444 </v>
   <v>       0.50000000       0.00000000       0.50000000 </v>
   <v>       0.50000000       0.00000000       0.50000000 </v>
   <v>       0.51388889       0.02777778       0.51388889 </v>
   <v>       0.52777778       0.05555556       0.52777778 </v>
   <v>       0.54166667       0.08333333       0.54166667 </v>
   <v>       0.55555556       0.11111111       0.55555556 </v>
   <v>       0.56944444       0.13888889       0.56944444 </v>
   <v>       0.58333333       0.16666667       0.58333333 </v>
   <v>       0.59722222       0.19444444       0.59722222 </v>
   <v>       0.61111111       0.22222222       0.61111111 </v>
   <v>       0.62500000       0.25000000       0.62500000 </v>
   <v>       0.37500000       0.37500000       0.75000000 </v>
   <v>       0.33333333       0.33333333       0.66666667 </v>
   <v>       0.29166667       0.29166667       0.58333333 </v>
   <v>       0.25000000       0.25000000       0.50000000 </v>
   <v>       0.20833333       0.20833333       0.41666667 </v>
   <v>       0.16666667       0.16666667       0.33333333 </v>
   <v>       0.12500000       0.12500000       0.25000000 </v>
   <v>       0.08333333       0.08333333       0.16666667 </v>
   <v>       0.04166667       0.04166667       0.08333333 </v>
   <v>       0.00000000       0.00000000       0.00000000 </v>
  </varray>
  <varray name="weights" >
   <v>       0.02500000 </v>
   <v>       0.02500000 </v>
   <v>       0.02500000 </v>
   <v>       0.02500000 </v>
   <v>       0.02500000 </v>
   <v>       0.02500000 </v>
   <v>       0.02500000 </v>
   <v>       0.02500000 </v>
   <v>       0.02500000 </v>
   <v>       0.02500000 </v>
   <v>       0.02500000 </v>
   <v>       0.02500000 </v>
   <v>       0.02500000 </v>
   <v>       0.02500000 </v>
   <v>       0.02500000 </v>
   <v>       0.02500000 </v>
   <v>       0.02500000 </v>
   <v>       0.02500000 </v>
   <v>       0.02500000 </v>
   <v>       0.02500000 </v>
   <v>       0.02500000 </v>
   <v>       0.02500000 </v>
   <v>       0.02500000 </v>
   <v>       0.02500000 </v>
   <v>       0.02500000 </v>
   <v>       0.02500000 </v>
   <v>       0.02500000 </v>
   <v>       0.02500000 </v>
   <v>       0.02500000 </v>
   <v>       0.02500000 </v>
   <v>       0.02500000 </v>
   <v>       0.02500000 </v>
   <v>       0.02500000 </v>
   <v>       0.02500000 </v>
   <v>       0.02500000 </v>
   <v>       0.02500000 </v>
   <v>       0.02500000 </v>
   <v>       0.02500000 </v>
   <v>       0.02500000 </v>
   <v>       0.02500000 </v>
  </varray>
 </kpoints>
 <parameters>
  <separator name="general" >
   <i type="string" name="SYSTEM">fcc Si</i>
   <i type="logical" name="LCOMPAT"> F  </i>
  </separator>
  <separator name="electronic" >
   <i type="string" name="PREC">normal</i>
   <i name="ENMAX">    240.00000000</i>
   <i name="ENAUG">    322.06900000</i>
   <i name="EDIFF">      0.00010000</i>
   <i type="int" name="IALGO">    38</i>
   <i type="int" name="IWAVPR">    10</i>
   <i type="int" name="NBANDS">    16</i>
   <i name="NELECT">      4.00000000</i>
   <i type="int" name="TURBO">     0</i>
   <i type="int" name="IRESTART">     0</i>
   <i type="int" name="NREBOOT">     0</i>
   <i type="int" name="NMIN">     0</i>
   <i name="EREF">      0.00000000</i>
   <separator name="electronic smearing" >
    <i type="int" name="ISMEAR">     0</i>
    <i name="SIGMA">      0.10000000</i>
    <i name="KSPACING">      0.50000000</i>
    <i type="logical" name="KGAMMA"> T  </i>
   </separator>
   <separator name="electronic projectors" >
    <i type="logical" name="LREAL"> F  </i>
    <v name="ROPT">      0.00000000</v>
    <i type="int" name="LMAXPAW">  -100</i>
    <i type="int" name="LMAXMIX">     2</i>
    <i type="logical" name="NLSPLINE"> F  </i>
   </separator>
   <separator name="electronic startup" >
    <i type="int" name="ISTART">     0</i>
    <i type="int" name="ICHARG">    11</i>
    <i type="int" name="INIWAV">     1</i>
   </separator>
   <separator name="electronic spin" >
    <i type="int" name="ISPIN">     1</i>
    <i type="logical" name="LNONCOLLINEAR"> F  </i>
    <v name="MAGMOM">      1.00000000</v>
    <i name="NUPDOWN">     -1.00000000</i>
    <i type="logical" name="LSORBIT"> F  </i>
    <v name="SAXIS">      0.00000000      0.00000000      1.00000000</v>
    <i type="logical" name="LSPIRAL"> F  </i>
    <v name="QSPIRAL">      0.00000000      0.00000000      0.00000000</v>
    <i type="logical" name="LZEROZ"> F  </i>
   </separator>
   <separator name="electronic exchange-correlation" >
    <i type="logical" name="LASPH"> F  </i>
    <i type="logical" name="LMETAGGA"> F  </i>
   </separator>
   <separator name="electronic convergence" >
    <i type="int" name="NELM">    60</i>
    <i type="int" name="NELMDL">    -5</i>
    <i type="int" name="NELMIN">     2</i>
    <i name="ENINI">    240.00000000</i>
    <separator name="electronic convergence detail" >
     <i type="logical" name="LDIAG"> T  </i>
     <i type="logical" name="LSUBROT"> F  </i>
     <i name="WEIMIN">      0.00000000</i>
     <i name="EBREAK">      0.00000156</i>
     <i name="DEPER">      0.30000000</i>
     <i type="int" name="NRMM">     4</i>
     <i name="TIME">      0.40000000</i>
    </separator>
   </separator>
   <separator name="electronic mixer" >
    <i name="AMIX">      0.40000000</i>
    <i name="BMIX">      1.00000000</i>
    <i name="AMIN">      0.10000000</i>
    <i name="AMIX_MAG">      1.60000000</i>
    <i name="BMIX_MAG">      1.00000000</i>
    <separator name="electronic mixer details" >
     <i type="int" name="IMIX">     4</i>
     <i type="logical" name="MIXFIRST"> F  </i>
     <i type="int" name="MAXMIX">   -45</i>
     <i name="WC">    100.00000000</i>
     <i type="int" name="INIMIX">     1</i>
     <i type="int" name="MIXPRE">     1</i>
     <i type="int" name="MREMOVE">     5</i>
    </separator>
   </separator>
   <separator name="electronic dipolcorrection" >
    <i type="logical" name="LDIPOL"> F  </i>
    <i type="logical" name="LMONO"> F  </i>
    <i type="int" name="IDIPOL">     0</i>
    <i name="EPSILON">      1.00000000</i>
    <v name="DIPOL">   -100.00000000   -100.00000000   -100.00000000</v>
    <i name="EFIELD">      0.00000000</i>
   </separator>
  </separator>
  <separator name="grids" >
   <i type="int" name="NGX">    10</i>
   <i type="int" name="NGY">    10</i>
   <i type="int" name="NGZ">    10</i>
   <i type="int" name="NGXF">    20</i>
   <i type="int" name="NGYF">    20</i>
   <i type="int" name="NGZF">    20</i>
   <i type="logical" name="ADDGRID"> F  </i>
  </separator>
  <separator name="ionic" >
   <i type="int" name="NSW">     0</i>
   <i type="int" name="IBRION">    -1</i>
   <i type="int" name="MDALGO">     0</i>
   <i type="int" name="ISIF">     2</i>
   <i name="PSTRESS">      0.00000000</i>
   <i name="EDIFFG">      0.00100000</i>
   <i type="int" name="NFREE">     0</i>
   <i name="POTIM">      0.50000000</i>
   <i name="SMASS">     -3.00000000</i>
   <i name="SCALEE">      1.00000000</i>
  </separator>
  <separator name="ionic md" >
   <i name="TEBEG">      0.00010000</i>
   <i name="TEEND">      0.00010000</i>
   <i type="int" name="NBLOCK">     1</i>
   <i type="int" name="KBLOCK">     1</i>
   <i type="int" name="NPACO">   256</i>
   <i name="APACO">     16.00000000</i>
  </separator>
  <separator name="symmetry" >
   <i type="int" name="ISYM">     2</i>
   <i name="SYMPREC">      0.00001000</i>
  </separator>
  <separator name="dos" >
   <i type="int" name="LORBIT">    11</i>
   <v name="RWIGS">     -1.00000000</v>
   <i type="int" name="NEDOS">   301</i>
   <i name="EMIN">     10.00000000</i>
   <i name="EMAX">    -10.00000000</i>
   <i name="EFERMI">      0.00000000</i>
  </separator>
  <separator name="writing" >
   <i type="int" name="NWRITE">     2</i>
   <i type="logical" name="LWAVE"> T  </i>
   <i type="logical" name="LDOWNSAMPLE"> F  </i>
   <i type="logical" name="LCHARG"> T  </i>
   <i type="logical" name="LPARD"> F  </i>
   <i type="logical" name="LVTOT"> F  </i>
   <i type="logical" name="LVHAR"> F  </i>
   <i type="logical" name="LELF"> F  </i>
   <i type="logical" name="LOPTICS"> F  </i>
   <v name="STM">      0.00000000      0.00000000      0.00000000      0.00000000      0.00000000      0.00000000      0.00000000</v>
  </separator>
  <separator name="performance" >
   <i type="int" name="NPAR">    16</i>
   <i type="int" name="NSIM">     4</i>
   <i type="int" name="NBLK">    -1</i>
   <i type="logical" name="LPLANE"> T  </i>
   <i type="logical" name="LSCALAPACK"> T  </i>
   <i type="logical" name="LSCAAWARE"> T  </i>
   <i type="logical" name="LSCALU"> F  </i>
   <i type="logical" name="LASYNC"> F  </i>
   <i type="logical" name="LORBITALREAL"> F  </i>
  </separator>
  <separator name="miscellaneous" >
   <i type="int" name="IDIOT">     3</i>
   <i type="int" name="ISPECIAL">     0</i>
   <i type="logical" name="LMUSIC"> F  </i>
   <v name="POMASS">     28.08500000</v>
   <v name="DARWINR">      0.00000000</v>
   <v name="DARWINV">      1.00000000</v>
   <i type="logical" name="LCORR"> T  </i>
  </separator>
  <i type="logical" name="GGA_COMPAT"> T  </i>
  <i type="logical" name="LBERRY"> F  </i>
  <i type="int" name="ICORELEVEL">     0</i>
  <i type="logical" name="LDAU"> F  </i>
  <i type="int" name="I_CONSTRAINED_M">     0</i>
  <separator name="electronic exchange-correlation" >
   <i type="string" name="GGA">--</i>
   <i type="int" name="VOSKOWN">     0</i>
   <i type="logical" name="LHFCALC"> F  </i>
   <i type="string" name="PRECFOCK"></i>
   <i type="logical" name="LSYMGRAD"> F  </i>
   <i type="logical" name="LHFONE"> F  </i>
   <i type="logical" name="LRHFCALC"> F  </i>
   <i type="logical" name="LTHOMAS"> F  </i>
   <i type="logical" name="LMODELHF"> F  </i>
   <i name="ENCUT4O">     -1.00000000</i>
   <i type="int" name="EXXOEP">     0</i>
   <i type="int" name="FOURORBIT">     0</i>
   <i name="AEXX">      0.00000000</i>
   <i name="HFALPHA">      0.00000000</i>
   <i name="MCALPHA">      0.00000000</i>
   <i name="ALDAX">      1.00000000</i>
   <i name="AGGAX">      1.00000000</i>
   <i name="ALDAC">      1.00000000</i>
   <i name="AGGAC">      1.00000000</i>
   <i type="int" name="NKREDX">     1</i>
   <i type="int" name="NKREDY">     1</i>
   <i type="int" name="NKREDZ">     1</i>
   <i type="logical" name="SHIFTRED"> F  </i>
   <i type="logical" name="ODDONLY"> F  </i>
   <i type="logical" name="EVENONLY"> F  </i>
   <i type="int" name="LMAXFOCK">     0</i>
   <i type="int" name="NMAXFOCKAE">     0</i>
   <i type="logical" name="LFOCKAEDFT"> F  </i>
   <i name="HFSCREEN">      0.00000000</i>
   <i name="HFSCREENC">      0.00000000</i>
   <i type="int" name="NBANDSGWLOW">     0</i>
  </separator>
  <separator name="vdW DFT" >
   <i type="logical" name="LUSE_VDW"> F  </i>
   <i name="Zab_VDW">     -0.84910000</i>
   <i name="PARAM1">      0.12340000</i>
   <i name="PARAM2">      1.00000000</i>
   <i name="PARAM3">      0.00000000</i>
  </separator>
  <separator name="model GW" >
   <i type="int" name="MODEL_GW">     0</i>
   <i name="MODEL_EPS0">      8.89785000</i>
   <i name="MODEL_ALPHA">      1.00000000</i>
  </separator>
  <separator name="linear response parameters" >
   <i type="logical" name="LEPSILON"> F  </i>
   <i type="logical" name="LRPA"> F  </i>
   <i type="logical" name="LNABLA"> F  </i>
   <i type="logical" name="LVEL"> F  </i>
   <i type="int" name="KINTER">     0</i>
   <i name="CSHIFT">      0.10000000</i>
   <i name="OMEGAMAX">     -1.00000000</i>
   <i name="DEG_THRESHOLD">      0.00200000</i>
   <i name="RTIME">     -0.10000000</i>
   <i name="WPLASMAI">      0.00000000</i>
   <v name="DFIELD">      0.00000000      0.00000000      0.00000000</v>
   <v name="WPLASMA">      0.00000000      0.00000000      0.00000000      0.00000000      0.00000000      0.00000000      0.00000000      0.00000000      0.00000000</v>
  </separator>
  <separator name="orbital magnetization" >
   <i type="logical" name="NUCIND"> F  </i>
   <v name="MAGPOS">      0.00000000      0.00000000      0.00000000</v>
   <i type="logical" name="LNICSALL"> T  </i>
   <i type="logical" name="ORBITALMAG"> F  </i>
   <i type="logical" name="LMAGBLOCH"> F  </i>
   <i type="logical" name="LCHIMAG"> F  </i>
   <i type="logical" name="LGAUGE"> T  </i>
   <i type="int" name="MAGATOM">     0</i>
   <v name="MAGDIPOL">      0.00000000      0.00000000      0.00000000</v>
   <v name="AVECCONST">      0.00000000      0.00000000      0.00000000</v>
  </separator>
  <separator name="response functions" >
   <i type="logical" name="LADDER"> F  </i>
   <i type="logical" name="LRPAFORCE"> F  </i>
   <i type="logical" name="LFXC"> F  </i>
   <i type="logical" name="LHARTREE"> T  </i>
   <i type="int" name="IBSE">     0</i>
   <v type="int" name="KPOINT">    -1     0     0     0</v>
   <i type="logical" name="LTCTE"> F  </i>
   <i type="logical" name="LTETE"> F  </i>
   <i type="logical" name="LTRIPLET"> F  </i>
   <i type="logical" name="LFXCEPS"> F  </i>
   <i type="logical" name="LFXHEG"> F  </i>
   <i type="int" name="NATURALO">     2</i>
   <i type="logical" name="L2ORDER"> F  </i>
   <i type="logical" name="LMP2LT"> F  </i>
   <i type="logical" name="LUSEW"> F  </i>
   <i name="ENCUTGW">     -2.00000000</i>
   <i name="ENCUTGWSOFT">     -2.00000000</i>
   <i name="ENCUTLF">     -1.00000000</i>
   <i type="int" name="LMAXMP2">    -1</i>
   <i name="SCISSOR">      0.00000000</i>
   <i type="int" name="NOMEGA">     0</i>
   <i type="int" name="NOMEGAR">     0</i>
   <i type="int" name="NBANDSGW">    -1</i>
   <i type="int" name="NBANDSO">    -1</i>
   <i type="int" name="NBANDSV">    -1</i>
   <i type="int" name="NELM">     1</i>
   <i type="int" name="NELMHF">     1</i>
   <i type="int" name="DIM">     3</i>
   <i type="int" name="ANTIRES">     0</i>
   <i name="OMEGAMAX">    -30.00000000</i>
   <i name="OMEGAMIN">    -30.00000000</i>
   <i name="OMEGATL">   -200.00000000</i>
   <i type="int" name="OMEGAGRID">   140</i>
   <i name="CSHIFT">     -0.10000000</i>
   <i type="logical" name="SELFENERGY"> F  </i>
   <i type="logical" name="LSPECTRAL"> F  </i>
   <i type="logical" name="LSPECTRALGW"> F  </i>
   <i type="logical" name="LSINGLES"> F  </i>
   <i type="logical" name="LFERMIGW"> F  </i>
   <i type="logical" name="ODDONLYGW"> F  </i>
   <i type="logical" name="EVENONLYGW"> F  </i>
   <i type="int" name="NKREDLFX">     1</i>
   <i type="int" name="NKREDLFY">     1</i>
   <i type="int" name="NKREDLFZ">     1</i>
   <i type="int" name="MAXMEM">  2800</i>
   <i type="int" name="TELESCOPE">     0</i>
   <i type="int" name="TAUPAR">     1</i>
   <i type="int" name="OMEGAPAR">    -1</i>
   <i name="LAMBDA">      1.00000000</i>
  </separator>
  <separator name="External order field" >
   <i name="OFIELD_KAPPA">      0.00000000</i>
   <v name="OFIELD_K">      0.00000000      0.00000000      0.00000000</v>
   <i name="OFIELD_Q6_NEAR">      0.00000000</i>
   <i name="OFIELD_Q6_FAR">      0.00000000</i>
   <i name="OFIELD_A">      0.00000000</i>
  </separator>
 </parameters>
 <atominfo>
  <atoms>       1 </atoms>
  <types>       1 </types>
  <array name="atoms" >
   <dimension dim="1">ion</dimension>
   <field type="string">element</field>
   <field type="int">atomtype</field>
   <set>
    <rc><c>Si</c><c>   1</c></rc>
   </set>
  </array>
  <array name="atomtypes" >
   <dimension dim="1">type</dimension>
   <field type="int">atomspertype</field>
   <field type="string">element</field>
   <field>mass</field>
   <field>valence</field>
   <field type="string">pseudopotential</field>
   <set>
    <rc><c>   1</c><c>Si</c><c>     28.08500000</c><c>      4.00000000</c><c> PAW_PBE Si 05Jan2001                   </c></rc>
   </set>
  </array>
 </atominfo>
 <structure name="initialpos" >
  <crystal>
   <varray name="basis" >
    <v>       1.95000000       1.95000000       0.00000000 </v>
    <v>       0.00000000       1.95000000       1.95000000 </v>
    <v>       1.95000000       0.00000000       1.95000000 </v>
   </varray>
   <i name="volume">     14.82975000 </i>
   <varray name="rec_basis" >
    <v>       0.25641026       0.25641026      -0.25641026 </v>
    <v>      -0.25641026       0.25641026       0.25641026 </v>
    <v>       0.25641026      -0.25641026       0.25641026 </v>
   </varray>
  </crystal>
  <varray name="positions" >
   <v>       0.00000000       0.00000000       0.00000000 </v>
  </varray>
 </structure>
 <calculation>
  <scstep>
   <time name="dav">    0.15    0.15</time>
   <time name="total">    0.16    0.16</time>
   <energy>
    <i name="alphaZ">      2.26996938 </i>
    <i name="ewald">   -135.42777035 </i>
    <i name="hartreedc">     -0.49253400 </i>
    <i name="XCdc">     -8.81663101 </i>
    <i name="pawpsdc">     34.04839161 </i>
    <i name="pawaedc">    -16.46341784 </i>
    <i name="eentropy">     -0.00159819 </i>
    <i name="bandstr">     16.64964057 </i>
    <i name="atom">    103.06077658 </i>
    <i name="e_fr_energy">     -5.17317326 </i>
    <i name="e_wo_entrp">     -5.17157507 </i>
    <i name="e_0_energy">     -5.17237417 </i>
   </energy>
  </scstep>
  <scstep>
   <time name="dav">    0.11    0.11</time>
   <time name="total">    0.11    0.11</time>
   <energy>
    <i name="e_fr_energy">     -5.35916314 </i>
    <i name="e_wo_entrp">     -5.35899741 </i>
    <i name="e_0_energy">     -5.35908027 </i>
   </energy>
  </scstep>
  <scstep>
   <time name="dav">    0.17    0.17</time>
   <time name="total">    0.17    0.17</time>
   <energy>
    <i name="e_fr_energy">     -5.35920421 </i>
    <i name="e_wo_entrp">     -5.35903850 </i>
    <i name="e_0_energy">     -5.35912136 </i>
   </energy>
  </scstep>
  <scstep>
   <time name="dav">    0.12    0.12</time>
   <time name="total">    0.12    0.12</time>
   <energy>
    <i name="e_fr_energy">     -5.35920421 </i>
    <i name="e_wo_entrp">     -5.35903850 </i>
    <i name="e_0_energy">     -5.35912136 </i>
   </energy>
  </scstep>
  <scstep>
   <time name="dav">    0.15    0.15</time>
   <time name="total">    0.15    0.15</time>
   <energy>
    <i name="e_fr_energy">     -5.35920421 </i>
    <i name="e_wo_entrp">     -5.35903850 </i>
    <i name="e_0_energy">     -5.35912136 </i>
   </energy>
  </scstep>
  <scstep>
   <time name="dav">    0.06    0.06</time>
   <time name="total">    0.06    0.06</time>
   <energy>
    <i name="alphaZ">      2.26996938 </i>
    <i name="ewald">   -135.42777035 </i>
    <i name="hartreedc">     -0.49253400 </i>
    <i name="XCdc">     -8.81663101 </i>
    <i name="pawpsdc">     34.04839161 </i>
    <i name="pawaedc">    -16.46341784 </i>
    <i name="eentropy">     -0.00016571 </i>
    <i name="bandstr">     16.46217714 </i>
    <i name="atom">    103.06077658 </i>
    <i name="e_fr_energy">     -5.35920421 </i>
    <i name="e_wo_entrp">     -5.35903850 </i>
    <i name="e_0_energy">     -5.35912136 </i>
   </energy>
  </scstep>
  <structure>
   <crystal>
    <varray name="basis" >
     <v>       1.95000000       1.95000000       0.00000000 </v>
     <v>       0.00000000       1.95000000       1.95000000 </v>
     <v>       1.95000000       0.00000000       1.95000000 </v>
    </varray>
    <i name="volume">     14.82975000 </i>
    <varray name="rec_basis" >
     <v>       0.25641026       0.25641026      -0.25641026 </v>
     <v>      -0.25641026       0.25641026       0.25641026 </v>
     <v>       0.25641026      -0.25641026       0.25641026 </v>
    </varray>
   </crystal>
   <varray name="positions" >
    <v>       0.00000000       0.00000000       0.00000000 </v>
   </varray>
  </structure>
  <varray name="forces" >
   <v>       0.00000000       0.00000000       0.00000000 </v>
  </varray>
  <varray name="stress" >
   <v>     -40.49796076       0.00000000       0.00000000 </v>
   <v>      -0.00000000     -40.49796076      -0.00000000 </v>
   <v>      -0.00000000       0.00000000     -40.49796076 </v>
  </varray>
  <energy>
   <i name="e_fr_energy">     -5.35920421 </i>
   <i name="e_wo_entrp">     -5.35912136 </i>
   <i name="e_0_energy">     -0.00016571 </i>
  </energy>
  <time name="totalsc">    0.80    0.83</time>
  <eigenvalues>
   <array>
    <dimension dim="1">band</dimension>
    <dimension dim="2">kpoint</dimension>
    <dimension dim="3">spin</dimension>
    <field>eigene</field>
    <field>occ</field>
    <set>
     <set comment="spin 1">
      <set comment="kpoint 1">
       <r>    2.3137    1.0000 </r>
       <r>    3.0573    1.0000 </r>
       <r>   18.1905    0.0000 </r>
       <r>   18.1905    0.0000 </r>
       <r>   20.7341    0.0000 </r>
       <r>   20.7341    0.0000 </r>
       <r>   22.9806    0.0000 </r>
       <r>   25.5245    0.0000 </r>
       <r>   34.0909    0.0000 </r>
       <r>   34.0909    0.0000 </r>
       <r>   40.7834    0.0000 </r>
       <r>   41.0367    0.0000 </r>
       <r>   41.0367    0.0000 </r>
       <r>   48.6191    0.0000 </r>
       <r>   53.4566    0.0000 </r>
       <r>   55.1111    0.0000 </r>
      </set>
      <set comment="kpoint 2">
       <r>    1.1799    1.0000 </r>
       <r>    4.3496    1.0000 </r>
       <r>   18.1807    0.0000 </r>
       <r>   18.1807    0.0000 </r>
       <r>   20.8928    0.0000 </r>
       <r>   20.8928    0.0000 </r>
       <r>   22.9319    0.0000 </r>
       <r>   25.7177    0.0000 </r>
       <r>   33.3533    0.0000 </r>
       <r>   33.3533    0.0000 </r>
       <r>   40.2255    0.0000 </r>
       <r>   41.8580    0.0000 </r>
       <r>   41.8580    0.0000 </r>
       <r>   49.1039    0.0000 </r>
       <r>   51.8216    0.0000 </r>
       <r>   53.3871    0.0000 </r>
      </set>
      <set comment="kpoint 3">
       <r>   -0.0960    1.0000 </r>
       <r>    6.1019    1.0000 </r>
       <r>   18.1796    0.0000 </r>
       <r>   18.1796    0.0000 </r>
       <r>   21.3377    0.0000 </r>
       <r>   21.3377    0.0000 </r>
       <r>   22.8436    0.0000 </r>
       <r>   26.2437    0.0000 </r>
       <r>   31.8686    0.0000 </r>
       <r>   31.8686    0.0000 </r>
       <r>   38.9004    0.0000 </r>
       <r>   43.6853    0.0000 </r>
       <r>   43.6853    0.0000 </r>
       <r>   48.3005    0.0000 </r>
       <r>   50.6877    0.0000 </r>
       <r>   50.6877    0.0000 </r>
      </set>
      <set comment="kpoint 4">
       <r>   -1.2207    1.0000 </r>
       <r>    8.0157    1.0000 </r>
       <r>   18.2393    0.0000 </r>
       <r>   18.2393    0.0000 </r>
       <r>   22.0028    0.0000 </r>
       <r>   22.0028    0.0000 </r>
       <r>   22.7715    0.0000 </r>
       <r>   27.0089    0.0000 </r>
       <r>   30.1919    0.0000 </r>
       <r>   30.1919    0.0000 </r>
       <r>   37.2517    0.0000 </r>
       <r>   45.1929    0.0000 </r>
       <r>   45.2116    0.0000 </r>
       <r>   45.2116    0.0000 </r>
       <r>   48.7758    0.0000 </r>
       <r>   48.7758    0.0000 </r>
      </set>
      <set comment="kpoint 5">
       <r>   -2.1798    1.0000 </r>
       <r>   10.0700    1.0000 </r>
       <r>   18.3940    0.0000 </r>
       <r>   18.3940    0.0000 </r>
       <r>   22.7558    0.0000 </r>
       <r>   22.8087    0.0000 </r>
       <r>   22.8087    0.0000 </r>
       <r>   27.9400    0.0000 </r>
       <r>   28.5725    0.0000 </r>
       <r>   28.5725    0.0000 </r>
       <r>   35.4709    0.0000 </r>
       <r>   42.1052    0.0000 </r>
       <r>   43.8556    0.0000 </r>
       <r>   43.8556    0.0000 </r>
       <r>   50.1201    0.0000 </r>
       <r>   50.1201    0.0000 </r>
      </set>
      <set comment="kpoint 6">
       <r>   -2.9680    1.0000 </r>
       <r>   12.2520    1.0000 </r>
       <r>   18.6739    0.0000 </r>
       <r>   18.6739    0.0000 </r>
       <r>   22.8274    0.0000 </r>
       <r>   23.6005    0.0000 </r>
       <r>   23.6005    0.0000 </r>
       <r>   27.2583    0.0000 </r>
       <r>   27.2583    0.0000 </r>
       <r>   28.9750    0.0000 </r>
       <r>   33.6122    0.0000 </r>
       <r>   39.3571    0.0000 </r>
       <r>   41.4829    0.0000 </r>
       <r>   41.4829    0.0000 </r>
       <r>   48.0499    0.0000 </r>
       <r>   52.9166    0.0000 </r>
      </set>
      <set comment="kpoint 7">
       <r>   -3.5833    1.0000 </r>
       <r>   14.5374    0.0000 </r>
       <r>   19.0839    0.0000 </r>
       <r>   19.0839    0.0000 </r>
       <r>   22.9205    0.0000 </r>
       <r>   23.8877    0.0000 </r>
       <r>   23.8877    0.0000 </r>
       <r>   26.7272    0.0000 </r>
       <r>   26.7272    0.0000 </r>
       <r>   30.0038    0.0000 </r>
       <r>   31.6509    0.0000 </r>
       <r>   37.1309    0.0000 </r>
       <r>   39.1694    0.0000 </r>
       <r>   39.1694    0.0000 </r>
       <r>   45.8003    0.0000 </r>
       <r>   56.0374    0.0000 </r>
      </set>
      <set comment="kpoint 8">
       <r>   -4.0242    1.0000 </r>
       <r>   16.8801    0.0000 </r>
       <r>   19.6212    0.0000 </r>
       <r>   19.6212    0.0000 </r>
       <r>   22.9262    0.0000 </r>
       <r>   23.2564    0.0000 </r>
       <r>   23.2565    0.0000 </r>
       <r>   27.2889    0.0000 </r>
       <r>   27.2889    0.0000 </r>
       <r>   29.4775    0.0000 </r>
       <r>   31.0263    0.0000 </r>
       <r>   35.6511    0.0000 </r>
       <r>   37.1114    0.0000 </r>
       <r>   37.1114    0.0000 </r>
       <r>   43.8895    0.0000 </r>
       <r>   59.1890    0.0000 </r>
      </set>
      <set comment="kpoint 9">
       <r>   -4.2892    1.0000 </r>
       <r>   19.1483    0.0000 </r>
       <r>   20.2526    0.0000 </r>
       <r>   20.2526    0.0000 </r>
       <r>   22.3580    0.0000 </r>
       <r>   22.3580    0.0000 </r>
       <r>   22.5721    0.0000 </r>
       <r>   27.7243    0.0000 </r>
       <r>   28.1696    0.0000 </r>
       <r>   28.1696    0.0000 </r>
       <r>   31.5523    0.0000 </r>
       <r>   34.9970    0.0000 </r>
       <r>   35.5356    0.0000 </r>
       <r>   35.5356    0.0000 </r>
       <r>   42.5208    0.0000 </r>
       <r>   61.9081    0.0000 </r>
      </set>
      <set comment="kpoint 10">
       <r>   -4.3778    1.0000 </r>
       <r>   20.6956    0.0000 </r>
       <r>   20.6958    0.0000 </r>
       <r>   20.6958    0.0000 </r>
       <r>   21.7714    0.0000 </r>
       <r>   21.7715    0.0000 </r>
       <r>   21.7715    0.0000 </r>
       <r>   26.9787    0.0000 </r>
       <r>   28.5759    0.0000 </r>
       <r>   28.5759    0.0000 </r>
       <r>   31.6951    0.0000 </r>
       <r>   34.8834    0.0000 </r>
       <r>   34.8834    0.0000 </r>
       <r>   34.8835    0.0000 </r>
       <r>   42.0008    0.0000 </r>
       <r>   62.8229    0.0000 </r>
      </set>
      <set comment="kpoint 11">
       <r>   -4.3778    1.0000 </r>
       <r>   20.6956    0.0000 </r>
       <r>   20.6958    0.0000 </r>
       <r>   20.6958    0.0000 </r>
       <r>   21.7714    0.0000 </r>
       <r>   21.7715    0.0000 </r>
       <r>   21.7715    0.0000 </r>
       <r>   26.9787    0.0000 </r>
       <r>   28.5759    0.0000 </r>
       <r>   28.5759    0.0000 </r>
       <r>   31.6951    0.0000 </r>
       <r>   34.8834    0.0000 </r>
       <r>   34.8834    0.0000 </r>
       <r>   34.8835    0.0000 </r>
       <r>   42.0008    0.0000 </r>
       <r>   62.8232    0.0000 </r>
      </set>
      <set comment="kpoint 12">
       <r>   -4.2596    1.0000 </r>
       <r>   19.4729    0.0000 </r>
       <r>   19.4731    0.0000 </r>
       <r>   20.4134    0.0000 </r>
       <r>   21.1330    0.0000 </r>
       <r>   23.1911    0.0000 </r>
       <r>   23.1911    0.0000 </r>
       <r>   27.3450    0.0000 </r>
       <r>   27.9082    0.0000 </r>
       <r>   28.7195    0.0000 </r>
       <r>   31.8097    0.0000 </r>
       <r>   35.0569    0.0000 </r>
       <r>   35.0570    0.0000 </r>
       <r>   36.0561    0.0000 </r>
       <r>   42.7422    0.0000 </r>
       <r>   61.6075    0.0000 </r>
      </set>
      <set comment="kpoint 13">
       <r>   -3.9063    1.0000 </r>
       <r>   17.9976    0.0000 </r>
       <r>   17.9977    0.0000 </r>
       <r>   19.6433    0.0000 </r>
       <r>   19.8083    0.0000 </r>
       <r>   24.7222    0.0000 </r>
       <r>   25.1024    0.0000 </r>
       <r>   25.1025    0.0000 </r>
       <r>   29.0377    0.0000 </r>
       <r>   29.9459    0.0000 </r>
       <r>   32.7055    0.0000 </r>
       <r>   35.5767    0.0000 </r>
       <r>   35.5768    0.0000 </r>
       <r>   37.6860    0.0000 </r>
       <r>   45.0165    0.0000 </r>
       <r>   58.8620    0.0000 </r>
      </set>
      <set comment="kpoint 14">
       <r>   -3.3189    1.0000 </r>
       <r>   16.6814    0.0000 </r>
       <r>   16.6815    0.0000 </r>
       <r>   18.4492    0.0000 </r>
       <r>   18.4659    0.0000 </r>
       <r>   21.9650    0.0000 </r>
       <r>   27.0925    0.0000 </r>
       <r>   27.0925    0.0000 </r>
       <r>   29.5633    0.0000 </r>
       <r>   32.4925    0.0000 </r>
       <r>   34.1330    0.0000 </r>
       <r>   36.4808    0.0000 </r>
       <r>   36.4809    0.0000 </r>
       <r>   38.9623    0.0000 </r>
       <r>   48.4759    0.0000 </r>
       <r>   55.8952    0.0000 </r>
      </set>
      <set comment="kpoint 15">
       <r>   -2.4993    1.0000 </r>
       <r>   15.5562    0.0000 </r>
       <r>   15.5563    0.0000 </r>
       <r>   16.7275    0.0000 </r>
       <r>   17.2318    0.0000 </r>
       <r>   19.8173    0.0000 </r>
       <r>   29.0758    0.0000 </r>
       <r>   29.0758    0.0000 </r>
       <r>   30.2845    0.0000 </r>
       <r>   35.3707    0.0000 </r>
       <r>   35.8644    0.0000 </r>
       <r>   37.8168    0.0000 </r>
       <r>   37.8168    0.0000 </r>
       <r>   40.1424    0.0000 </r>
       <r>   52.5687    0.0000 </r>
       <r>   53.0705    0.0000 </r>
      </set>
      <set comment="kpoint 16">
       <r>   -1.4494    1.0000 </r>
       <r>   14.4015    0.0000 </r>
       <r>   14.6269    0.0000 </r>
       <r>   14.6270    0.0000 </r>
       <r>   16.1903    0.0000 </r>
       <r>   18.4626    0.0000 </r>
       <r>   30.9650    0.0000 </r>
       <r>   30.9650    0.0000 </r>
       <r>   31.1812    0.0000 </r>
       <r>   37.7908    0.0000 </r>
       <r>   38.5194    0.0000 </r>
       <r>   39.6118    0.0000 </r>
       <r>   39.6119    0.0000 </r>
       <r>   41.3784    0.0000 </r>
       <r>   50.4552    0.0000 </r>
       <r>   50.4553    0.0000 </r>
      </set>
      <set comment="kpoint 17">
       <r>   -0.1746    1.0000 </r>
       <r>   11.8873    1.0000 </r>
       <r>   13.9039    0.0000 </r>
       <r>   13.9040    0.0000 </r>
       <r>   15.3845    0.0000 </r>
       <r>   17.5839    0.0000 </r>
       <r>   32.2019    0.0000 </r>
       <r>   32.7115    0.0000 </r>
       <r>   32.7115    0.0000 </r>
       <r>   39.6969    0.0000 </r>
       <r>   41.7411    0.0000 </r>
       <r>   41.7412    0.0000 </r>
       <r>   41.9153    0.0000 </r>
       <r>   42.6824    0.0000 </r>
       <r>   48.1687    0.0000 </r>
       <r>   48.2779    0.0000 </r>
      </set>
      <set comment="kpoint 18">
       <r>    1.3214    1.0000 </r>
       <r>    9.4367    1.0000 </r>
       <r>   13.3870    0.0000 </r>
       <r>   13.3871    0.0000 </r>
       <r>   14.8067    0.0000 </r>
       <r>   17.0049    0.0000 </r>
       <r>   33.2848    0.0000 </r>
       <r>   34.3796    0.0000 </r>
       <r>   34.3797    0.0000 </r>
       <r>   41.4820    0.0000 </r>
       <r>   43.4281    0.0000 </r>
       <r>   43.4282    0.0000 </r>
       <r>   43.9911    0.0000 </r>
       <r>   45.5589    0.0000 </r>
       <r>   45.9509    0.0000 </r>
       <r>   47.3746    0.0000 </r>
      </set>
      <set comment="kpoint 19">
       <r>    3.0225    1.0000 </r>
       <r>    7.1439    1.0000 </r>
       <r>   13.0756    0.0000 </r>
       <r>   13.0757    0.0000 </r>
       <r>   14.4572    0.0000 </r>
       <r>   16.6624    0.0000 </r>
       <r>   34.2207    0.0000 </r>
       <r>   35.6841    0.0000 </r>
       <r>   35.6842    0.0000 </r>
       <r>   42.8385    0.0000 </r>
       <r>   43.0771    0.0000 </r>
       <r>   43.0772    0.0000 </r>
       <r>   44.3738    0.0000 </r>
       <r>   45.0600    0.0000 </r>
       <r>   49.3531    0.0000 </r>
       <r>   49.3844    0.0000 </r>
      </set>
      <set comment="kpoint 20">
       <r>    4.6155    1.0000 </r>
       <r>    5.3526    1.0000 </r>
       <r>   12.9717    0.0016 </r>
       <r>   12.9718    0.0016 </r>
       <r>   14.3404    0.0000 </r>
       <r>   16.5527    0.0000 </r>
       <r>   34.5845    0.0000 </r>
       <r>   36.2181    0.0000 </r>
       <r>   36.2183    0.0000 </r>
       <r>   42.6032    0.0000 </r>
       <r>   42.6034    0.0000 </r>
       <r>   43.3767    0.0000 </r>
       <r>   43.7753    0.0000 </r>
       <r>   45.5381    0.0000 </r>
       <r>   52.5457    0.0000 </r>
       <r>   52.6005    0.0000 </r>
      </set>
      <set comment="kpoint 21">
       <r>    4.6155    1.0000 </r>
       <r>    5.3526    1.0000 </r>
       <r>   12.9717    0.0016 </r>
       <r>   12.9718    0.0016 </r>
       <r>   14.3404    0.0000 </r>
       <r>   16.5527    0.0000 </r>
       <r>   34.5845    0.0000 </r>
       <r>   36.2181    0.0000 </r>
       <r>   36.2183    0.0000 </r>
       <r>   42.6032    0.0000 </r>
       <r>   42.6034    0.0000 </r>
       <r>   43.3767    0.0000 </r>
       <r>   43.7753    0.0000 </r>
       <r>   45.5381    0.0000 </r>
       <r>   52.5457    0.0000 </r>
       <r>   52.6005    0.0000 </r>
      </set>
      <set comment="kpoint 22">
       <r>    4.6294    1.0000 </r>
       <r>    5.3662    1.0000 </r>
       <r>   12.5839    0.9945 </r>
       <r>   12.9846    0.0009 </r>
       <r>   14.6197    0.0000 </r>
       <r>   16.6982    0.0000 </r>
       <r>   34.4934    0.0000 </r>
       <r>   36.1248    0.0000 </r>
       <r>   36.1269    0.0000 </r>
       <r>   42.4680    0.0000 </r>
       <r>   42.7158    0.0000 </r>
       <r>   43.4647    0.0000 </r>
       <r>   43.8516    0.0000 </r>
       <r>   45.5980    0.0000 </r>
       <r>   52.0971    0.0000 </r>
       <r>   52.1121    0.0000 </r>
      </set>
      <set comment="kpoint 23">
       <r>    4.6711    1.0000 </r>
       <r>    5.4070    1.0000 </r>
       <r>   11.8423    1.0000 </r>
       <r>   13.0233    0.0001 </r>
       <r>   15.0230    0.0000 </r>
       <r>   17.1473    0.0000 </r>
       <r>   34.2346    0.0000 </r>
       <r>   35.8598    0.0000 </r>
       <r>   35.8659    0.0000 </r>
       <r>   42.1069    0.0000 </r>
       <r>   43.0386    0.0000 </r>
       <r>   43.7073    0.0000 </r>
       <r>   44.0677    0.0000 </r>
       <r>   45.7239    0.0000 </r>
       <r>   51.3288    0.0000 </r>
       <r>   51.5765    0.0000 </r>
      </set>
      <set comment="kpoint 24">
       <r>    4.7406    1.0000 </r>
       <r>    5.4744    1.0000 </r>
       <r>   11.0229    1.0000 </r>
       <r>   13.0876    0.0000 </r>
       <r>   15.3135    0.0000 </r>
       <r>   17.8606    0.0000 </r>
       <r>   33.8433    0.0000 </r>
       <r>   35.4602    0.0000 </r>
       <r>   35.4666    0.0000 </r>
       <r>   41.6023    0.0000 </r>
       <r>   43.5350    0.0000 </r>
       <r>   44.0480    0.0000 </r>
       <r>   44.3916    0.0000 </r>
       <r>   45.8115    0.0000 </r>
       <r>   50.5702    0.0000 </r>
       <r>   51.1727    0.0000 </r>
      </set>
      <set comment="kpoint 25">
       <r>    4.8380    1.0000 </r>
       <r>    5.5675    1.0000 </r>
       <r>   10.1897    1.0000 </r>
       <r>   13.1776    0.0000 </r>
       <r>   15.5274    0.0000 </r>
       <r>   18.7382    0.0000 </r>
       <r>   33.3157    0.0000 </r>
       <r>   34.8973    0.0000 </r>
       <r>   34.9148    0.0000 </r>
       <r>   41.0135    0.0000 </r>
       <r>   44.1611    0.0000 </r>
       <r>   44.4013    0.0000 </r>
       <r>   44.7868    0.0000 </r>
       <r>   45.7755    0.0000 </r>
       <r>   49.9176    0.0000 </r>
       <r>   50.9208    0.0000 </r>
      </set>
      <set comment="kpoint 26">
       <r>    4.9631    1.0000 </r>
       <r>    5.6844    1.0000 </r>
       <r>    9.3649    1.0000 </r>
       <r>   13.2932    0.0000 </r>
       <r>   15.7170    0.0000 </r>
       <r>   19.7059    0.0000 </r>
       <r>   32.7737    0.0000 </r>
       <r>   34.3257    0.0000 </r>
       <r>   34.3635    0.0000 </r>
       <r>   40.3843    0.0000 </r>
       <r>   44.6690    0.0000 </r>
       <r>   44.8822    0.0000 </r>
       <r>   45.2216    0.0000 </r>
       <r>   45.5828    0.0000 </r>
       <r>   49.4471    0.0000 </r>
       <r>   50.8215    0.0000 </r>
      </set>
      <set comment="kpoint 27">
       <r>    5.1160    1.0000 </r>
       <r>    5.8199    1.0000 </r>
       <r>    8.5607    1.0000 </r>
       <r>   13.4341    0.0000 </r>
       <r>   15.9094    0.0000 </r>
       <r>   20.7229    0.0000 </r>
       <r>   32.1573    0.0000 </r>
       <r>   33.7102    0.0000 </r>
       <r>   33.7772    0.0000 </r>
       <r>   39.7314    0.0000 </r>
       <r>   44.7377    0.0000 </r>
       <r>   45.2268    0.0000 </r>
       <r>   45.6583    0.0000 </r>
       <r>   45.6738    0.0000 </r>
       <r>   49.2418    0.0000 </r>
       <r>   50.8260    0.0000 </r>
      </set>
      <set comment="kpoint 28">
       <r>    5.2970    1.0000 </r>
       <r>    5.9595    1.0000 </r>
       <r>    7.8002    1.0000 </r>
       <r>   13.6007    0.0000 </r>
       <r>   16.1195    0.0000 </r>
       <r>   21.7864    0.0000 </r>
       <r>   31.5649    0.0000 </r>
       <r>   33.0689    0.0000 </r>
       <r>   33.1894    0.0000 </r>
       <r>   39.0764    0.0000 </r>
       <r>   44.5670    0.0000 </r>
       <r>   44.7834    0.0000 </r>
       <r>   46.1308    0.0000 </r>
       <r>   46.4798    0.0000 </r>
       <r>   49.3425    0.0000 </r>
       <r>   50.9220    0.0000 </r>
      </set>
      <set comment="kpoint 29">
       <r>    5.5055    1.0000 </r>
       <r>    6.0399    1.0000 </r>
       <r>    7.1465    1.0000 </r>
       <r>   13.7925    0.0000 </r>
       <r>   16.3466    0.0000 </r>
       <r>   22.8591    0.0000 </r>
       <r>   30.9679    0.0000 </r>
       <r>   32.4148    0.0000 </r>
       <r>   32.5763    0.0000 </r>
       <r>   38.4272    0.0000 </r>
       <r>   44.1611    0.0000 </r>
       <r>   44.2727    0.0000 </r>
       <r>   46.5869    0.0000 </r>
       <r>   47.3190    0.0000 </r>
       <r>   49.6661    0.0000 </r>
       <r>   50.9851    0.0000 </r>
      </set>
      <set comment="kpoint 30">
       <r>    5.7418    1.0000 </r>
       <r>    5.8142    1.0000 </r>
       <r>    6.8475    1.0000 </r>
       <r>   14.0093    0.0000 </r>
       <r>   16.5889    0.0000 </r>
       <r>   23.9403    0.0000 </r>
       <r>   30.3405    0.0000 </r>
       <r>   31.7351    0.0000 </r>
       <r>   31.9217    0.0000 </r>
       <r>   37.7748    0.0000 </r>
       <r>   43.5801    0.0000 </r>
       <r>   43.6620    0.0000 </r>
       <r>   47.0362    0.0000 </r>
       <r>   48.1232    0.0000 </r>
       <r>   50.0910    0.0000 </r>
       <r>   50.9911    0.0000 </r>
      </set>
      <set comment="kpoint 31">
       <r>    5.7418    1.0000 </r>
       <r>    5.8142    1.0000 </r>
       <r>    6.8475    1.0000 </r>
       <r>   14.0093    0.0000 </r>
       <r>   16.5889    0.0000 </r>
       <r>   23.9403    0.0000 </r>
       <r>   30.3405    0.0000 </r>
       <r>   31.7351    0.0000 </r>
       <r>   31.9217    0.0000 </r>
       <r>   37.7748    0.0000 </r>
       <r>   43.5801    0.0000 </r>
       <r>   43.6620    0.0000 </r>
       <r>   47.0362    0.0000 </r>
       <r>   48.1232    0.0000 </r>
       <r>   50.0910    0.0000 </r>
       <r>   50.9911    0.0000 </r>
      </set>
      <set comment="kpoint 32">
       <r>    3.9053    1.0000 </r>
       <r>    6.6170    1.0000 </r>
       <r>    7.4927    1.0000 </r>
       <r>   14.8091    0.0000 </r>
       <r>   17.4889    0.0000 </r>
       <r>   27.1484    0.0000 </r>
       <r>   28.6497    0.0000 </r>
       <r>   29.8070    0.0000 </r>
       <r>   30.1657    0.0000 </r>
       <r>   36.0791    0.0000 </r>
       <r>   41.7315    0.0000 </r>
       <r>   42.0353    0.0000 </r>
       <r>   48.4075    0.0000 </r>
       <r>   50.3943    0.0000 </r>
       <r>   50.4217    0.0000 </r>
       <r>   51.2928    0.0000 </r>
      </set>
      <set comment="kpoint 33">
       <r>    2.0123    1.0000 </r>
       <r>    7.7406    1.0000 </r>
       <r>    8.5880    1.0000 </r>
       <r>   15.8224    0.0000 </r>
       <r>   18.6114    0.0000 </r>
       <r>   27.1226    0.0000 </r>
       <r>   28.0183    0.0000 </r>
       <r>   28.5531    0.0000 </r>
       <r>   29.5765    0.0000 </r>
       <r>   35.1183    0.0000 </r>
       <r>   39.8955    0.0000 </r>
       <r>   40.8081    0.0000 </r>
       <r>   48.5222    0.0000 </r>
       <r>   49.8577    0.0000 </r>
       <r>   50.8029    0.0000 </r>
       <r>   51.9233    0.0000 </r>
      </set>
      <set comment="kpoint 34">
       <r>    0.3406    1.0000 </r>
       <r>    9.1084    1.0000 </r>
       <r>    9.9274    1.0000 </r>
       <r>   17.0258    0.0000 </r>
       <r>   19.9428    0.0000 </r>
       <r>   25.8223    0.0000 </r>
       <r>   26.4112    0.0000 </r>
       <r>   27.0988    0.0000 </r>
       <r>   30.0080    0.0000 </r>
       <r>   35.2669    0.0000 </r>
       <r>   38.1854    0.0000 </r>
       <r>   40.9898    0.0000 </r>
       <r>   45.9494    0.0000 </r>
       <r>   47.4209    0.0000 </r>
       <r>   51.4573    0.0000 </r>
       <r>   51.8143    0.0000 </r>
      </set>
      <set comment="kpoint 35">
       <r>   -1.0884    1.0000 </r>
       <r>   10.7179    1.0000 </r>
       <r>   11.4816    1.0000 </r>
       <r>   18.3596    0.0000 </r>
       <r>   21.4544    0.0000 </r>
       <r>   24.8091    0.0000 </r>
       <r>   25.0182    0.0000 </r>
       <r>   25.8628    0.0000 </r>
       <r>   29.1098    0.0000 </r>
       <r>   34.8574    0.0000 </r>
       <r>   36.6307    0.0000 </r>
       <r>   43.0781    0.0000 </r>
       <r>   43.4407    0.0000 </r>
       <r>   43.6861    0.0000 </r>
       <r>   49.1861    0.0000 </r>
       <r>   53.2418    0.0000 </r>
      </set>
      <set comment="kpoint 36">
       <r>   -2.2667    1.0000 </r>
       <r>   12.5609    0.9979 </r>
       <r>   13.2261    0.0000 </r>
       <r>   19.6716    0.0000 </r>
       <r>   23.0917    0.0000 </r>
       <r>   23.8408    0.0000 </r>
       <r>   24.3029    0.0000 </r>
       <r>   24.8375    0.0000 </r>
       <r>   27.9180    0.0000 </r>
       <r>   33.8191    0.0000 </r>
       <r>   35.0597    0.0000 </r>
       <r>   39.8145    0.0000 </r>
       <r>   40.5465    0.0000 </r>
       <r>   45.6852    0.0000 </r>
       <r>   47.4929    0.0000 </r>
       <r>   51.0782    0.0000 </r>
      </set>
      <set comment="kpoint 37">
       <r>   -3.1874    1.0000 </r>
       <r>   14.6179    0.0000 </r>
       <r>   15.1262    0.0000 </r>
       <r>   20.5452    0.0000 </r>
       <r>   22.9492    0.0000 </r>
       <r>   24.0074    0.0000 </r>
       <r>   24.5177    0.0000 </r>
       <r>   24.6188    0.0000 </r>
       <r>   26.9744    0.0000 </r>
       <r>   32.7845    0.0000 </r>
       <r>   33.0482    0.0000 </r>
       <r>   37.1546    0.0000 </r>
       <r>   38.3029    0.0000 </r>
       <r>   42.1428    0.0000 </r>
       <r>   47.7235    0.0000 </r>
       <r>   51.9187    0.0000 </r>
      </set>
      <set comment="kpoint 38">
       <r>   -3.8476    1.0000 </r>
       <r>   16.8539    0.0000 </r>
       <r>   17.1374    0.0000 </r>
       <r>   20.7741    0.0000 </r>
       <r>   22.3107    0.0000 </r>
       <r>   23.3329    0.0000 </r>
       <r>   24.4848    0.0000 </r>
       <r>   25.9688    0.0000 </r>
       <r>   27.3106    0.0000 </r>
       <r>   30.4563    0.0000 </r>
       <r>   31.9542    0.0000 </r>
       <r>   35.7333    0.0000 </r>
       <r>   36.5552    0.0000 </r>
       <r>   38.8746    0.0000 </r>
       <r>   44.8485    0.0000 </r>
       <r>   56.6037    0.0000 </r>
      </set>
      <set comment="kpoint 39">
       <r>   -4.2449    1.0000 </r>
       <r>   19.1157    0.0000 </r>
       <r>   19.1645    0.0000 </r>
       <r>   20.7324    0.0000 </r>
       <r>   21.9260    0.0000 </r>
       <r>   22.6332    0.0000 </r>
       <r>   23.1432    0.0000 </r>
       <r>   27.6645    0.0000 </r>
       <r>   28.0536    0.0000 </r>
       <r>   28.2665    0.0000 </r>
       <r>   31.6211    0.0000 </r>
       <r>   35.0815    0.0000 </r>
       <r>   35.3698    0.0000 </r>
       <r>   36.1562    0.0000 </r>
       <r>   42.7829    0.0000 </r>
       <r>   60.9918    0.0000 </r>
      </set>
      <set comment="kpoint 40">
       <r>   -4.3778    1.0000 </r>
       <r>   20.6956    0.0000 </r>
       <r>   20.6958    0.0000 </r>
       <r>   20.6958    0.0000 </r>
       <r>   21.7714    0.0000 </r>
       <r>   21.7715    0.0000 </r>
       <r>   21.7715    0.0000 </r>
       <r>   26.9787    0.0000 </r>
       <r>   28.5759    0.0000 </r>
       <r>   28.5759    0.0000 </r>
       <r>   31.6951    0.0000 </r>
       <r>   34.8834    0.0000 </r>
       <r>   34.8834    0.0000 </r>
       <r>   34.8835    0.0000 </r>
       <r>   42.0008    0.0000 </r>
       <r>   62.8224    0.0000 </r>
      </set>
     </set>
    </set>
   </array>
  </eigenvalues>
  <separator name="orbital magnetization" >
   <v name="MAGDIPOLOUT">      0.00000000      0.00000000      0.00000000</v>
  </separator>
  <dos>
   <i name="efermi">     12.76370073 </i>
   <total>
    <array>
     <dimension dim="1">gridpoints</dimension>
     <dimension dim="2">spin</dimension>
     <field>energy</field>
     <field>total</field>
     <field>integrated</field>
     <set>
      <set comment="spin 1">
       <r>    -7.7379     0.0000     0.0000 </r>
       <r>    -7.4915     0.0000     0.0000 </r>
       <r>    -7.2451     0.0000     0.0000 </r>
       <r>    -6.9987     0.0000     0.0000 </r>
       <r>    -6.7523     0.0000     0.0000 </r>
       <r>    -6.5059     0.0000     0.0000 </r>
       <r>    -6.2595     0.0000     0.0000 </r>
       <r>    -6.0131     0.0000     0.0000 </r>
       <r>    -5.7667     0.0000     0.0000 </r>
       <r>    -5.5203     0.0000     0.0000 </r>
       <r>    -5.2739     0.0000     0.0000 </r>
       <r>    -5.0275     0.0000     0.0000 </r>
       <r>    -4.7810     0.0000     0.0000 </r>
       <r>    -4.5346     0.0082     0.0020 </r>
       <r>    -4.2882     0.7651     0.1905 </r>
       <r>    -4.0418     0.5313     0.3214 </r>
       <r>    -3.7954     0.4634     0.4356 </r>
       <r>    -3.5490     0.1978     0.4843 </r>
       <r>    -3.3026     0.1940     0.5321 </r>
       <r>    -3.0562     0.2904     0.6037 </r>
       <r>    -2.8098     0.1853     0.6494 </r>
       <r>    -2.5634     0.0395     0.6591 </r>
       <r>    -2.3170     0.2186     0.7130 </r>
       <r>    -2.0706     0.3402     0.7968 </r>
       <r>    -1.8242     0.0130     0.8000 </r>
       <r>    -1.5778     0.0070     0.8017 </r>
       <r>    -1.3314     0.1982     0.8506 </r>
       <r>    -1.0850     0.3003     0.9246 </r>
       <r>    -0.8386     0.1031     0.9500 </r>
       <r>    -0.5922     0.0000     0.9500 </r>
       <r>    -0.3458     0.0016     0.9504 </r>
       <r>    -0.0994     0.2697     1.0168 </r>
       <r>     0.1470     0.1351     1.0501 </r>
       <r>     0.3934     0.1562     1.0886 </r>
       <r>     0.6398     0.0462     1.1000 </r>
       <r>     0.8862     0.0000     1.1000 </r>
       <r>     1.1326     0.0519     1.1128 </r>
       <r>     1.3790     0.3114     1.1895 </r>
       <r>     1.6254     0.0426     1.2000 </r>
       <r>     1.8719     0.0048     1.2012 </r>
       <r>     2.1183     0.1851     1.2468 </r>
       <r>     2.3647     0.1681     1.2882 </r>
       <r>     2.6111     0.0478     1.3000 </r>
       <r>     2.8575     0.0025     1.3006 </r>
       <r>     3.1039     0.3263     1.3810 </r>
       <r>     3.3503     0.0770     1.4000 </r>
       <r>     3.5967     0.0000     1.4000 </r>
       <r>     3.8431     0.0385     1.4095 </r>
       <r>     4.0895     0.1635     1.4498 </r>
       <r>     4.3359     0.0867     1.4712 </r>
       <r>     4.5823     0.3216     1.5504 </r>
       <r>     4.8287     0.8815     1.7676 </r>
       <r>     5.0751     0.3801     1.8613 </r>
       <r>     5.3215     0.5003     1.9846 </r>
       <r>     5.5679     1.1318     2.2634 </r>
       <r>     5.8143     0.9910     2.5076 </r>
       <r>     6.0607     0.7441     2.6910 </r>
       <r>     6.3071     0.2393     2.7499 </r>
       <r>     6.5535     0.0378     2.7592 </r>
       <r>     6.7999     0.2662     2.8248 </r>
       <r>     7.0463     0.3370     2.9079 </r>
       <r>     7.2927     0.3669     2.9983 </r>
       <r>     7.5391     0.1585     3.0373 </r>
       <r>     7.7855     0.2860     3.1078 </r>
       <r>     8.0319     0.2910     3.1795 </r>
       <r>     8.2783     0.0832     3.2000 </r>
       <r>     8.5248     0.0997     3.2246 </r>
       <r>     8.7712     0.3049     3.2997 </r>
       <r>     9.0176     0.0214     3.3050 </r>
       <r>     9.2640     0.1970     3.3535 </r>
       <r>     9.5104     0.3574     3.4416 </r>
       <r>     9.7568     0.0358     3.4504 </r>
       <r>    10.0032     0.2083     3.5017 </r>
       <r>    10.2496     0.3574     3.5898 </r>
       <r>    10.4960     0.0416     3.6000 </r>
       <r>    10.7424     0.1288     3.6318 </r>
       <r>    10.9888     0.1378     3.6657 </r>
       <r>    11.2352     0.1389     3.6999 </r>
       <r>    11.4816     0.1017     3.7250 </r>
       <r>    11.7280     0.1146     3.7532 </r>
       <r>    11.9744     0.3643     3.8430 </r>
       <r>    12.2208     0.0953     3.8665 </r>
       <r>    12.4672     0.1646     3.9070 </r>
       <r>    12.7136     0.3675     3.9976 </r>
       <r>    12.9600     0.5019     4.1213 </r>
       <r>    13.2064     1.5475     4.5026 </r>
       <r>    13.4528     0.8535     4.7129 </r>
       <r>    13.6992     0.3567     4.8008 </r>
       <r>    13.9456     0.5645     4.9399 </r>
       <r>    14.1920     0.4526     5.0514 </r>
       <r>    14.4384     0.6089     5.2014 </r>
       <r>    14.6848     1.0696     5.4650 </r>
       <r>    14.9312     0.5519     5.6010 </r>
       <r>    15.1777     0.3576     5.6891 </r>
       <r>    15.4241     0.4070     5.7893 </r>
       <r>    15.6705     0.6811     5.9572 </r>
       <r>    15.9169     0.4683     6.0726 </r>
       <r>    16.1633     0.3321     6.1544 </r>
       <r>    16.4097     0.3611     6.2434 </r>
       <r>    16.6561     1.0685     6.5067 </r>
       <r>    16.9025     1.0854     6.7741 </r>
       <r>    17.1489     0.7407     6.9566 </r>
       <r>    17.3953     0.3964     7.0543 </r>
       <r>    17.6417     0.3435     7.1389 </r>
       <r>    17.8881     0.2016     7.1886 </r>
       <r>    18.1345     0.7668     7.3776 </r>
       <r>    18.3809     1.6770     7.7908 </r>
       <r>    18.6273     1.0781     8.0564 </r>
       <r>    18.8737     0.5767     8.1985 </r>
       <r>    19.1201     0.5186     8.3263 </r>
       <r>    19.3665     0.5281     8.4565 </r>
       <r>    19.6129     0.6830     8.6247 </r>
       <r>    19.8593     1.0332     8.8793 </r>
       <r>    20.1057     0.2923     8.9514 </r>
       <r>    20.3521     0.4079     9.0519 </r>
       <r>    20.5985     0.5327     9.1831 </r>
       <r>    20.8449     2.7000     9.8484 </r>
       <r>    21.0913     0.4678     9.9637 </r>
       <r>    21.3377     0.3600    10.0524 </r>
       <r>    21.5841     0.3971    10.1502 </r>
       <r>    21.8306     1.6327    10.5525 </r>
       <r>    22.0770     1.1328    10.8317 </r>
       <r>    22.3234     0.3169    10.9098 </r>
       <r>    22.5698     0.5034    11.0338 </r>
       <r>    22.8162     1.0593    11.2948 </r>
       <r>    23.0626     1.7012    11.7140 </r>
       <r>    23.3090     1.1209    11.9902 </r>
       <r>    23.5554     0.3487    12.0761 </r>
       <r>    23.8018     0.4140    12.1781 </r>
       <r>    24.0482     1.0153    12.4283 </r>
       <r>    24.2946     0.1809    12.4729 </r>
       <r>    24.5410     0.4258    12.5778 </r>
       <r>    24.7874     0.5837    12.7216 </r>
       <r>    25.0338     0.5038    12.8458 </r>
       <r>    25.2802     0.4207    12.9494 </r>
       <r>    25.5266     0.1070    12.9758 </r>
       <r>    25.7730     0.3277    13.0565 </r>
       <r>    26.0194     0.5311    13.1874 </r>
       <r>    26.2658     0.1816    13.2321 </r>
       <r>    26.5122     0.2604    13.2963 </r>
       <r>    26.7586     0.2884    13.3673 </r>
       <r>    27.0050     0.8345    13.5730 </r>
       <r>    27.2514     1.6653    13.9833 </r>
       <r>    27.4978     0.8767    14.1993 </r>
       <r>    27.7442     0.3073    14.2751 </r>
       <r>    27.9906     0.7171    14.4518 </r>
       <r>    28.2370     0.8031    14.6496 </r>
       <r>    28.4835     0.3976    14.7476 </r>
       <r>    28.7299     1.8987    15.2155 </r>
       <r>    28.9763     0.3204    15.2944 </r>
       <r>    29.2227     0.8146    15.4951 </r>
       <r>    29.4691     0.1432    15.5304 </r>
       <r>    29.7155     0.4970    15.6529 </r>
       <r>    29.9619     0.4168    15.7556 </r>
       <r>    30.2083     0.8108    15.9554 </r>
       <r>    30.4547     0.8662    16.1688 </r>
       <r>    30.7011     0.1266    16.2000 </r>
       <r>    30.9475     0.2686    16.2662 </r>
       <r>    31.1939     0.6568    16.4280 </r>
       <r>    31.4403     0.1100    16.4551 </r>
       <r>    31.6867     1.0646    16.7175 </r>
       <r>    31.9331     1.5735    17.1052 </r>
       <r>    32.1795     0.5875    17.2499 </r>
       <r>    32.4259     0.3557    17.3376 </r>
       <r>    32.6723     0.6467    17.4969 </r>
       <r>    32.9187     0.8236    17.6998 </r>
       <r>    33.1651     0.4672    17.8150 </r>
       <r>    33.4115     0.8458    18.0234 </r>
       <r>    33.6579     0.3176    18.1016 </r>
       <r>    33.9043     0.7365    18.2831 </r>
       <r>    34.1507     0.5738    18.4245 </r>
       <r>    34.3971     1.0774    18.6900 </r>
       <r>    34.6435     0.7679    18.8792 </r>
       <r>    34.8899     1.3881    19.2212 </r>
       <r>    35.1364     2.1435    19.7494 </r>
       <r>    35.3828     0.7102    19.9244 </r>
       <r>    35.6292     1.5672    20.3105 </r>
       <r>    35.8756     1.1105    20.5842 </r>
       <r>    36.1220     0.9103    20.8084 </r>
       <r>    36.3684     1.1927    21.1023 </r>
       <r>    36.6148     0.6304    21.2576 </r>
       <r>    36.8612     0.1719    21.3000 </r>
       <r>    37.1076     0.3250    21.3801 </r>
       <r>    37.3540     0.6739    21.5461 </r>
       <r>    37.6004     0.0427    21.5566 </r>
       <r>    37.8468     0.9460    21.7897 </r>
       <r>    38.0932     0.2644    21.8549 </r>
       <r>    38.3396     0.3449    21.9399 </r>
       <r>    38.5860     0.4094    22.0407 </r>
       <r>    38.8324     0.1344    22.0738 </r>
       <r>    39.0788     0.6451    22.2328 </r>
       <r>    39.3252     0.5362    22.3649 </r>
       <r>    39.5716     0.2679    22.4309 </r>
       <r>    39.8180     0.7874    22.6250 </r>
       <r>    40.0644     0.3325    22.7069 </r>
       <r>    40.3108     0.3835    22.8014 </r>
       <r>    40.5572     0.3097    22.8777 </r>
       <r>    40.8036     0.3125    22.9547 </r>
       <r>    41.0500     0.7215    23.1325 </r>
       <r>    41.2964     0.3016    23.2068 </r>
       <r>    41.5428     0.7045    23.3804 </r>
       <r>    41.7893     0.8233    23.5833 </r>
       <r>    42.0357     1.2645    23.8948 </r>
       <r>    42.2821     0.8260    24.0984 </r>
       <r>    42.5285     0.4018    24.1974 </r>
       <r>    42.7749     1.4288    24.5494 </r>
       <r>    43.0213     0.6189    24.7019 </r>
       <r>    43.2677     0.6304    24.8573 </r>
       <r>    43.5141     1.2142    25.1564 </r>
       <r>    43.7605     1.8632    25.6155 </r>
       <r>    44.0069     1.3568    25.9499 </r>
       <r>    44.2533     0.8692    26.1640 </r>
       <r>    44.4997     0.7539    26.3498 </r>
       <r>    44.7461     0.6272    26.5043 </r>
       <r>    44.9925     0.8872    26.7229 </r>
       <r>    45.2389     0.9623    26.9601 </r>
       <r>    45.4853     0.5187    27.0879 </r>
       <r>    45.7317     1.5584    27.4719 </r>
       <r>    45.9781     0.9879    27.7153 </r>
       <r>    46.2245     0.3251    27.7954 </r>
       <r>    46.4709     0.1204    27.8250 </r>
       <r>    46.7173     0.2976    27.8984 </r>
       <r>    46.9637     0.0686    27.9153 </r>
       <r>    47.2101     0.3560    28.0030 </r>
       <r>    47.4565     0.5657    28.1424 </r>
       <r>    47.7029     0.3119    28.2192 </r>
       <r>    47.9493     0.1436    28.2546 </r>
       <r>    48.1957     0.6952    28.4259 </r>
       <r>    48.4422     0.7283    28.6054 </r>
       <r>    48.6886     0.5959    28.7522 </r>
       <r>    48.9350     0.3938    28.8492 </r>
       <r>    49.1814     0.3185    28.9277 </r>
       <r>    49.4278     0.8736    29.1429 </r>
       <r>    49.6742     0.3431    29.2275 </r>
       <r>    49.9206     0.3653    29.3175 </r>
       <r>    50.1670     0.7834    29.5105 </r>
       <r>    50.4134     0.4901    29.6313 </r>
       <r>    50.6598     0.8120    29.8314 </r>
       <r>    50.9062     1.0659    30.0941 </r>
       <r>    51.1526     1.0873    30.3620 </r>
       <r>    51.3990     0.5568    30.4992 </r>
       <r>    51.6454     0.3780    30.5923 </r>
       <r>    51.8918     0.5154    30.7193 </r>
       <r>    52.1382     0.6039    30.8681 </r>
       <r>    52.3846     0.1355    30.9015 </r>
       <r>    52.6310     0.7889    31.0959 </r>
       <r>    52.8774     0.2791    31.1646 </r>
       <r>    53.1238     0.3101    31.2410 </r>
       <r>    53.3702     0.3371    31.3241 </r>
       <r>    53.6166     0.3055    31.3994 </r>
       <r>    53.8630     0.0025    31.4000 </r>
       <r>    54.1094     0.0000    31.4000 </r>
       <r>    54.3558     0.0000    31.4000 </r>
       <r>    54.6022     0.0000    31.4000 </r>
       <r>    54.8486     0.0000    31.4000 </r>
       <r>    55.0951     0.0832    31.4205 </r>
       <r>    55.3415     0.1195    31.4500 </r>
       <r>    55.5879     0.0001    31.4500 </r>
       <r>    55.8343     0.0398    31.4598 </r>
       <r>    56.0807     0.3103    31.5363 </r>
       <r>    56.3271     0.0557    31.5500 </r>
       <r>    56.5735     0.0679    31.5667 </r>
       <r>    56.8199     0.1348    31.5999 </r>
       <r>    57.0663     0.0002    31.6000 </r>
       <r>    57.3127     0.0000    31.6000 </r>
       <r>    57.5591     0.0000    31.6000 </r>
       <r>    57.8055     0.0000    31.6000 </r>
       <r>    58.0519     0.0000    31.6000 </r>
       <r>    58.2983     0.0000    31.6000 </r>
       <r>    58.5447     0.0000    31.6000 </r>
       <r>    58.7911     0.0321    31.6079 </r>
       <r>    59.0375     0.1728    31.6505 </r>
       <r>    59.2839     0.1828    31.6955 </r>
       <r>    59.5303     0.0182    31.7000 </r>
       <r>    59.7767     0.0000    31.7000 </r>
       <r>    60.0231     0.0000    31.7000 </r>
       <r>    60.2695     0.0000    31.7000 </r>
       <r>    60.5159     0.0000    31.7000 </r>
       <r>    60.7623     0.0001    31.7000 </r>
       <r>    61.0087     0.1205    31.7297 </r>
       <r>    61.2551     0.0823    31.7500 </r>
       <r>    61.5015     0.0136    31.7534 </r>
       <r>    61.7480     0.1869    31.7994 </r>
       <r>    61.9944     0.1827    31.8444 </r>
       <r>    62.2408     0.0226    31.8500 </r>
       <r>    62.4872     0.0000    31.8500 </r>
       <r>    62.7336     0.0629    31.8655 </r>
       <r>    62.9800     0.5378    31.9980 </r>
       <r>    63.2264     0.0080    32.0000 </r>
       <r>    63.4728     0.0000    32.0000 </r>
       <r>    63.7192     0.0000    32.0000 </r>
       <r>    63.9656     0.0000    32.0000 </r>
       <r>    64.2120     0.0000    32.0000 </r>
       <r>    64.4584     0.0000    32.0000 </r>
       <r>    64.7048     0.0000    32.0000 </r>
       <r>    64.9512     0.0000    32.0000 </r>
       <r>    65.1976     0.0000    32.0000 </r>
       <r>    65.4440     0.0000    32.0000 </r>
       <r>    65.6904     0.0000    32.0000 </r>
       <r>    65.9368     0.0000    32.0000 </r>
       <r>    66.1832     0.0000    32.0000 </r>
      </set>
     </set>
    </array>
   </total>
   <partial>
    <array>
     <dimension dim="1">gridpoints</dimension>
     <dimension dim="2">spin</dimension>
     <dimension dim="3">ion</dimension>
     <field>energy</field>
     <field>    s</field>
     <field>   py</field>
     <field>   pz</field>
     <field>   px</field>
     <field>  dxy</field>
     <field>  dyz</field>
     <field>  dz2</field>
     <field>  dxz</field>
     <field>x2-y2</field>
     <set>
      <set comment="ion 1">
       <set comment="spin 1">
        <r>    -7.7379     0.0000     0.0000     0.0000     0.0000     0.0000     0.0000     0.0000     0.0000     0.0000 </r>
        <r>    -7.4915     0.0000     0.0000     0.0000     0.0000     0.0000     0.0000     0.0000     0.0000     0.0000 </r>
        <r>    -7.2451     0.0000     0.0000     0.0000     0.0000     0.0000     0.0000     0.0000     0.0000     0.0000 </r>
        <r>    -6.9987     0.0000     0.0000     0.0000     0.0000     0.0000     0.0000     0.0000     0.0000     0.0000 </r>
        <r>    -6.7523     0.0000     0.0000     0.0000     0.0000     0.0000     0.0000     0.0000     0.0000     0.0000 </r>
        <r>    -6.5059     0.0000     0.0000     0.0000     0.0000     0.0000     0.0000     0.0000     0.0000     0.0000 </r>
        <r>    -6.2595     0.0000     0.0000     0.0000     0.0000     0.0000     0.0000     0.0000     0.0000     0.0000 </r>
        <r>    -6.0131     0.0000     0.0000     0.0000     0.0000     0.0000     0.0000     0.0000     0.0000     0.0000 </r>
        <r>    -5.7667     0.0000     0.0000     0.0000     0.0000     0.0000     0.0000     0.0000     0.0000     0.0000 </r>
        <r>    -5.5203     0.0000     0.0000     0.0000     0.0000     0.0000     0.0000     0.0000     0.0000     0.0000 </r>
        <r>    -5.2739     0.0000     0.0000     0.0000     0.0000     0.0000     0.0000     0.0000     0.0000     0.0000 </r>
        <r>    -5.0275     0.0000     0.0000     0.0000     0.0000     0.0000     0.0000     0.0000     0.0000     0.0000 </r>
        <r>    -4.7810     0.0000     0.0000     0.0000     0.0000     0.0000     0.0000     0.0000     0.0000     0.0000 </r>
        <r>    -4.5346     0.0031     0.0000     0.0000     0.0000     0.0000     0.0000     0.0000     0.0000     0.0000 </r>
        <r>    -4.2882     0.2933     0.0001     0.0002     0.0004     0.0000     0.0000     0.0000     0.0000     0.0000 </r>
        <r>    -4.0418     0.2026     0.0003     0.0006     0.0011     0.0000     0.0000     0.0000     0.0000     0.0000 </r>
        <r>    -3.7954     0.1734     0.0004     0.0014     0.0036     0.0000     0.0000     0.0000     0.0000     0.0000 </r>
        <r>    -3.5490     0.0729     0.0009     0.0012     0.0014     0.0000     0.0000     0.0000     0.0000     0.0000 </r>
        <r>    -3.3026     0.0703     0.0004     0.0006     0.0038     0.0000     0.0000     0.0000     0.0000     0.0000 </r>
        <r>    -3.0562     0.1041     0.0002     0.0030     0.0052     0.0000     0.0000     0.0000     0.0000     0.0000 </r>
        <r>    -2.8098     0.0656     0.0020     0.0021     0.0021     0.0000     0.0000     0.0000     0.0000     0.0000 </r>
        <r>    -2.5634     0.0136     0.0000     0.0000     0.0017     0.0000     0.0000     0.0000     0.0000     0.0000 </r>
        <r>    -2.3170     0.0747     0.0001     0.0013     0.0089     0.0000     0.0000     0.0000     0.0000     0.0000 </r>
        <r>    -2.0706     0.1151     0.0032     0.0070     0.0071     0.0000     0.0000     0.0000     0.0000     0.0000 </r>
        <r>    -1.8242     0.0044     0.0002     0.0002     0.0002     0.0000     0.0000     0.0000     0.0000     0.0000 </r>
        <r>    -1.5778     0.0023     0.0000     0.0000     0.0005     0.0000     0.0000     0.0000     0.0000     0.0000 </r>
        <r>    -1.3314     0.0636     0.0003     0.0003     0.0135     0.0000     0.0000     0.0000     0.0000     0.0000 </r>
        <r>    -1.0850     0.0962     0.0044     0.0083     0.0090     0.0000     0.0000     0.0000     0.0000     0.0000 </r>
        <r>    -0.8386     0.0327     0.0001     0.0038     0.0038     0.0000     0.0000     0.0000     0.0000     0.0000 </r>
        <r>    -0.5922     0.0000     0.0000     0.0000     0.0000     0.0000     0.0000     0.0000     0.0000     0.0000 </r>
        <r>    -0.3458     0.0005     0.0000     0.0000     0.0002     0.0000     0.0000     0.0000     0.0000     0.0000 </r>
        <r>    -0.0994     0.0805     0.0029     0.0029     0.0199     0.0000     0.0000     0.0000     0.0000     0.0000 </r>
        <r>     0.1470     0.0411     0.0031     0.0032     0.0060     0.0000     0.0000     0.0000     0.0000     0.0000 </r>
        <r>     0.3934     0.0458     0.0000     0.0080     0.0080     0.0000     0.0000     0.0000     0.0000     0.0000 </r>
        <r>     0.6398     0.0135     0.0000     0.0024     0.0024     0.0000     0.0000     0.0000     0.0000     0.0000 </r>
        <r>     0.8862     0.0000     0.0000     0.0000     0.0000     0.0000     0.0000     0.0000     0.0000     0.0000 </r>
        <r>     1.1326     0.0159     0.0016     0.0016     0.0017     0.0000     0.0000     0.0000     0.0000     0.0000 </r>
        <r>     1.3790     0.0884     0.0048     0.0048     0.0262     0.0000     0.0000     0.0000     0.0000     0.0000 </r>
        <r>     1.6254     0.0112     0.0000     0.0000     0.0056     0.0000     0.0000     0.0000     0.0000     0.0000 </r>
        <r>     1.8719     0.0013     0.0000     0.0003     0.0003     0.0000     0.0000     0.0000     0.0000     0.0000 </r>
        <r>     2.1183     0.0503     0.0000     0.0119     0.0119     0.0000     0.0000     0.0000     0.0000     0.0000 </r>
        <r>     2.3647     0.0739     0.0000     0.0009     0.0009     0.0000     0.0000     0.0000     0.0000     0.0000 </r>
        <r>     2.6111     0.0217     0.0000     0.0000     0.0000     0.0000     0.0000     0.0000     0.0000     0.0000 </r>
        <r>     2.8575     0.0004     0.0001     0.0001     0.0004     0.0000     0.0000     0.0000     0.0000     0.0000 </r>
        <r>     3.1039     0.0377     0.0159     0.0159     0.0473     0.0000     0.0000     0.0000     0.0000     0.0000 </r>
        <r>     3.3503     0.0054     0.0055     0.0055     0.0100     0.0000     0.0000     0.0000     0.0000     0.0000 </r>
        <r>     3.5967     0.0000     0.0000     0.0000     0.0000     0.0000     0.0000     0.0000     0.0000     0.0000 </r>
        <r>     3.8431     0.0102     0.0000     0.0028     0.0028     0.0000     0.0000     0.0000     0.0000     0.0000 </r>
        <r>     4.0895     0.0435     0.0000     0.0119     0.0119     0.0000     0.0000     0.0000     0.0000     0.0000 </r>
        <r>     4.3359     0.0128     0.0063     0.0064     0.0064     0.0000     0.0000     0.0000     0.0000     0.0000 </r>
        <r>     4.5823     0.0171     0.0086     0.0086     0.0810     0.0000     0.0000     0.0000     0.0000     0.0000 </r>
        <r>     4.8287     0.0000     0.0000     0.0000     0.3115     0.0000     0.0000     0.0000     0.0000     0.0000 </r>
        <r>     5.0751     0.0000     0.0000     0.0000     0.1331     0.0000     0.0000     0.0000     0.0000     0.0000 </r>
        <r>     5.3215     0.0978     0.0000     0.0000     0.0995     0.0000     0.0000     0.0000     0.0000     0.0000 </r>
        <r>     5.5679     0.4088     0.0012     0.0008     0.0824     0.0000     0.0000     0.0000     0.0000     0.0000 </r>
        <r>     5.8143     0.2814     0.0628     0.0080     0.0747     0.0000     0.0000     0.0000     0.0000     0.0000 </r>
        <r>     6.0607     0.3117     0.0190     0.0118     0.0182     0.0000     0.0000     0.0000     0.0000     0.0000 </r>
        <r>     6.3071     0.0704     0.0111     0.0111     0.0110     0.0000     0.0000     0.0000     0.0000     0.0000 </r>
        <r>     6.5535     0.0001     0.0124     0.0000     0.0000     0.0000     0.0000     0.0000     0.0000     0.0000 </r>
        <r>     6.7999     0.0097     0.0599     0.0108     0.0054     0.0000     0.0000     0.0000     0.0000     0.0000 </r>
        <r>     7.0463     0.0330     0.0186     0.0344     0.0191     0.0000     0.0000     0.0000     0.0000     0.0000 </r>
        <r>     7.2927     0.0448     0.0254     0.0255     0.0322     0.0000     0.0000     0.0000     0.0000     0.0000 </r>
        <r>     7.5391     0.0430     0.0007     0.0109     0.0110     0.0000     0.0000     0.0000     0.0000     0.0000 </r>
        <r>     7.7855     0.0171     0.0595     0.0153     0.0036     0.0000     0.0000     0.0000     0.0000     0.0000 </r>
        <r>     8.0319     0.0182     0.0431     0.0261     0.0097     0.0000     0.0000     0.0000     0.0000     0.0000 </r>
        <r>     8.2783     0.0102     0.0068     0.0068     0.0068     0.0000     0.0000     0.0000     0.0000     0.0000 </r>
        <r>     8.5248     0.0132     0.0086     0.0118     0.0032     0.0000     0.0000     0.0000     0.0000     0.0000 </r>
        <r>     8.7712     0.0513     0.0195     0.0333     0.0138     0.0000     0.0000     0.0000     0.0000     0.0000 </r>
        <r>     9.0176     0.0003     0.0063     0.0001     0.0001     0.0000     0.0000     0.0000     0.0000     0.0000 </r>
        <r>     9.2640     0.0011     0.0579     0.0022     0.0003     0.0000     0.0000     0.0000     0.0000     0.0000 </r>
        <r>     9.5104     0.0436     0.0270     0.0261     0.0385     0.0000     0.0000     0.0000     0.0000     0.0000 </r>
        <r>     9.7568     0.0067     0.0006     0.0007     0.0070     0.0000     0.0000     0.0000     0.0000     0.0000 </r>
        <r>    10.0032     0.0449     0.0032     0.0216     0.0214     0.0000     0.0000     0.0000     0.0000     0.0000 </r>
        <r>    10.2496     0.0307     0.0386     0.0417     0.0177     0.0000     0.0000     0.0000     0.0000     0.0000 </r>
        <r>    10.4960     0.0019     0.0061     0.0061     0.0001     0.0000     0.0000     0.0000     0.0000     0.0000 </r>
        <r>    10.7424     0.0000     0.0385     0.0000     0.0000     0.0000     0.0000     0.0000     0.0000     0.0000 </r>
        <r>    10.9888     0.0023     0.0321     0.0100     0.0000     0.0000     0.0000     0.0000     0.0000     0.0000 </r>
        <r>    11.2352     0.0050     0.0218     0.0218     0.0000     0.0000     0.0000     0.0000     0.0000     0.0000 </r>
        <r>    11.4816     0.0201     0.0000     0.0133     0.0133     0.0000     0.0000     0.0000     0.0000     0.0000 </r>
        <r>    11.7280     0.0208     0.0018     0.0151     0.0140     0.0000     0.0000     0.0000     0.0000     0.0000 </r>
        <r>    11.9744     0.0364     0.0318     0.0318     0.0487     0.0000     0.0000     0.0000     0.0000     0.0000 </r>
        <r>    12.2208     0.0091     0.0074     0.0074     0.0124     0.0000     0.0000     0.0000     0.0000     0.0000 </r>
        <r>    12.4672     0.0102     0.0203     0.0148     0.0128     0.0000     0.0000     0.0000     0.0000     0.0000 </r>
        <r>    12.7136     0.0018     0.0900     0.0372     0.0000     0.0000     0.0000     0.0000     0.0000     0.0000 </r>
        <r>    12.9600     0.0001     0.1187     0.1177     0.0000     0.0000     0.0000     0.0000     0.0000     0.0000 </r>
        <r>    13.2064     0.0119     0.3467     0.3591     0.0124     0.0000     0.0000     0.0000     0.0000     0.0000 </r>
        <r>    13.4528     0.0186     0.1708     0.1901     0.0193     0.0000     0.0000     0.0000     0.0000     0.0000 </r>
        <r>    13.6992     0.0000     0.0832     0.0832     0.0000     0.0000     0.0000     0.0000     0.0000     0.0000 </r>
        <r>    13.9456     0.0000     0.1216     0.1302     0.0087     0.0000     0.0000     0.0000     0.0000     0.0000 </r>
        <r>    14.1920     0.0001     0.0647     0.1028     0.0382     0.0000     0.0000     0.0000     0.0000     0.0000 </r>
        <r>    14.4384     0.0255     0.0026     0.0025     0.0499     0.0000     0.0000     0.0000     0.0000     0.0000 </r>
        <r>    14.6848     0.0209     0.1435     0.0967     0.0412     0.0000     0.0000     0.0000     0.0000     0.0000 </r>
        <r>    14.9312     0.0011     0.0308     0.0635     0.0432     0.0000     0.0000     0.0000     0.0000     0.0000 </r>
        <r>    15.1777     0.0224     0.0051     0.0350     0.0299     0.0000     0.0000     0.0000     0.0000     0.0000 </r>
        <r>    15.4241     0.0200     0.0057     0.0143     0.0085     0.0000     0.0000     0.0000     0.0000     0.0000 </r>
        <r>    15.6705     0.0254     0.0832     0.0839     0.0007     0.0000     0.0000     0.0000     0.0000     0.0000 </r>
        <r>    15.9169     0.0316     0.0051     0.0465     0.0414     0.0000     0.0000     0.0000     0.0000     0.0000 </r>
        <r>    16.1633     0.0305     0.0000     0.0042     0.0042     0.0000     0.0000     0.0000     0.0000     0.0000 </r>
        <r>    16.4097     0.0307     0.0002     0.0002     0.0000     0.0000     0.0000     0.0000     0.0000     0.0000 </r>
        <r>    16.6561     0.1957     0.0327     0.0330     0.0151     0.0000     0.0000     0.0000     0.0000     0.0000 </r>
        <r>    16.9025     0.1236     0.1194     0.0739     0.0926     0.0000     0.0000     0.0000     0.0000     0.0000 </r>
        <r>    17.1489     0.0771     0.0283     0.0794     0.0796     0.0000     0.0000     0.0000     0.0000     0.0000 </r>
        <r>    17.3953     0.0300     0.0038     0.0239     0.0202     0.0000     0.0000     0.0000     0.0000     0.0000 </r>
        <r>    17.6417     0.0549     0.0000     0.0021     0.0076     0.0000     0.0000     0.0000     0.0000     0.0000 </r>
        <r>    17.8881     0.0305     0.0138     0.0139     0.0015     0.0000     0.0000     0.0000     0.0000     0.0000 </r>
        <r>    18.1345     0.0115     0.1476     0.1477     0.0639     0.0000     0.0000     0.0000     0.0000     0.0000 </r>
        <r>    18.3809     0.0074     0.2786     0.3100     0.3210     0.0000     0.0000     0.0000     0.0000     0.0000 </r>
        <r>    18.6273     0.0672     0.0586     0.0807     0.1803     0.0000     0.0000     0.0000     0.0000     0.0000 </r>
        <r>    18.8737     0.0314     0.0638     0.0657     0.0515     0.0000     0.0000     0.0000     0.0000     0.0000 </r>
        <r>    19.1201     0.0024     0.0953     0.0667     0.0663     0.0000     0.0000     0.0000     0.0000     0.0000 </r>
        <r>    19.3665     0.0042     0.0807     0.0778     0.0717     0.0000     0.0000     0.0000     0.0000     0.0000 </r>
        <r>    19.6129     0.0078     0.1151     0.1274     0.0817     0.0000     0.0000     0.0000     0.0000     0.0000 </r>
        <r>    19.8593     0.0400     0.0545     0.1029     0.1651     0.0000     0.0000     0.0000     0.0000     0.0000 </r>
        <r>    20.1057     0.0187     0.0017     0.0078     0.0083     0.0000     0.0000     0.0000     0.0000     0.0000 </r>
        <r>    20.3521     0.0012     0.0648     0.0651     0.0906     0.0000     0.0000     0.0000     0.0000     0.0000 </r>
        <r>    20.5985     0.0048     0.0414     0.0981     0.2034     0.0000     0.0000     0.0000     0.0000     0.0000 </r>
        <r>    20.8449     0.0128     0.3899     0.5290     0.5106     0.0000     0.0000     0.0000     0.0000     0.0000 </r>
        <r>    21.0913     0.0006     0.0097     0.0249     0.0240     0.0000     0.0000     0.0000     0.0000     0.0000 </r>
        <r>    21.3377     0.0006     0.0034     0.0038     0.0038     0.0000     0.0000     0.0000     0.0000     0.0000 </r>
        <r>    21.5841     0.0120     0.0034     0.0118     0.0118     0.0000     0.0000     0.0000     0.0000     0.0000 </r>
        <r>    21.8306     0.0082     0.0161     0.0164     0.0004     0.0000     0.0000     0.0000     0.0000     0.0000 </r>
        <r>    22.0770     0.0053     0.0154     0.0154     0.0102     0.0000     0.0000     0.0000     0.0000     0.0000 </r>
        <r>    22.3234     0.0002     0.0081     0.0081     0.0081     0.0000     0.0000     0.0000     0.0000     0.0000 </r>
        <r>    22.5698     0.0011     0.0327     0.0218     0.0218     0.0000     0.0000     0.0000     0.0000     0.0000 </r>
        <r>    22.8162     0.0902     0.0828     0.0348     0.0287     0.0000     0.0000     0.0000     0.0000     0.0000 </r>
        <r>    23.0626     0.1864     0.0577     0.0637     0.0458     0.0000     0.0000     0.0000     0.0000     0.0000 </r>
        <r>    23.3090     0.0177     0.0910     0.0891     0.0470     0.0000     0.0000     0.0000     0.0000     0.0000 </r>
        <r>    23.5554     0.0000     0.0589     0.0150     0.0128     0.0000     0.0000     0.0000     0.0000     0.0000 </r>
        <r>    23.8018     0.0003     0.0207     0.0211     0.0205     0.0000     0.0000     0.0000     0.0000     0.0000 </r>
        <r>    24.0482     0.0098     0.0982     0.0686     0.0477     0.0000     0.0000     0.0000     0.0000     0.0000 </r>
        <r>    24.2946     0.0007     0.0217     0.0088     0.0074     0.0000     0.0000     0.0000     0.0000     0.0000 </r>
        <r>    24.5410     0.0144     0.0000     0.0282     0.0282     0.0000     0.0000     0.0000     0.0000     0.0000 </r>
        <r>    24.7874     0.0066     0.0162     0.0181     0.0214     0.0000     0.0000     0.0000     0.0000     0.0000 </r>
        <r>    25.0338     0.0001     0.0599     0.0214     0.0135     0.0000     0.0000     0.0000     0.0000     0.0000 </r>
        <r>    25.2802     0.0000     0.0432     0.0430     0.0000     0.0000     0.0000     0.0000     0.0000     0.0000 </r>
        <r>    25.5266     0.0000     0.0012     0.0012     0.0009     0.0000     0.0000     0.0000     0.0000     0.0000 </r>
        <r>    25.7730     0.0010     0.0088     0.0080     0.0080     0.0000     0.0000     0.0000     0.0000     0.0000 </r>
        <r>    26.0194     0.0003     0.0567     0.0180     0.0180     0.0000     0.0000     0.0000     0.0000     0.0000 </r>
        <r>    26.2658     0.0020     0.0027     0.0019     0.0019     0.0000     0.0000     0.0000     0.0000     0.0000 </r>
        <r>    26.5122     0.0012     0.0011     0.0011     0.0011     0.0000     0.0000     0.0000     0.0000     0.0000 </r>
        <r>    26.7586     0.0000     0.0006     0.0006     0.0006     0.0000     0.0000     0.0000     0.0000     0.0000 </r>
        <r>    27.0050     0.0098     0.0133     0.0096     0.0040     0.0000     0.0000     0.0000     0.0000     0.0000 </r>
        <r>    27.2514     0.0067     0.1032     0.0937     0.0486     0.0000     0.0000     0.0000     0.0000     0.0000 </r>
        <r>    27.4978     0.0017     0.0058     0.0088     0.0104     0.0000     0.0000     0.0000     0.0000     0.0000 </r>
        <r>    27.7442     0.0002     0.0002     0.0007     0.0007     0.0000     0.0000     0.0000     0.0000     0.0000 </r>
        <r>    27.9906     0.0191     0.0050     0.0052     0.0052     0.0000     0.0000     0.0000     0.0000     0.0000 </r>
        <r>    28.2370     0.0038     0.0029     0.0021     0.0021     0.0000     0.0000     0.0000     0.0000     0.0000 </r>
        <r>    28.4835     0.0002     0.0096     0.0017     0.0017     0.0000     0.0000     0.0000     0.0000     0.0000 </r>
        <r>    28.7299     0.0000     0.0524     0.0258     0.0258     0.0000     0.0000     0.0000     0.0000     0.0000 </r>
        <r>    28.9763     0.0009     0.0084     0.0106     0.0068     0.0000     0.0000     0.0000     0.0000     0.0000 </r>
        <r>    29.2227     0.0199     0.0474     0.0504     0.0069     0.0000     0.0000     0.0000     0.0000     0.0000 </r>
        <r>    29.4691     0.0020     0.0015     0.0030     0.0021     0.0000     0.0000     0.0000     0.0000     0.0000 </r>
        <r>    29.7155     0.0034     0.0007     0.0196     0.0196     0.0000     0.0000     0.0000     0.0000     0.0000 </r>
        <r>    29.9619     0.0042     0.0027     0.0058     0.0058     0.0000     0.0000     0.0000     0.0000     0.0000 </r>
        <r>    30.2083     0.0118     0.0451     0.0214     0.0209     0.0000     0.0000     0.0000     0.0000     0.0000 </r>
        <r>    30.4547     0.0000     0.0334     0.0325     0.0183     0.0000     0.0000     0.0000     0.0000     0.0000 </r>
        <r>    30.7011     0.0000     0.0040     0.0017     0.0008     0.0000     0.0000     0.0000     0.0000     0.0000 </r>
        <r>    30.9475     0.0019     0.0239     0.0239     0.0010     0.0000     0.0000     0.0000     0.0000     0.0000 </r>
        <r>    31.1939     0.0124     0.0412     0.0412     0.0066     0.0000     0.0000     0.0000     0.0000     0.0000 </r>
        <r>    31.4403     0.0026     0.0008     0.0008     0.0003     0.0000     0.0000     0.0000     0.0000     0.0000 </r>
        <r>    31.6867     0.1528     0.0149     0.0199     0.0088     0.0000     0.0000     0.0000     0.0000     0.0000 </r>
        <r>    31.9331     0.1472     0.0260     0.0112     0.0382     0.0000     0.0000     0.0000     0.0000     0.0000 </r>
        <r>    32.1795     0.0086     0.0230     0.0139     0.0228     0.0000     0.0000     0.0000     0.0000     0.0000 </r>
        <r>    32.4259     0.0000     0.0040     0.0040     0.0006     0.0000     0.0000     0.0000     0.0000     0.0000 </r>
        <r>    32.6723     0.0085     0.0105     0.0109     0.0347     0.0000     0.0000     0.0000     0.0000     0.0000 </r>
        <r>    32.9187     0.0188     0.0324     0.0384     0.0207     0.0000     0.0000     0.0000     0.0000     0.0000 </r>
        <r>    33.1651     0.0001     0.0117     0.0006     0.0106     0.0000     0.0000     0.0000     0.0000     0.0000 </r>
        <r>    33.4115     0.0000     0.0086     0.0080     0.0202     0.0000     0.0000     0.0000     0.0000     0.0000 </r>
        <r>    33.6579     0.0138     0.0021     0.0021     0.0026     0.0000     0.0000     0.0000     0.0000     0.0000 </r>
        <r>    33.9043     0.0051     0.0038     0.0058     0.0246     0.0000     0.0000     0.0000     0.0000     0.0000 </r>
        <r>    34.1507     0.0081     0.0011     0.0014     0.0134     0.0000     0.0000     0.0000     0.0000     0.0000 </r>
        <r>    34.3971     0.0054     0.0157     0.0157     0.0216     0.0000     0.0000     0.0000     0.0000     0.0000 </r>
        <r>    34.6435     0.0000     0.0099     0.0099     0.0063     0.0000     0.0000     0.0000     0.0000     0.0000 </r>
        <r>    34.8899     0.0019     0.0282     0.0280     0.0332     0.0000     0.0000     0.0000     0.0000     0.0000 </r>
        <r>    35.1364     0.0256     0.0659     0.0404     0.0357     0.0000     0.0000     0.0000     0.0000     0.0000 </r>
        <r>    35.3828     0.0224     0.0085     0.0052     0.0044     0.0000     0.0000     0.0000     0.0000     0.0000 </r>
        <r>    35.6292     0.0484     0.0267     0.0269     0.0228     0.0000     0.0000     0.0000     0.0000     0.0000 </r>
        <r>    35.8756     0.0328     0.0229     0.0111     0.0137     0.0000     0.0000     0.0000     0.0000     0.0000 </r>
        <r>    36.1220     0.0301     0.0003     0.0048     0.0200     0.0000     0.0000     0.0000     0.0000     0.0000 </r>
        <r>    36.3684     0.0082     0.0006     0.0064     0.0076     0.0000     0.0000     0.0000     0.0000     0.0000 </r>
        <r>    36.6148     0.0411     0.0156     0.0105     0.0005     0.0000     0.0000     0.0000     0.0000     0.0000 </r>
        <r>    36.8612     0.0103     0.0083     0.0005     0.0001     0.0000     0.0000     0.0000     0.0000     0.0000 </r>
        <r>    37.1076     0.0194     0.0069     0.0051     0.0051     0.0000     0.0000     0.0000     0.0000     0.0000 </r>
        <r>    37.3540     0.0507     0.0194     0.0143     0.0143     0.0000     0.0000     0.0000     0.0000     0.0000 </r>
        <r>    37.6004     0.0067     0.0008     0.0008     0.0008     0.0000     0.0000     0.0000     0.0000     0.0000 </r>
        <r>    37.8468     0.0624     0.0129     0.0207     0.0148     0.0000     0.0000     0.0000     0.0000     0.0000 </r>
        <r>    38.0932     0.0050     0.0050     0.0054     0.0033     0.0000     0.0000     0.0000     0.0000     0.0000 </r>
        <r>    38.3396     0.0394     0.0105     0.0072     0.0060     0.0000     0.0000     0.0000     0.0000     0.0000 </r>
        <r>    38.5860     0.0277     0.0102     0.0127     0.0026     0.0000     0.0000     0.0000     0.0000     0.0000 </r>
        <r>    38.8324     0.0043     0.0027     0.0041     0.0042     0.0000     0.0000     0.0000     0.0000     0.0000 </r>
        <r>    39.0788     0.0677     0.0199     0.0236     0.0254     0.0000     0.0000     0.0000     0.0000     0.0000 </r>
        <r>    39.3252     0.0212     0.0143     0.0143     0.0082     0.0000     0.0000     0.0000     0.0000     0.0000 </r>
        <r>    39.5716     0.0269     0.0063     0.0063     0.0046     0.0000     0.0000     0.0000     0.0000     0.0000 </r>
        <r>    39.8180     0.0089     0.0199     0.0179     0.0005     0.0000     0.0000     0.0000     0.0000     0.0000 </r>
        <r>    40.0644     0.0083     0.0090     0.0020     0.0043     0.0000     0.0000     0.0000     0.0000     0.0000 </r>
        <r>    40.3108     0.0511     0.0213     0.0213     0.0439     0.0000     0.0000     0.0000     0.0000     0.0000 </r>
        <r>    40.5572     0.0313     0.0180     0.0288     0.0135     0.0000     0.0000     0.0000     0.0000     0.0000 </r>
        <r>    40.8036     0.0291     0.0152     0.0237     0.0235     0.0000     0.0000     0.0000     0.0000     0.0000 </r>
        <r>    41.0500     0.0314     0.0346     0.0371     0.0223     0.0000     0.0000     0.0000     0.0000     0.0000 </r>
        <r>    41.2964     0.0110     0.0141     0.0147     0.0150     0.0000     0.0000     0.0000     0.0000     0.0000 </r>
        <r>    41.5428     0.0403     0.0082     0.0082     0.0558     0.0000     0.0000     0.0000     0.0000     0.0000 </r>
        <r>    41.7893     0.0045     0.0300     0.0278     0.0051     0.0000     0.0000     0.0000     0.0000     0.0000 </r>
        <r>    42.0357     0.1364     0.0205     0.0211     0.0150     0.0000     0.0000     0.0000     0.0000     0.0000 </r>
        <r>    42.2821     0.0883     0.0310     0.0350     0.0116     0.0000     0.0000     0.0000     0.0000     0.0000 </r>
        <r>    42.5285     0.0295     0.0448     0.0449     0.0020     0.0000     0.0000     0.0000     0.0000     0.0000 </r>
        <r>    42.7749     0.1032     0.1425     0.1438     0.0806     0.0000     0.0000     0.0000     0.0000     0.0000 </r>
        <r>    43.0213     0.0493     0.0314     0.0397     0.0497     0.0000     0.0000     0.0000     0.0000     0.0000 </r>
        <r>    43.2677     0.0086     0.0609     0.0861     0.0339     0.0000     0.0000     0.0000     0.0000     0.0000 </r>
        <r>    43.5141     0.0007     0.0341     0.0332     0.1734     0.0000     0.0000     0.0000     0.0000     0.0000 </r>
        <r>    43.7605     0.0457     0.0335     0.0381     0.0789     0.0000     0.0000     0.0000     0.0000     0.0000 </r>
        <r>    44.0069     0.0459     0.0069     0.0074     0.0804     0.0000     0.0000     0.0000     0.0000     0.0000 </r>
        <r>    44.2533     0.0091     0.0264     0.0264     0.0711     0.0000     0.0000     0.0000     0.0000     0.0000 </r>
        <r>    44.4997     0.0054     0.0065     0.0065     0.0387     0.0000     0.0000     0.0000     0.0000     0.0000 </r>
        <r>    44.7461     0.0042     0.0029     0.0034     0.0404     0.0000     0.0000     0.0000     0.0000     0.0000 </r>
        <r>    44.9925     0.0413     0.0278     0.0340     0.0278     0.0000     0.0000     0.0000     0.0000     0.0000 </r>
        <r>    45.2389     0.0322     0.0145     0.0146     0.0475     0.0000     0.0000     0.0000     0.0000     0.0000 </r>
        <r>    45.4853     0.0068     0.0075     0.0075     0.0033     0.0000     0.0000     0.0000     0.0000     0.0000 </r>
        <r>    45.7317     0.0087     0.0342     0.0355     0.0022     0.0000     0.0000     0.0000     0.0000     0.0000 </r>
        <r>    45.9781     0.0311     0.0214     0.0396     0.0229     0.0000     0.0000     0.0000     0.0000     0.0000 </r>
        <r>    46.2245     0.0055     0.0001     0.0094     0.0093     0.0000     0.0000     0.0000     0.0000     0.0000 </r>
        <r>    46.4709     0.0000     0.0097     0.0097     0.0000     0.0000     0.0000     0.0000     0.0000     0.0000 </r>
        <r>    46.7173     0.0000     0.0119     0.0119     0.0000     0.0000     0.0000     0.0000     0.0000     0.0000 </r>
        <r>    46.9637     0.0000     0.0000     0.0000     0.0000     0.0000     0.0000     0.0000     0.0000     0.0000 </r>
        <r>    47.2101     0.0000     0.0014     0.0013     0.0000     0.0000     0.0000     0.0000     0.0000     0.0000 </r>
        <r>    47.4565     0.0020     0.0346     0.0280     0.0019     0.0000     0.0000     0.0000     0.0000     0.0000 </r>
        <r>    47.7029     0.0104     0.0036     0.0093     0.0077     0.0000     0.0000     0.0000     0.0000     0.0000 </r>
        <r>    47.9493     0.0103     0.0007     0.0062     0.0061     0.0000     0.0000     0.0000     0.0000     0.0000 </r>
        <r>    48.1957     0.0122     0.0252     0.0411     0.0231     0.0000     0.0000     0.0000     0.0000     0.0000 </r>
        <r>    48.4422     0.0086     0.0285     0.0328     0.0210     0.0000     0.0000     0.0000     0.0000     0.0000 </r>
        <r>    48.6886     0.0401     0.0017     0.0227     0.0319     0.0000     0.0000     0.0000     0.0000     0.0000 </r>
        <r>    48.9350     0.0057     0.0106     0.0108     0.0109     0.0000     0.0000     0.0000     0.0000     0.0000 </r>
        <r>    49.1814     0.0188     0.0041     0.0042     0.0168     0.0000     0.0000     0.0000     0.0000     0.0000 </r>
        <r>    49.4278     0.0030     0.0019     0.0049     0.1284     0.0000     0.0000     0.0000     0.0000     0.0000 </r>
        <r>    49.6742     0.0000     0.0005     0.0015     0.0770     0.0000     0.0000     0.0000     0.0000     0.0000 </r>
        <r>    49.9206     0.0000     0.0006     0.0000     0.0525     0.0000     0.0000     0.0000     0.0000     0.0000 </r>
        <r>    50.1670     0.0000     0.0703     0.0078     0.0877     0.0000     0.0000     0.0000     0.0000     0.0000 </r>
        <r>    50.4134     0.0001     0.0205     0.0256     0.0289     0.0000     0.0000     0.0000     0.0000     0.0000 </r>
        <r>    50.6598     0.0001     0.0219     0.0353     0.0397     0.0000     0.0000     0.0000     0.0000     0.0000 </r>
        <r>    50.9062     0.0006     0.0284     0.0078     0.0072     0.0000     0.0000     0.0000     0.0000     0.0000 </r>
        <r>    51.1526     0.0059     0.0109     0.0186     0.0110     0.0000     0.0000     0.0000     0.0000     0.0000 </r>
        <r>    51.3990     0.0012     0.0562     0.0022     0.0177     0.0000     0.0000     0.0000     0.0000     0.0000 </r>
        <r>    51.6454     0.0005     0.0054     0.0014     0.0032     0.0000     0.0000     0.0000     0.0000     0.0000 </r>
        <r>    51.8918     0.0199     0.0021     0.0085     0.0082     0.0000     0.0000     0.0000     0.0000     0.0000 </r>
        <r>    52.1382     0.0057     0.0014     0.0113     0.0177     0.0000     0.0000     0.0000     0.0000     0.0000 </r>
        <r>    52.3846     0.0001     0.0004     0.0004     0.0042     0.0000     0.0000     0.0000     0.0000     0.0000 </r>
        <r>    52.6310     0.0040     0.0000     0.0000     0.0087     0.0000     0.0000     0.0000     0.0000     0.0000 </r>
        <r>    52.8774     0.0009     0.0001     0.0012     0.0039     0.0000     0.0000     0.0000     0.0000     0.0000 </r>
        <r>    53.1238     0.0000     0.0012     0.0176     0.0046     0.0000     0.0000     0.0000     0.0000     0.0000 </r>
        <r>    53.3702     0.0018     0.0007     0.0048     0.0007     0.0000     0.0000     0.0000     0.0000     0.0000 </r>
        <r>    53.6166     0.0141     0.0006     0.0007     0.0011     0.0000     0.0000     0.0000     0.0000     0.0000 </r>
        <r>    53.8630     0.0002     0.0000     0.0000     0.0000     0.0000     0.0000     0.0000     0.0000     0.0000 </r>
        <r>    54.1094     0.0000     0.0000     0.0000     0.0000     0.0000     0.0000     0.0000     0.0000     0.0000 </r>
        <r>    54.3558     0.0000     0.0000     0.0000     0.0000     0.0000     0.0000     0.0000     0.0000     0.0000 </r>
        <r>    54.6022     0.0000     0.0000     0.0000     0.0000     0.0000     0.0000     0.0000     0.0000     0.0000 </r>
        <r>    54.8486     0.0000     0.0000     0.0000     0.0000     0.0000     0.0000     0.0000     0.0000     0.0000 </r>
        <r>    55.0951     0.0000     0.0000     0.0000     0.0000     0.0000     0.0000     0.0000     0.0000     0.0000 </r>
        <r>    55.3415     0.0000     0.0000     0.0000     0.0000     0.0000     0.0000     0.0000     0.0000     0.0000 </r>
        <r>    55.5879     0.0000     0.0000     0.0000     0.0000     0.0000     0.0000     0.0000     0.0000     0.0000 </r>
        <r>    55.8343     0.0000     0.0016     0.0013     0.0000     0.0000     0.0000     0.0000     0.0000     0.0000 </r>
        <r>    56.0807     0.0000     0.0101     0.0060     0.0010     0.0000     0.0000     0.0000     0.0000     0.0000 </r>
        <r>    56.3271     0.0000     0.0013     0.0003     0.0004     0.0000     0.0000     0.0000     0.0000     0.0000 </r>
        <r>    56.5735     0.0003     0.0000     0.0014     0.0014     0.0000     0.0000     0.0000     0.0000     0.0000 </r>
        <r>    56.8199     0.0007     0.0000     0.0028     0.0028     0.0000     0.0000     0.0000     0.0000     0.0000 </r>
        <r>    57.0663     0.0000     0.0000     0.0000     0.0000     0.0000     0.0000     0.0000     0.0000     0.0000 </r>
        <r>    57.3127     0.0000     0.0000     0.0000     0.0000     0.0000     0.0000     0.0000     0.0000     0.0000 </r>
        <r>    57.5591     0.0000     0.0000     0.0000     0.0000     0.0000     0.0000     0.0000     0.0000     0.0000 </r>
        <r>    57.8055     0.0000     0.0000     0.0000     0.0000     0.0000     0.0000     0.0000     0.0000     0.0000 </r>
        <r>    58.0519     0.0000     0.0000     0.0000     0.0000     0.0000     0.0000     0.0000     0.0000     0.0000 </r>
        <r>    58.2983     0.0000     0.0000     0.0000     0.0000     0.0000     0.0000     0.0000     0.0000     0.0000 </r>
        <r>    58.5447     0.0000     0.0000     0.0000     0.0000     0.0000     0.0000     0.0000     0.0000     0.0000 </r>
        <r>    58.7911     0.0000     0.0003     0.0012     0.0000     0.0000     0.0000     0.0000     0.0000     0.0000 </r>
        <r>    59.0375     0.0000     0.0017     0.0063     0.0000     0.0000     0.0000     0.0000     0.0000     0.0000 </r>
        <r>    59.2839     0.0000     0.0021     0.0001     0.0017     0.0000     0.0000     0.0000     0.0000     0.0000 </r>
        <r>    59.5303     0.0000     0.0002     0.0000     0.0002     0.0000     0.0000     0.0000     0.0000     0.0000 </r>
        <r>    59.7767     0.0000     0.0000     0.0000     0.0000     0.0000     0.0000     0.0000     0.0000     0.0000 </r>
        <r>    60.0231     0.0000     0.0000     0.0000     0.0000     0.0000     0.0000     0.0000     0.0000     0.0000 </r>
        <r>    60.2695     0.0000     0.0000     0.0000     0.0000     0.0000     0.0000     0.0000     0.0000     0.0000 </r>
        <r>    60.5159     0.0000     0.0000     0.0000     0.0000     0.0000     0.0000     0.0000     0.0000     0.0000 </r>
        <r>    60.7623     0.0000     0.0000     0.0000     0.0000     0.0000     0.0000     0.0000     0.0000     0.0000 </r>
        <r>    61.0087     0.0001     0.0000     0.0013     0.0013     0.0000     0.0000     0.0000     0.0000     0.0000 </r>
        <r>    61.2551     0.0001     0.0000     0.0009     0.0009     0.0000     0.0000     0.0000     0.0000     0.0000 </r>
        <r>    61.5015     0.0000     0.0001     0.0001     0.0000     0.0000     0.0000     0.0000     0.0000     0.0000 </r>
        <r>    61.7480     0.0000     0.0019     0.0020     0.0000     0.0000     0.0000     0.0000     0.0000     0.0000 </r>
        <r>    61.9944     0.0000     0.0005     0.0008     0.0002     0.0000     0.0000     0.0000     0.0000     0.0000 </r>
        <r>    62.2408     0.0000     0.0001     0.0001     0.0000     0.0000     0.0000     0.0000     0.0000     0.0000 </r>
        <r>    62.4872     0.0000     0.0000     0.0000     0.0000     0.0000     0.0000     0.0000     0.0000     0.0000 </r>
        <r>    62.7336     0.0000     0.0000     0.0000     0.0000     0.0000     0.0000     0.0000     0.0000     0.0000 </r>
        <r>    62.9800     0.0000     0.0000     0.0000     0.0000     0.0000     0.0000     0.0000     0.0000     0.0000 </r>
        <r>    63.2264     0.0000     0.0000     0.0000     0.0000     0.0000     0.0000     0.0000     0.0000     0.0000 </r>
        <r>    63.4728     0.0000     0.0000     0.0000     0.0000     0.0000     0.0000     0.0000     0.0000     0.0000 </r>
        <r>    63.7192     0.0000     0.0000     0.0000     0.0000     0.0000     0.0000     0.0000     0.0000     0.0000 </r>
        <r>    63.9656     0.0000     0.0000     0.0000     0.0000     0.0000     0.0000     0.0000     0.0000     0.0000 </r>
        <r>    64.2120     0.0000     0.0000     0.0000     0.0000     0.0000     0.0000     0.0000     0.0000     0.0000 </r>
        <r>    64.4584     0.0000     0.0000     0.0000     0.0000     0.0000     0.0000     0.0000     0.0000     0.0000 </r>
        <r>    64.7048     0.0000     0.0000     0.0000     0.0000     0.0000     0.0000     0.0000     0.0000     0.0000 </r>
        <r>    64.9512     0.0000     0.0000     0.0000     0.0000     0.0000     0.0000     0.0000     0.0000     0.0000 </r>
        <r>    65.1976     0.0000     0.0000     0.0000     0.0000     0.0000     0.0000     0.0000     0.0000     0.0000 </r>
        <r>    65.4440     0.0000     0.0000     0.0000     0.0000     0.0000     0.0000     0.0000     0.0000     0.0000 </r>
        <r>    65.6904     0.0000     0.0000     0.0000     0.0000     0.0000     0.0000     0.0000     0.0000     0.0000 </r>
        <r>    65.9368     0.0000     0.0000     0.0000     0.0000     0.0000     0.0000     0.0000     0.0000     0.0000 </r>
        <r>    66.1832     0.0000     0.0000     0.0000     0.0000     0.0000     0.0000     0.0000     0.0000     0.0000 </r>
       </set>
      </set>
     </set>
    </array>
   </partial>
  </dos>
  <projected>
   <eigenvalues>
    <array>
     <dimension dim="1">band</dimension>
     <dimension dim="2">kpoint</dimension>
     <dimension dim="3">spin</dimension>
     <field>eigene</field>
     <field>occ</field>
     <set>
      <set comment="spin 1">
       <set comment="kpoint 1">
        <r>    2.3137    1.0000 </r>
        <r>    3.0573    1.0000 </r>
        <r>   18.1905    0.0000 </r>
        <r>   18.1905    0.0000 </r>
        <r>   20.7341    0.0000 </r>
        <r>   20.7341    0.0000 </r>
        <r>   22.9806    0.0000 </r>
        <r>   25.5245    0.0000 </r>
        <r>   34.0909    0.0000 </r>
        <r>   34.0909    0.0000 </r>
        <r>   40.7834    0.0000 </r>
        <r>   41.0367    0.0000 </r>
        <r>   41.0367    0.0000 </r>
        <r>   48.6191    0.0000 </r>
        <r>   53.4566    0.0000 </r>
        <r>   55.1111    0.0000 </r>
       </set>
       <set comment="kpoint 2">
        <r>    1.1799    1.0000 </r>
        <r>    4.3496    1.0000 </r>
        <r>   18.1807    0.0000 </r>
        <r>   18.1807    0.0000 </r>
        <r>   20.8928    0.0000 </r>
        <r>   20.8928    0.0000 </r>
        <r>   22.9319    0.0000 </r>
        <r>   25.7177    0.0000 </r>
        <r>   33.3533    0.0000 </r>
        <r>   33.3533    0.0000 </r>
        <r>   40.2255    0.0000 </r>
        <r>   41.8580    0.0000 </r>
        <r>   41.8580    0.0000 </r>
        <r>   49.1039    0.0000 </r>
        <r>   51.8216    0.0000 </r>
        <r>   53.3871    0.0000 </r>
       </set>
       <set comment="kpoint 3">
        <r>   -0.0960    1.0000 </r>
        <r>    6.1019    1.0000 </r>
        <r>   18.1796    0.0000 </r>
        <r>   18.1796    0.0000 </r>
        <r>   21.3377    0.0000 </r>
        <r>   21.3377    0.0000 </r>
        <r>   22.8436    0.0000 </r>
        <r>   26.2437    0.0000 </r>
        <r>   31.8686    0.0000 </r>
        <r>   31.8686    0.0000 </r>
        <r>   38.9004    0.0000 </r>
        <r>   43.6853    0.0000 </r>
        <r>   43.6853    0.0000 </r>
        <r>   48.3005    0.0000 </r>
        <r>   50.6877    0.0000 </r>
        <r>   50.6877    0.0000 </r>
       </set>
       <set comment="kpoint 4">
        <r>   -1.2207    1.0000 </r>
        <r>    8.0157    1.0000 </r>
        <r>   18.2393    0.0000 </r>
        <r>   18.2393    0.0000 </r>
        <r>   22.0028    0.0000 </r>
        <r>   22.0028    0.0000 </r>
        <r>   22.7715    0.0000 </r>
        <r>   27.0089    0.0000 </r>
        <r>   30.1919    0.0000 </r>
        <r>   30.1919    0.0000 </r>
        <r>   37.2517    0.0000 </r>
        <r>   45.1929    0.0000 </r>
        <r>   45.2116    0.0000 </r>
        <r>   45.2116    0.0000 </r>
        <r>   48.7758    0.0000 </r>
        <r>   48.7758    0.0000 </r>
       </set>
       <set comment="kpoint 5">
        <r>   -2.1798    1.0000 </r>
        <r>   10.0700    1.0000 </r>
        <r>   18.3940    0.0000 </r>
        <r>   18.3940    0.0000 </r>
        <r>   22.7558    0.0000 </r>
        <r>   22.8087    0.0000 </r>
        <r>   22.8087    0.0000 </r>
        <r>   27.9400    0.0000 </r>
        <r>   28.5725    0.0000 </r>
        <r>   28.5725    0.0000 </r>
        <r>   35.4709    0.0000 </r>
        <r>   42.1052    0.0000 </r>
        <r>   43.8556    0.0000 </r>
        <r>   43.8556    0.0000 </r>
        <r>   50.1201    0.0000 </r>
        <r>   50.1201    0.0000 </r>
       </set>
       <set comment="kpoint 6">
        <r>   -2.9680    1.0000 </r>
        <r>   12.2520    1.0000 </r>
        <r>   18.6739    0.0000 </r>
        <r>   18.6739    0.0000 </r>
        <r>   22.8274    0.0000 </r>
        <r>   23.6005    0.0000 </r>
        <r>   23.6005    0.0000 </r>
        <r>   27.2583    0.0000 </r>
        <r>   27.2583    0.0000 </r>
        <r>   28.9750    0.0000 </r>
        <r>   33.6122    0.0000 </r>
        <r>   39.3571    0.0000 </r>
        <r>   41.4829    0.0000 </r>
        <r>   41.4829    0.0000 </r>
        <r>   48.0499    0.0000 </r>
        <r>   52.9166    0.0000 </r>
       </set>
       <set comment="kpoint 7">
        <r>   -3.5833    1.0000 </r>
        <r>   14.5374    0.0000 </r>
        <r>   19.0839    0.0000 </r>
        <r>   19.0839    0.0000 </r>
        <r>   22.9205    0.0000 </r>
        <r>   23.8877    0.0000 </r>
        <r>   23.8877    0.0000 </r>
        <r>   26.7272    0.0000 </r>
        <r>   26.7272    0.0000 </r>
        <r>   30.0038    0.0000 </r>
        <r>   31.6509    0.0000 </r>
        <r>   37.1309    0.0000 </r>
        <r>   39.1694    0.0000 </r>
        <r>   39.1694    0.0000 </r>
        <r>   45.8003    0.0000 </r>
        <r>   56.0374    0.0000 </r>
       </set>
       <set comment="kpoint 8">
        <r>   -4.0242    1.0000 </r>
        <r>   16.8801    0.0000 </r>
        <r>   19.6212    0.0000 </r>
        <r>   19.6212    0.0000 </r>
        <r>   22.9262    0.0000 </r>
        <r>   23.2564    0.0000 </r>
        <r>   23.2565    0.0000 </r>
        <r>   27.2889    0.0000 </r>
        <r>   27.2889    0.0000 </r>
        <r>   29.4775    0.0000 </r>
        <r>   31.0263    0.0000 </r>
        <r>   35.6511    0.0000 </r>
        <r>   37.1114    0.0000 </r>
        <r>   37.1114    0.0000 </r>
        <r>   43.8895    0.0000 </r>
        <r>   59.1890    0.0000 </r>
       </set>
       <set comment="kpoint 9">
        <r>   -4.2892    1.0000 </r>
        <r>   19.1483    0.0000 </r>
        <r>   20.2526    0.0000 </r>
        <r>   20.2526    0.0000 </r>
        <r>   22.3580    0.0000 </r>
        <r>   22.3580    0.0000 </r>
        <r>   22.5721    0.0000 </r>
        <r>   27.7243    0.0000 </r>
        <r>   28.1696    0.0000 </r>
        <r>   28.1696    0.0000 </r>
        <r>   31.5523    0.0000 </r>
        <r>   34.9970    0.0000 </r>
        <r>   35.5356    0.0000 </r>
        <r>   35.5356    0.0000 </r>
        <r>   42.5208    0.0000 </r>
        <r>   61.9081    0.0000 </r>
       </set>
       <set comment="kpoint 10">
        <r>   -4.3778    1.0000 </r>
        <r>   20.6956    0.0000 </r>
        <r>   20.6958    0.0000 </r>
        <r>   20.6958    0.0000 </r>
        <r>   21.7714    0.0000 </r>
        <r>   21.7715    0.0000 </r>
        <r>   21.7715    0.0000 </r>
        <r>   26.9787    0.0000 </r>
        <r>   28.5759    0.0000 </r>
        <r>   28.5759    0.0000 </r>
        <r>   31.6951    0.0000 </r>
        <r>   34.8834    0.0000 </r>
        <r>   34.8834    0.0000 </r>
        <r>   34.8835    0.0000 </r>
        <r>   42.0008    0.0000 </r>
        <r>   62.8229    0.0000 </r>
       </set>
       <set comment="kpoint 11">
        <r>   -4.3778    1.0000 </r>
        <r>   20.6956    0.0000 </r>
        <r>   20.6958    0.0000 </r>
        <r>   20.6958    0.0000 </r>
        <r>   21.7714    0.0000 </r>
        <r>   21.7715    0.0000 </r>
        <r>   21.7715    0.0000 </r>
        <r>   26.9787    0.0000 </r>
        <r>   28.5759    0.0000 </r>
        <r>   28.5759    0.0000 </r>
        <r>   31.6951    0.0000 </r>
        <r>   34.8834    0.0000 </r>
        <r>   34.8834    0.0000 </r>
        <r>   34.8835    0.0000 </r>
        <r>   42.0008    0.0000 </r>
        <r>   62.8232    0.0000 </r>
       </set>
       <set comment="kpoint 12">
        <r>   -4.2596    1.0000 </r>
        <r>   19.4729    0.0000 </r>
        <r>   19.4731    0.0000 </r>
        <r>   20.4134    0.0000 </r>
        <r>   21.1330    0.0000 </r>
        <r>   23.1911    0.0000 </r>
        <r>   23.1911    0.0000 </r>
        <r>   27.3450    0.0000 </r>
        <r>   27.9082    0.0000 </r>
        <r>   28.7195    0.0000 </r>
        <r>   31.8097    0.0000 </r>
        <r>   35.0569    0.0000 </r>
        <r>   35.0570    0.0000 </r>
        <r>   36.0561    0.0000 </r>
        <r>   42.7422    0.0000 </r>
        <r>   61.6075    0.0000 </r>
       </set>
       <set comment="kpoint 13">
        <r>   -3.9063    1.0000 </r>
        <r>   17.9976    0.0000 </r>
        <r>   17.9977    0.0000 </r>
        <r>   19.6433    0.0000 </r>
        <r>   19.8083    0.0000 </r>
        <r>   24.7222    0.0000 </r>
        <r>   25.1024    0.0000 </r>
        <r>   25.1025    0.0000 </r>
        <r>   29.0377    0.0000 </r>
        <r>   29.9459    0.0000 </r>
        <r>   32.7055    0.0000 </r>
        <r>   35.5767    0.0000 </r>
        <r>   35.5768    0.0000 </r>
        <r>   37.6860    0.0000 </r>
        <r>   45.0165    0.0000 </r>
        <r>   58.8620    0.0000 </r>
       </set>
       <set comment="kpoint 14">
        <r>   -3.3189    1.0000 </r>
        <r>   16.6814    0.0000 </r>
        <r>   16.6815    0.0000 </r>
        <r>   18.4492    0.0000 </r>
        <r>   18.4659    0.0000 </r>
        <r>   21.9650    0.0000 </r>
        <r>   27.0925    0.0000 </r>
        <r>   27.0925    0.0000 </r>
        <r>   29.5633    0.0000 </r>
        <r>   32.4925    0.0000 </r>
        <r>   34.1330    0.0000 </r>
        <r>   36.4808    0.0000 </r>
        <r>   36.4809    0.0000 </r>
        <r>   38.9623    0.0000 </r>
        <r>   48.4759    0.0000 </r>
        <r>   55.8952    0.0000 </r>
       </set>
       <set comment="kpoint 15">
        <r>   -2.4993    1.0000 </r>
        <r>   15.5562    0.0000 </r>
        <r>   15.5563    0.0000 </r>
        <r>   16.7275    0.0000 </r>
        <r>   17.2318    0.0000 </r>
        <r>   19.8173    0.0000 </r>
        <r>   29.0758    0.0000 </r>
        <r>   29.0758    0.0000 </r>
        <r>   30.2845    0.0000 </r>
        <r>   35.3707    0.0000 </r>
        <r>   35.8644    0.0000 </r>
        <r>   37.8168    0.0000 </r>
        <r>   37.8168    0.0000 </r>
        <r>   40.1424    0.0000 </r>
        <r>   52.5687    0.0000 </r>
        <r>   53.0705    0.0000 </r>
       </set>
       <set comment="kpoint 16">
        <r>   -1.4494    1.0000 </r>
        <r>   14.4015    0.0000 </r>
        <r>   14.6269    0.0000 </r>
        <r>   14.6270    0.0000 </r>
        <r>   16.1903    0.0000 </r>
        <r>   18.4626    0.0000 </r>
        <r>   30.9650    0.0000 </r>
        <r>   30.9650    0.0000 </r>
        <r>   31.1812    0.0000 </r>
        <r>   37.7908    0.0000 </r>
        <r>   38.5194    0.0000 </r>
        <r>   39.6118    0.0000 </r>
        <r>   39.6119    0.0000 </r>
        <r>   41.3784    0.0000 </r>
        <r>   50.4552    0.0000 </r>
        <r>   50.4553    0.0000 </r>
       </set>
       <set comment="kpoint 17">
        <r>   -0.1746    1.0000 </r>
        <r>   11.8873    1.0000 </r>
        <r>   13.9039    0.0000 </r>
        <r>   13.9040    0.0000 </r>
        <r>   15.3845    0.0000 </r>
        <r>   17.5839    0.0000 </r>
        <r>   32.2019    0.0000 </r>
        <r>   32.7115    0.0000 </r>
        <r>   32.7115    0.0000 </r>
        <r>   39.6969    0.0000 </r>
        <r>   41.7411    0.0000 </r>
        <r>   41.7412    0.0000 </r>
        <r>   41.9153    0.0000 </r>
        <r>   42.6824    0.0000 </r>
        <r>   48.1687    0.0000 </r>
        <r>   48.2779    0.0000 </r>
       </set>
       <set comment="kpoint 18">
        <r>    1.3214    1.0000 </r>
        <r>    9.4367    1.0000 </r>
        <r>   13.3870    0.0000 </r>
        <r>   13.3871    0.0000 </r>
        <r>   14.8067    0.0000 </r>
        <r>   17.0049    0.0000 </r>
        <r>   33.2848    0.0000 </r>
        <r>   34.3796    0.0000 </r>
        <r>   34.3797    0.0000 </r>
        <r>   41.4820    0.0000 </r>
        <r>   43.4281    0.0000 </r>
        <r>   43.4282    0.0000 </r>
        <r>   43.9911    0.0000 </r>
        <r>   45.5589    0.0000 </r>
        <r>   45.9509    0.0000 </r>
        <r>   47.3746    0.0000 </r>
       </set>
       <set comment="kpoint 19">
        <r>    3.0225    1.0000 </r>
        <r>    7.1439    1.0000 </r>
        <r>   13.0756    0.0000 </r>
        <r>   13.0757    0.0000 </r>
        <r>   14.4572    0.0000 </r>
        <r>   16.6624    0.0000 </r>
        <r>   34.2207    0.0000 </r>
        <r>   35.6841    0.0000 </r>
        <r>   35.6842    0.0000 </r>
        <r>   42.8385    0.0000 </r>
        <r>   43.0771    0.0000 </r>
        <r>   43.0772    0.0000 </r>
        <r>   44.3738    0.0000 </r>
        <r>   45.0600    0.0000 </r>
        <r>   49.3531    0.0000 </r>
        <r>   49.3844    0.0000 </r>
       </set>
       <set comment="kpoint 20">
        <r>    4.6155    1.0000 </r>
        <r>    5.3526    1.0000 </r>
        <r>   12.9717    0.0016 </r>
        <r>   12.9718    0.0016 </r>
        <r>   14.3404    0.0000 </r>
        <r>   16.5527    0.0000 </r>
        <r>   34.5845    0.0000 </r>
        <r>   36.2181    0.0000 </r>
        <r>   36.2183    0.0000 </r>
        <r>   42.6032    0.0000 </r>
        <r>   42.6034    0.0000 </r>
        <r>   43.3767    0.0000 </r>
        <r>   43.7753    0.0000 </r>
        <r>   45.5381    0.0000 </r>
        <r>   52.5457    0.0000 </r>
        <r>   52.6005    0.0000 </r>
       </set>
       <set comment="kpoint 21">
        <r>    4.6155    1.0000 </r>
        <r>    5.3526    1.0000 </r>
        <r>   12.9717    0.0016 </r>
        <r>   12.9718    0.0016 </r>
        <r>   14.3404    0.0000 </r>
        <r>   16.5527    0.0000 </r>
        <r>   34.5845    0.0000 </r>
        <r>   36.2181    0.0000 </r>
        <r>   36.2183    0.0000 </r>
        <r>   42.6032    0.0000 </r>
        <r>   42.6034    0.0000 </r>
        <r>   43.3767    0.0000 </r>
        <r>   43.7753    0.0000 </r>
        <r>   45.5381    0.0000 </r>
        <r>   52.5457    0.0000 </r>
        <r>   52.6005    0.0000 </r>
       </set>
       <set comment="kpoint 22">
        <r>    4.6294    1.0000 </r>
        <r>    5.3662    1.0000 </r>
        <r>   12.5839    0.9945 </r>
        <r>   12.9846    0.0009 </r>
        <r>   14.6197    0.0000 </r>
        <r>   16.6982    0.0000 </r>
        <r>   34.4934    0.0000 </r>
        <r>   36.1248    0.0000 </r>
        <r>   36.1269    0.0000 </r>
        <r>   42.4680    0.0000 </r>
        <r>   42.7158    0.0000 </r>
        <r>   43.4647    0.0000 </r>
        <r>   43.8516    0.0000 </r>
        <r>   45.5980    0.0000 </r>
        <r>   52.0971    0.0000 </r>
        <r>   52.1121    0.0000 </r>
       </set>
       <set comment="kpoint 23">
        <r>    4.6711    1.0000 </r>
        <r>    5.4070    1.0000 </r>
        <r>   11.8423    1.0000 </r>
        <r>   13.0233    0.0001 </r>
        <r>   15.0230    0.0000 </r>
        <r>   17.1473    0.0000 </r>
        <r>   34.2346    0.0000 </r>
        <r>   35.8598    0.0000 </r>
        <r>   35.8659    0.0000 </r>
        <r>   42.1069    0.0000 </r>
        <r>   43.0386    0.0000 </r>
        <r>   43.7073    0.0000 </r>
        <r>   44.0677    0.0000 </r>
        <r>   45.7239    0.0000 </r>
        <r>   51.3288    0.0000 </r>
        <r>   51.5765    0.0000 </r>
       </set>
       <set comment="kpoint 24">
        <r>    4.7406    1.0000 </r>
        <r>    5.4744    1.0000 </r>
        <r>   11.0229    1.0000 </r>
        <r>   13.0876    0.0000 </r>
        <r>   15.3135    0.0000 </r>
        <r>   17.8606    0.0000 </r>
        <r>   33.8433    0.0000 </r>
        <r>   35.4602    0.0000 </r>
        <r>   35.4666    0.0000 </r>
        <r>   41.6023    0.0000 </r>
        <r>   43.5350    0.0000 </r>
        <r>   44.0480    0.0000 </r>
        <r>   44.3916    0.0000 </r>
        <r>   45.8115    0.0000 </r>
        <r>   50.5702    0.0000 </r>
        <r>   51.1727    0.0000 </r>
       </set>
       <set comment="kpoint 25">
        <r>    4.8380    1.0000 </r>
        <r>    5.5675    1.0000 </r>
        <r>   10.1897    1.0000 </r>
        <r>   13.1776    0.0000 </r>
        <r>   15.5274    0.0000 </r>
        <r>   18.7382    0.0000 </r>
        <r>   33.3157    0.0000 </r>
        <r>   34.8973    0.0000 </r>
        <r>   34.9148    0.0000 </r>
        <r>   41.0135    0.0000 </r>
        <r>   44.1611    0.0000 </r>
        <r>   44.4013    0.0000 </r>
        <r>   44.7868    0.0000 </r>
        <r>   45.7755    0.0000 </r>
        <r>   49.9176    0.0000 </r>
        <r>   50.9208    0.0000 </r>
       </set>
       <set comment="kpoint 26">
        <r>    4.9631    1.0000 </r>
        <r>    5.6844    1.0000 </r>
        <r>    9.3649    1.0000 </r>
        <r>   13.2932    0.0000 </r>
        <r>   15.7170    0.0000 </r>
        <r>   19.7059    0.0000 </r>
        <r>   32.7737    0.0000 </r>
        <r>   34.3257    0.0000 </r>
        <r>   34.3635    0.0000 </r>
        <r>   40.3843    0.0000 </r>
        <r>   44.6690    0.0000 </r>
        <r>   44.8822    0.0000 </r>
        <r>   45.2216    0.0000 </r>
        <r>   45.5828    0.0000 </r>
        <r>   49.4471    0.0000 </r>
        <r>   50.8215    0.0000 </r>
       </set>
       <set comment="kpoint 27">
        <r>    5.1160    1.0000 </r>
        <r>    5.8199    1.0000 </r>
        <r>    8.5607    1.0000 </r>
        <r>   13.4341    0.0000 </r>
        <r>   15.9094    0.0000 </r>
        <r>   20.7229    0.0000 </r>
        <r>   32.1573    0.0000 </r>
        <r>   33.7102    0.0000 </r>
        <r>   33.7772    0.0000 </r>
        <r>   39.7314    0.0000 </r>
        <r>   44.7377    0.0000 </r>
        <r>   45.2268    0.0000 </r>
        <r>   45.6583    0.0000 </r>
        <r>   45.6738    0.0000 </r>
        <r>   49.2418    0.0000 </r>
        <r>   50.8260    0.0000 </r>
       </set>
       <set comment="kpoint 28">
        <r>    5.2970    1.0000 </r>
        <r>    5.9595    1.0000 </r>
        <r>    7.8002    1.0000 </r>
        <r>   13.6007    0.0000 </r>
        <r>   16.1195    0.0000 </r>
        <r>   21.7864    0.0000 </r>
        <r>   31.5649    0.0000 </r>
        <r>   33.0689    0.0000 </r>
        <r>   33.1894    0.0000 </r>
        <r>   39.0764    0.0000 </r>
        <r>   44.5670    0.0000 </r>
        <r>   44.7834    0.0000 </r>
        <r>   46.1308    0.0000 </r>
        <r>   46.4798    0.0000 </r>
        <r>   49.3425    0.0000 </r>
        <r>   50.9220    0.0000 </r>
       </set>
       <set comment="kpoint 29">
        <r>    5.5055    1.0000 </r>
        <r>    6.0399    1.0000 </r>
        <r>    7.1465    1.0000 </r>
        <r>   13.7925    0.0000 </r>
        <r>   16.3466    0.0000 </r>
        <r>   22.8591    0.0000 </r>
        <r>   30.9679    0.0000 </r>
        <r>   32.4148    0.0000 </r>
        <r>   32.5763    0.0000 </r>
        <r>   38.4272    0.0000 </r>
        <r>   44.1611    0.0000 </r>
        <r>   44.2727    0.0000 </r>
        <r>   46.5869    0.0000 </r>
        <r>   47.3190    0.0000 </r>
        <r>   49.6661    0.0000 </r>
        <r>   50.9851    0.0000 </r>
       </set>
       <set comment="kpoint 30">
        <r>    5.7418    1.0000 </r>
        <r>    5.8142    1.0000 </r>
        <r>    6.8475    1.0000 </r>
        <r>   14.0093    0.0000 </r>
        <r>   16.5889    0.0000 </r>
        <r>   23.9403    0.0000 </r>
        <r>   30.3405    0.0000 </r>
        <r>   31.7351    0.0000 </r>
        <r>   31.9217    0.0000 </r>
        <r>   37.7748    0.0000 </r>
        <r>   43.5801    0.0000 </r>
        <r>   43.6620    0.0000 </r>
        <r>   47.0362    0.0000 </r>
        <r>   48.1232    0.0000 </r>
        <r>   50.0910    0.0000 </r>
        <r>   50.9911    0.0000 </r>
       </set>
       <set comment="kpoint 31">
        <r>    5.7418    1.0000 </r>
        <r>    5.8142    1.0000 </r>
        <r>    6.8475    1.0000 </r>
        <r>   14.0093    0.0000 </r>
        <r>   16.5889    0.0000 </r>
        <r>   23.9403    0.0000 </r>
        <r>   30.3405    0.0000 </r>
        <r>   31.7351    0.0000 </r>
        <r>   31.9217    0.0000 </r>
        <r>   37.7748    0.0000 </r>
        <r>   43.5801    0.0000 </r>
        <r>   43.6620    0.0000 </r>
        <r>   47.0362    0.0000 </r>
        <r>   48.1232    0.0000 </r>
        <r>   50.0910    0.0000 </r>
        <r>   50.9911    0.0000 </r>
       </set>
       <set comment="kpoint 32">
        <r>    3.9053    1.0000 </r>
        <r>    6.6170    1.0000 </r>
        <r>    7.4927    1.0000 </r>
        <r>   14.8091    0.0000 </r>
        <r>   17.4889    0.0000 </r>
        <r>   27.1484    0.0000 </r>
        <r>   28.6497    0.0000 </r>
        <r>   29.8070    0.0000 </r>
        <r>   30.1657    0.0000 </r>
        <r>   36.0791    0.0000 </r>
        <r>   41.7315    0.0000 </r>
        <r>   42.0353    0.0000 </r>
        <r>   48.4075    0.0000 </r>
        <r>   50.3943    0.0000 </r>
        <r>   50.4217    0.0000 </r>
        <r>   51.2928    0.0000 </r>
       </set>
       <set comment="kpoint 33">
        <r>    2.0123    1.0000 </r>
        <r>    7.7406    1.0000 </r>
        <r>    8.5880    1.0000 </r>
        <r>   15.8224    0.0000 </r>
        <r>   18.6114    0.0000 </r>
        <r>   27.1226    0.0000 </r>
        <r>   28.0183    0.0000 </r>
        <r>   28.5531    0.0000 </r>
        <r>   29.5765    0.0000 </r>
        <r>   35.1183    0.0000 </r>
        <r>   39.8955    0.0000 </r>
        <r>   40.8081    0.0000 </r>
        <r>   48.5222    0.0000 </r>
        <r>   49.8577    0.0000 </r>
        <r>   50.8029    0.0000 </r>
        <r>   51.9233    0.0000 </r>
       </set>
       <set comment="kpoint 34">
        <r>    0.3406    1.0000 </r>
        <r>    9.1084    1.0000 </r>
        <r>    9.9274    1.0000 </r>
        <r>   17.0258    0.0000 </r>
        <r>   19.9428    0.0000 </r>
        <r>   25.8223    0.0000 </r>
        <r>   26.4112    0.0000 </r>
        <r>   27.0988    0.0000 </r>
        <r>   30.0080    0.0000 </r>
        <r>   35.2669    0.0000 </r>
        <r>   38.1854    0.0000 </r>
        <r>   40.9898    0.0000 </r>
        <r>   45.9494    0.0000 </r>
        <r>   47.4209    0.0000 </r>
        <r>   51.4573    0.0000 </r>
        <r>   51.8143    0.0000 </r>
       </set>
       <set comment="kpoint 35">
        <r>   -1.0884    1.0000 </r>
        <r>   10.7179    1.0000 </r>
        <r>   11.4816    1.0000 </r>
        <r>   18.3596    0.0000 </r>
        <r>   21.4544    0.0000 </r>
        <r>   24.8091    0.0000 </r>
        <r>   25.0182    0.0000 </r>
        <r>   25.8628    0.0000 </r>
        <r>   29.1098    0.0000 </r>
        <r>   34.8574    0.0000 </r>
        <r>   36.6307    0.0000 </r>
        <r>   43.0781    0.0000 </r>
        <r>   43.4407    0.0000 </r>
        <r>   43.6861    0.0000 </r>
        <r>   49.1861    0.0000 </r>
        <r>   53.2418    0.0000 </r>
       </set>
       <set comment="kpoint 36">
        <r>   -2.2667    1.0000 </r>
        <r>   12.5609    0.9979 </r>
        <r>   13.2261    0.0000 </r>
        <r>   19.6716    0.0000 </r>
        <r>   23.0917    0.0000 </r>
        <r>   23.8408    0.0000 </r>
        <r>   24.3029    0.0000 </r>
        <r>   24.8375    0.0000 </r>
        <r>   27.9180    0.0000 </r>
        <r>   33.8191    0.0000 </r>
        <r>   35.0597    0.0000 </r>
        <r>   39.8145    0.0000 </r>
        <r>   40.5465    0.0000 </r>
        <r>   45.6852    0.0000 </r>
        <r>   47.4929    0.0000 </r>
        <r>   51.0782    0.0000 </r>
       </set>
       <set comment="kpoint 37">
        <r>   -3.1874    1.0000 </r>
        <r>   14.6179    0.0000 </r>
        <r>   15.1262    0.0000 </r>
        <r>   20.5452    0.0000 </r>
        <r>   22.9492    0.0000 </r>
        <r>   24.0074    0.0000 </r>
        <r>   24.5177    0.0000 </r>
        <r>   24.6188    0.0000 </r>
        <r>   26.9744    0.0000 </r>
        <r>   32.7845    0.0000 </r>
        <r>   33.0482    0.0000 </r>
        <r>   37.1546    0.0000 </r>
        <r>   38.3029    0.0000 </r>
        <r>   42.1428    0.0000 </r>
        <r>   47.7235    0.0000 </r>
        <r>   51.9187    0.0000 </r>
       </set>
       <set comment="kpoint 38">
        <r>   -3.8476    1.0000 </r>
        <r>   16.8539    0.0000 </r>
        <r>   17.1374    0.0000 </r>
        <r>   20.7741    0.0000 </r>
        <r>   22.3107    0.0000 </r>
        <r>   23.3329    0.0000 </r>
        <r>   24.4848    0.0000 </r>
        <r>   25.9688    0.0000 </r>
        <r>   27.3106    0.0000 </r>
        <r>   30.4563    0.0000 </r>
        <r>   31.9542    0.0000 </r>
        <r>   35.7333    0.0000 </r>
        <r>   36.5552    0.0000 </r>
        <r>   38.8746    0.0000 </r>
        <r>   44.8485    0.0000 </r>
        <r>   56.6037    0.0000 </r>
       </set>
       <set comment="kpoint 39">
        <r>   -4.2449    1.0000 </r>
        <r>   19.1157    0.0000 </r>
        <r>   19.1645    0.0000 </r>
        <r>   20.7324    0.0000 </r>
        <r>   21.9260    0.0000 </r>
        <r>   22.6332    0.0000 </r>
        <r>   23.1432    0.0000 </r>
        <r>   27.6645    0.0000 </r>
        <r>   28.0536    0.0000 </r>
        <r>   28.2665    0.0000 </r>
        <r>   31.6211    0.0000 </r>
        <r>   35.0815    0.0000 </r>
        <r>   35.3698    0.0000 </r>
        <r>   36.1562    0.0000 </r>
        <r>   42.7829    0.0000 </r>
        <r>   60.9918    0.0000 </r>
       </set>
       <set comment="kpoint 40">
        <r>   -4.3778    1.0000 </r>
        <r>   20.6956    0.0000 </r>
        <r>   20.6958    0.0000 </r>
        <r>   20.6958    0.0000 </r>
        <r>   21.7714    0.0000 </r>
        <r>   21.7715    0.0000 </r>
        <r>   21.7715    0.0000 </r>
        <r>   26.9787    0.0000 </r>
        <r>   28.5759    0.0000 </r>
        <r>   28.5759    0.0000 </r>
        <r>   31.6951    0.0000 </r>
        <r>   34.8834    0.0000 </r>
        <r>   34.8834    0.0000 </r>
        <r>   34.8835    0.0000 </r>
        <r>   42.0008    0.0000 </r>
        <r>   62.8224    0.0000 </r>
       </set>
      </set>
     </set>
    </array>
   </eigenvalues>
   <array>
    <dimension dim="1">ion</dimension>
    <dimension dim="2">band</dimension>
    <dimension dim="3">kpoint</dimension>
    <dimension dim="4">spin</dimension>
    <field>    s</field>
    <field>   py</field>
    <field>   pz</field>
    <field>   px</field>
    <field>  dxy</field>
    <field>  dyz</field>
    <field>  dz2</field>
    <field>  dxz</field>
    <field>x2-y2</field>
    <set>
     <set comment="spin1">
      <set comment="kpoint 1">
       <set comment="band 1">
        <r>  0.4544  0.0000  0.0000  0.0000  0.0000  0.0000  0.0000  0.0000  0.0000 </r>
       </set>
       <set comment="band 2">
        <r>  0.0000  0.1056  0.1056  0.1056  0.0000  0.0000  0.0000  0.0000  0.0000 </r>
       </set>
       <set comment="band 3">
        <r>  0.0000  0.4131  0.1033  0.1033  0.0000  0.0000  0.0000  0.0000  0.0000 </r>
       </set>
       <set comment="band 4">
        <r>  0.0000  0.0000  0.3098  0.3098  0.0000  0.0000  0.0000  0.0000  0.0000 </r>
       </set>
       <set comment="band 5">
        <r>  0.0000  0.0000  0.0000  0.0000  0.0000  0.0000  0.0000  0.0000  0.0000 </r>
       </set>
       <set comment="band 6">
        <r>  0.0000  0.0000  0.0000  0.0000  0.0000  0.0000  0.0000  0.0000  0.0000 </r>
       </set>
       <set comment="band 7">
        <r>  0.2632  0.0000  0.0000  0.0000  0.0000  0.0000  0.0000  0.0000  0.0000 </r>
       </set>
       <set comment="band 8">
        <r>  0.0000  0.0081  0.0081  0.0081  0.0000  0.0000  0.0000  0.0000  0.0000 </r>
       </set>
       <set comment="band 9">
        <r>  0.0000  0.0000  0.0000  0.0000  0.0000  0.0000  0.0000  0.0000  0.0000 </r>
       </set>
       <set comment="band 10">
        <r>  0.0000  0.0000  0.0000  0.0000  0.0000  0.0000  0.0000  0.0000  0.0000 </r>
       </set>
       <set comment="band 11">
        <r>  0.0000  0.1209  0.1209  0.1209  0.0000  0.0000  0.0000  0.0000  0.0000 </r>
       </set>
       <set comment="band 12">
        <r>  0.0000  0.0885  0.0221  0.0221  0.0000  0.0000  0.0000  0.0000  0.0000 </r>
       </set>
       <set comment="band 13">
        <r>  0.0000  0.0000  0.0664  0.0664  0.0000  0.0000  0.0000  0.0000  0.0000 </r>
       </set>
       <set comment="band 14">
        <r>  0.1656  0.0000  0.0000  0.0000  0.0000  0.0000  0.0000  0.0000  0.0000 </r>
       </set>
       <set comment="band 15">
        <r>  0.0795  0.0000  0.0000  0.0000  0.0000  0.0000  0.0000  0.0000  0.0000 </r>
       </set>
       <set comment="band 16">
        <r>  0.0000  0.0000  0.0000  0.0000  0.0000  0.0000  0.0000  0.0000  0.0000 </r>
       </set>
      </set>
      <set comment="kpoint 2">
       <set comment="band 1">
        <r>  0.3069  0.0320  0.0320  0.0320  0.0000  0.0000  0.0000  0.0000  0.0000 </r>
       </set>
       <set comment="band 2">
        <r>  0.1460  0.0734  0.0734  0.0734  0.0000  0.0000  0.0000  0.0000  0.0000 </r>
       </set>
       <set comment="band 3">
        <r>  0.0000  0.4018  0.1004  0.1004  0.0000  0.0000  0.0000  0.0000  0.0000 </r>
       </set>
       <set comment="band 4">
        <r>  0.0000  0.0000  0.3013  0.3013  0.0000  0.0000  0.0000  0.0000  0.0000 </r>
       </set>
       <set comment="band 5">
        <r>  0.0000  0.0000  0.0081  0.0081  0.0000  0.0000  0.0000  0.0000  0.0000 </r>
       </set>
       <set comment="band 6">
        <r>  0.0000  0.0108  0.0027  0.0027  0.0000  0.0000  0.0000  0.0000  0.0000 </r>
       </set>
       <set comment="band 7">
        <r>  0.2515  0.0014  0.0014  0.0014  0.0000  0.0000  0.0000  0.0000  0.0000 </r>
       </set>
       <set comment="band 8">
        <r>  0.0065  0.0098  0.0098  0.0098  0.0000  0.0000  0.0000  0.0000  0.0000 </r>
       </set>
       <set comment="band 9">
        <r>  0.0000  0.0000  0.0102  0.0102  0.0000  0.0000  0.0000  0.0000  0.0000 </r>
       </set>
       <set comment="band 10">
        <r>  0.0000  0.0136  0.0034  0.0034  0.0000  0.0000  0.0000  0.0000  0.0000 </r>
       </set>
       <set comment="band 11">
        <r>  0.0256  0.1042  0.1042  0.1042  0.0000  0.0000  0.0000  0.0000  0.0000 </r>
       </set>
       <set comment="band 12">
        <r>  0.0000  0.0730  0.0182  0.0182  0.0000  0.0000  0.0000  0.0000  0.0000 </r>
       </set>
       <set comment="band 13">
        <r>  0.0000  0.0000  0.0547  0.0547  0.0000  0.0000  0.0000  0.0000  0.0000 </r>
       </set>
       <set comment="band 14">
        <r>  0.1083  0.0229  0.0229  0.0229  0.0000  0.0000  0.0000  0.0000  0.0000 </r>
       </set>
       <set comment="band 15">
        <r>  0.1107  0.0110  0.0110  0.0110  0.0000  0.0000  0.0000  0.0000  0.0000 </r>
       </set>
       <set comment="band 16">
        <r>  0.0000  0.0049  0.0061  0.0089  0.0000  0.0000  0.0000  0.0000  0.0000 </r>
       </set>
      </set>
      <set comment="kpoint 3">
       <set comment="band 1">
        <r>  0.3075  0.0296  0.0296  0.0296  0.0000  0.0000  0.0000  0.0000  0.0000 </r>
       </set>
       <set comment="band 2">
        <r>  0.1427  0.0754  0.0754  0.0754  0.0000  0.0000  0.0000  0.0000  0.0000 </r>
       </set>
       <set comment="band 3">
        <r>  0.0000  0.3773  0.0943  0.0943  0.0000  0.0000  0.0000  0.0000  0.0000 </r>
       </set>
       <set comment="band 4">
        <r>  0.0000  0.0000  0.2830  0.2830  0.0000  0.0000  0.0000  0.0000  0.0000 </r>
       </set>
       <set comment="band 5">
        <r>  0.0000  0.0000  0.0251  0.0251  0.0000  0.0000  0.0000  0.0000  0.0000 </r>
       </set>
       <set comment="band 6">
        <r>  0.0000  0.0334  0.0084  0.0084  0.0000  0.0000  0.0000  0.0000  0.0000 </r>
       </set>
       <set comment="band 7">
        <r>  0.2243  0.0059  0.0059  0.0059  0.0000  0.0000  0.0000  0.0000  0.0000 </r>
       </set>
       <set comment="band 8">
        <r>  0.0157  0.0146  0.0146  0.0146  0.0000  0.0000  0.0000  0.0000  0.0000 </r>
       </set>
       <set comment="band 9">
        <r>  0.0000  0.0000  0.0256  0.0256  0.0000  0.0000  0.0000  0.0000  0.0000 </r>
       </set>
       <set comment="band 10">
        <r>  0.0000  0.0341  0.0085  0.0085  0.0000  0.0000  0.0000  0.0000  0.0000 </r>
       </set>
       <set comment="band 11">
        <r>  0.0691  0.0736  0.0736  0.0736  0.0000  0.0000  0.0000  0.0000  0.0000 </r>
       </set>
       <set comment="band 12">
        <r>  0.0000  0.0454  0.0114  0.0114  0.0000  0.0000  0.0000  0.0000  0.0000 </r>
       </set>
       <set comment="band 13">
        <r>  0.0000  0.0000  0.0341  0.0341  0.0000  0.0000  0.0000  0.0000  0.0000 </r>
       </set>
       <set comment="band 14">
        <r>  0.0207  0.0568  0.0568  0.0568  0.0000  0.0000  0.0000  0.0000  0.0000 </r>
       </set>
       <set comment="band 15">
        <r>  0.0000  0.0073  0.0077  0.0290  0.0000  0.0000  0.0000  0.0000  0.0000 </r>
       </set>
       <set comment="band 16">
        <r>  0.0000  0.0220  0.0217  0.0003  0.0000  0.0000  0.0000  0.0000  0.0000 </r>
       </set>
      </set>
      <set comment="kpoint 4">
       <set comment="band 1">
        <r>  0.3221  0.0235  0.0235  0.0235  0.0000  0.0000  0.0000  0.0000  0.0000 </r>
       </set>
       <set comment="band 2">
        <r>  0.1224  0.0813  0.0813  0.0813  0.0000  0.0000  0.0000  0.0000  0.0000 </r>
       </set>
       <set comment="band 3">
        <r>  0.0000  0.3533  0.0883  0.0883  0.0000  0.0000  0.0000  0.0000  0.0000 </r>
       </set>
       <set comment="band 4">
        <r>  0.0000  0.0000  0.2650  0.2650  0.0000  0.0000  0.0000  0.0000  0.0000 </r>
       </set>
       <set comment="band 5">
        <r>  0.0000  0.0000  0.0420  0.0420  0.0000  0.0000  0.0000  0.0000  0.0000 </r>
       </set>
       <set comment="band 6">
        <r>  0.0000  0.0560  0.0140  0.0140  0.0000  0.0000  0.0000  0.0000  0.0000 </r>
       </set>
       <set comment="band 7">
        <r>  0.1949  0.0134  0.0134  0.0134  0.0000  0.0000  0.0000  0.0000  0.0000 </r>
       </set>
       <set comment="band 8">
        <r>  0.0172  0.0216  0.0216  0.0216  0.0000  0.0000  0.0000  0.0000  0.0000 </r>
       </set>
       <set comment="band 9">
        <r>  0.0000  0.0000  0.0362  0.0362  0.0000  0.0000  0.0000  0.0000  0.0000 </r>
       </set>
       <set comment="band 10">
        <r>  0.0000  0.0483  0.0121  0.0121  0.0000  0.0000  0.0000  0.0000  0.0000 </r>
       </set>
       <set comment="band 11">
        <r>  0.1004  0.0451  0.0451  0.0451  0.0000  0.0000  0.0000  0.0000  0.0000 </r>
       </set>
       <set comment="band 12">
        <r>  0.0796  0.0504  0.0504  0.0504  0.0000  0.0000  0.0000  0.0000  0.0000 </r>
       </set>
       <set comment="band 13">
        <r>  0.0000  0.0062  0.0016  0.0016  0.0000  0.0000  0.0000  0.0000  0.0000 </r>
       </set>
       <set comment="band 14">
        <r>  0.0000  0.0000  0.0047  0.0047  0.0000  0.0000  0.0000  0.0000  0.0000 </r>
       </set>
       <set comment="band 15">
        <r>  0.0000  0.0005  0.0486  0.0397  0.0000  0.0000  0.0000  0.0000  0.0000 </r>
       </set>
       <set comment="band 16">
        <r>  0.0000  0.0587  0.0106  0.0195  0.0000  0.0000  0.0000  0.0000  0.0000 </r>
       </set>
      </set>
      <set comment="kpoint 5">
       <set comment="band 1">
        <r>  0.3380  0.0171  0.0171  0.0171  0.0000  0.0000  0.0000  0.0000  0.0000 </r>
       </set>
       <set comment="band 2">
        <r>  0.0988  0.0878  0.0878  0.0878  0.0000  0.0000  0.0000  0.0000  0.0000 </r>
       </set>
       <set comment="band 3">
        <r>  0.0000  0.3335  0.0834  0.0834  0.0000  0.0000  0.0000  0.0000  0.0000 </r>
       </set>
       <set comment="band 4">
        <r>  0.0000  0.0000  0.2501  0.2501  0.0000  0.0000  0.0000  0.0000  0.0000 </r>
       </set>
       <set comment="band 5">
        <r>  0.1623  0.0245  0.0245  0.0245  0.0000  0.0000  0.0000  0.0000  0.0000 </r>
       </set>
       <set comment="band 6">
        <r>  0.0000  0.0000  0.0605  0.0605  0.0000  0.0000  0.0000  0.0000  0.0000 </r>
       </set>
       <set comment="band 7">
        <r>  0.0000  0.0806  0.0202  0.0202  0.0000  0.0000  0.0000  0.0000  0.0000 </r>
       </set>
       <set comment="band 8">
        <r>  0.0111  0.0304  0.0304  0.0304  0.0000  0.0000  0.0000  0.0000  0.0000 </r>
       </set>
       <set comment="band 9">
        <r>  0.0000  0.0000  0.0375  0.0375  0.0000  0.0000  0.0000  0.0000  0.0000 </r>
       </set>
       <set comment="band 10">
        <r>  0.0000  0.0500  0.0125  0.0125  0.0000  0.0000  0.0000  0.0000  0.0000 </r>
       </set>
       <set comment="band 11">
        <r>  0.1094  0.0217  0.0217  0.0217  0.0000  0.0000  0.0000  0.0000  0.0000 </r>
       </set>
       <set comment="band 12">
        <r>  0.1324  0.0446  0.0446  0.0446  0.0000  0.0000  0.0000  0.0000  0.0000 </r>
       </set>
       <set comment="band 13">
        <r>  0.0000  0.0077  0.0019  0.0019  0.0000  0.0000  0.0000  0.0000  0.0000 </r>
       </set>
       <set comment="band 14">
        <r>  0.0000  0.0000  0.0058  0.0058  0.0000  0.0000  0.0000  0.0000  0.0000 </r>
       </set>
       <set comment="band 15">
        <r>  0.0000  0.0486  0.0209  0.0078  0.0000  0.0000  0.0000  0.0000  0.0000 </r>
       </set>
       <set comment="band 16">
        <r>  0.0000  0.0029  0.0305  0.0439  0.0000  0.0000  0.0000  0.0000  0.0000 </r>
       </set>
      </set>
      <set comment="kpoint 6">
       <set comment="band 1">
        <r>  0.3537  0.0114  0.0114  0.0114  0.0000  0.0000  0.0000  0.0000  0.0000 </r>
       </set>
       <set comment="band 2">
        <r>  0.0746  0.0944  0.0944  0.0944  0.0000  0.0000  0.0000  0.0000  0.0000 </r>
       </set>
       <set comment="band 3">
        <r>  0.0000  0.3202  0.0800  0.0800  0.0000  0.0000  0.0000  0.0000  0.0000 </r>
       </set>
       <set comment="band 4">
        <r>  0.0000  0.0000  0.2401  0.2401  0.0000  0.0000  0.0000  0.0000  0.0000 </r>
       </set>
       <set comment="band 5">
        <r>  0.1252  0.0398  0.0398  0.0398  0.0000  0.0000  0.0000  0.0000  0.0000 </r>
       </set>
       <set comment="band 6">
        <r>  0.0000  0.0000  0.0829  0.0829  0.0000  0.0000  0.0000  0.0000  0.0000 </r>
       </set>
       <set comment="band 7">
        <r>  0.0000  0.1105  0.0276  0.0276  0.0000  0.0000  0.0000  0.0000  0.0000 </r>
       </set>
       <set comment="band 8">
        <r>  0.0000  0.0371  0.0093  0.0093  0.0000  0.0000  0.0000  0.0000  0.0000 </r>
       </set>
       <set comment="band 9">
        <r>  0.0000  0.0000  0.0278  0.0278  0.0000  0.0000  0.0000  0.0000  0.0000 </r>
       </set>
       <set comment="band 10">
        <r>  0.0022  0.0396  0.0396  0.0396  0.0000  0.0000  0.0000  0.0000  0.0000 </r>
       </set>
       <set comment="band 11">
        <r>  0.0922  0.0060  0.0060  0.0060  0.0000  0.0000  0.0000  0.0000  0.0000 </r>
       </set>
       <set comment="band 12">
        <r>  0.1957  0.0330  0.0330  0.0330  0.0000  0.0000  0.0000  0.0000  0.0000 </r>
       </set>
       <set comment="band 13">
        <r>  0.0000  0.0203  0.0051  0.0051  0.0000  0.0000  0.0000  0.0000  0.0000 </r>
       </set>
       <set comment="band 14">
        <r>  0.0000  0.0000  0.0152  0.0152  0.0000  0.0000  0.0000  0.0000  0.0000 </r>
       </set>
       <set comment="band 15">
        <r>  0.0647  0.0342  0.0342  0.0342  0.0000  0.0000  0.0000  0.0000  0.0000 </r>
       </set>
       <set comment="band 16">
        <r>  0.0000  0.0017  0.0193  0.0318  0.0000  0.0000  0.0000  0.0000  0.0000 </r>
       </set>
      </set>
      <set comment="kpoint 7">
       <set comment="band 1">
        <r>  0.3668  0.0066  0.0066  0.0066  0.0000  0.0000  0.0000  0.0000  0.0000 </r>
       </set>
       <set comment="band 2">
        <r>  0.0517  0.1024  0.1024  0.1024  0.0000  0.0000  0.0000  0.0000  0.0000 </r>
       </set>
       <set comment="band 3">
        <r>  0.0000  0.3134  0.0784  0.0784  0.0000  0.0000  0.0000  0.0000  0.0000 </r>
       </set>
       <set comment="band 4">
        <r>  0.0000  0.0000  0.2351  0.2351  0.0000  0.0000  0.0000  0.0000  0.0000 </r>
       </set>
       <set comment="band 5">
        <r>  0.0838  0.0579  0.0579  0.0579  0.0000  0.0000  0.0000  0.0000  0.0000 </r>
       </set>
       <set comment="band 6">
        <r>  0.0000  0.0000  0.1128  0.1128  0.0000  0.0000  0.0000  0.0000  0.0000 </r>
       </set>
       <set comment="band 7">
        <r>  0.0000  0.1504  0.0376  0.0376  0.0000  0.0000  0.0000  0.0000  0.0000 </r>
       </set>
       <set comment="band 8">
        <r>  0.0000  0.0042  0.0010  0.0010  0.0000  0.0000  0.0000  0.0000  0.0000 </r>
       </set>
       <set comment="band 9">
        <r>  0.0000  0.0000  0.0031  0.0031  0.0000  0.0000  0.0000  0.0000  0.0000 </r>
       </set>
       <set comment="band 10">
        <r>  0.0016  0.0464  0.0464  0.0464  0.0000  0.0000  0.0000  0.0000  0.0000 </r>
       </set>
       <set comment="band 11">
        <r>  0.0572  0.0011  0.0011  0.0011  0.0000  0.0000  0.0000  0.0000  0.0000 </r>
       </set>
       <set comment="band 12">
        <r>  0.2528  0.0136  0.0136  0.0136  0.0000  0.0000  0.0000  0.0000  0.0000 </r>
       </set>
       <set comment="band 13">
        <r>  0.0000  0.0302  0.0075  0.0075  0.0000  0.0000  0.0000  0.0000  0.0000 </r>
       </set>
       <set comment="band 14">
        <r>  0.0000  0.0000  0.0226  0.0226  0.0000  0.0000  0.0000  0.0000  0.0000 </r>
       </set>
       <set comment="band 15">
        <r>  0.1188  0.0276  0.0276  0.0276  0.0000  0.0000  0.0000  0.0000  0.0000 </r>
       </set>
       <set comment="band 16">
        <r>  0.0000  0.0237  0.0050  0.0070  0.0000  0.0000  0.0000  0.0000  0.0000 </r>
       </set>
      </set>
      <set comment="kpoint 8">
       <set comment="band 1">
        <r>  0.3766  0.0030  0.0030  0.0030  0.0000  0.0000  0.0000  0.0000  0.0000 </r>
       </set>
       <set comment="band 2">
        <r>  0.0302  0.1142  0.1142  0.1142  0.0000  0.0000  0.0000  0.0000  0.0000 </r>
       </set>
       <set comment="band 3">
        <r>  0.0000  0.3180  0.0795  0.0795  0.0000  0.0000  0.0000  0.0000  0.0000 </r>
       </set>
       <set comment="band 4">
        <r>  0.0000  0.0000  0.2385  0.2385  0.0000  0.0000  0.0000  0.0000  0.0000 </r>
       </set>
       <set comment="band 5">
        <r>  0.0419  0.0753  0.0753  0.0753  0.0000  0.0000  0.0000  0.0000  0.0000 </r>
       </set>
       <set comment="band 6">
        <r>  0.0000  0.0000  0.1084  0.1084  0.0000  0.0000  0.0000  0.0000  0.0000 </r>
       </set>
       <set comment="band 7">
        <r>  0.0000  0.1446  0.0361  0.0361  0.0000  0.0000  0.0000  0.0000  0.0000 </r>
       </set>
       <set comment="band 8">
        <r>  0.0000  0.0017  0.0004  0.0004  0.0000  0.0000  0.0000  0.0000  0.0000 </r>
       </set>
       <set comment="band 9">
        <r>  0.0000  0.0000  0.0013  0.0013  0.0000  0.0000  0.0000  0.0000  0.0000 </r>
       </set>
       <set comment="band 10">
        <r>  0.0065  0.0060  0.0060  0.0060  0.0000  0.0000  0.0000  0.0000  0.0000 </r>
       </set>
       <set comment="band 11">
        <r>  0.0711  0.0381  0.0381  0.0381  0.0000  0.0000  0.0000  0.0000  0.0000 </r>
       </set>
       <set comment="band 12">
        <r>  0.2361  0.0001  0.0001  0.0001  0.0000  0.0000  0.0000  0.0000  0.0000 </r>
       </set>
       <set comment="band 13">
        <r>  0.0000  0.0000  0.0302  0.0302  0.0000  0.0000  0.0000  0.0000  0.0000 </r>
       </set>
       <set comment="band 14">
        <r>  0.0000  0.0402  0.0101  0.0101  0.0000  0.0000  0.0000  0.0000  0.0000 </r>
       </set>
       <set comment="band 15">
        <r>  0.1851  0.0181  0.0181  0.0181  0.0000  0.0000  0.0000  0.0000  0.0000 </r>
       </set>
       <set comment="band 16">
        <r>  0.0000  0.0114  0.0002  0.0096  0.0000  0.0000  0.0000  0.0000  0.0000 </r>
       </set>
      </set>
      <set comment="kpoint 9">
       <set comment="band 1">
        <r>  0.3826  0.0008  0.0008  0.0008  0.0000  0.0000  0.0000  0.0000  0.0000 </r>
       </set>
       <set comment="band 2">
        <r>  0.0112  0.1380  0.1380  0.1380  0.0000  0.0000  0.0000  0.0000  0.0000 </r>
       </set>
       <set comment="band 3">
        <r>  0.0000  0.3542  0.0885  0.0885  0.0000  0.0000  0.0000  0.0000  0.0000 </r>
       </set>
       <set comment="band 4">
        <r>  0.0000  0.0000  0.2656  0.2656  0.0000  0.0000  0.0000  0.0000  0.0000 </r>
       </set>
       <set comment="band 5">
        <r>  0.0000  0.0000  0.0757  0.0757  0.0000  0.0000  0.0000  0.0000  0.0000 </r>
       </set>
       <set comment="band 6">
        <r>  0.0000  0.1009  0.0252  0.0252  0.0000  0.0000  0.0000  0.0000  0.0000 </r>
       </set>
       <set comment="band 7">
        <r>  0.0093  0.0783  0.0783  0.0783  0.0000  0.0000  0.0000  0.0000  0.0000 </r>
       </set>
       <set comment="band 8">
        <r>  0.0003  0.0012  0.0012  0.0012  0.0000  0.0000  0.0000  0.0000  0.0000 </r>
       </set>
       <set comment="band 9">
        <r>  0.0000  0.0023  0.0006  0.0006  0.0000  0.0000  0.0000  0.0000  0.0000 </r>
       </set>
       <set comment="band 10">
        <r>  0.0000  0.0000  0.0017  0.0017  0.0000  0.0000  0.0000  0.0000  0.0000 </r>
       </set>
       <set comment="band 11">
        <r>  0.1971  0.0172  0.0172  0.0172  0.0000  0.0000  0.0000  0.0000  0.0000 </r>
       </set>
       <set comment="band 12">
        <r>  0.0981  0.0128  0.0128  0.0128  0.0000  0.0000  0.0000  0.0000  0.0000 </r>
       </set>
       <set comment="band 13">
        <r>  0.0000  0.0000  0.0380  0.0380  0.0000  0.0000  0.0000  0.0000  0.0000 </r>
       </set>
       <set comment="band 14">
        <r>  0.0000  0.0506  0.0127  0.0127  0.0000  0.0000  0.0000  0.0000  0.0000 </r>
       </set>
       <set comment="band 15">
        <r>  0.2571  0.0064  0.0064  0.0064  0.0000  0.0000  0.0000  0.0000  0.0000 </r>
       </set>
       <set comment="band 16">
        <r>  0.0000  0.0023  0.0045  0.0010  0.0000  0.0000  0.0000  0.0000  0.0000 </r>
       </set>
      </set>
      <set comment="kpoint 10">
       <set comment="band 1">
        <r>  0.3839  0.0000  0.0000  0.0000  0.0000  0.0000  0.0000  0.0000  0.0000 </r>
       </set>
       <set comment="band 2">
        <r>  0.0000  0.2265  0.2255  0.2255  0.0000  0.0000  0.0000  0.0000  0.0000 </r>
       </set>
       <set comment="band 3">
        <r>  0.0000  0.4510  0.1133  0.1133  0.0000  0.0000  0.0000  0.0000  0.0000 </r>
       </set>
       <set comment="band 4">
        <r>  0.0000  0.0000  0.3388  0.3388  0.0000  0.0000  0.0000  0.0000  0.0000 </r>
       </set>
       <set comment="band 5">
        <r>  0.0000  0.0000  0.0000  0.0000  0.0000  0.0000  0.0000  0.0000  0.0000 </r>
       </set>
       <set comment="band 6">
        <r>  0.0000  0.0000  0.0000  0.0000  0.0000  0.0000  0.0000  0.0000  0.0000 </r>
       </set>
       <set comment="band 7">
        <r>  0.0000  0.0000  0.0000  0.0000  0.0000  0.0000  0.0000  0.0000  0.0000 </r>
       </set>
       <set comment="band 8">
        <r>  0.0000  0.0000  0.0000  0.0000  0.0000  0.0000  0.0000  0.0000  0.0000 </r>
       </set>
       <set comment="band 9">
        <r>  0.0000  0.0000  0.0000  0.0000  0.0000  0.0000  0.0000  0.0000  0.0000 </r>
       </set>
       <set comment="band 10">
        <r>  0.0000  0.0000  0.0000  0.0000  0.0000  0.0000  0.0000  0.0000  0.0000 </r>
       </set>
       <set comment="band 11">
        <r>  0.2792  0.0000  0.0000  0.0000  0.0000  0.0000  0.0000  0.0000  0.0000 </r>
       </set>
       <set comment="band 12">
        <r>  0.0000  0.0000  0.0424  0.0424  0.0000  0.0000  0.0000  0.0000  0.0000 </r>
       </set>
       <set comment="band 13">
        <r>  0.0000  0.0565  0.0141  0.0141  0.0000  0.0000  0.0000  0.0000  0.0000 </r>
       </set>
       <set comment="band 14">
        <r>  0.0000  0.0282  0.0283  0.0283  0.0000  0.0000  0.0000  0.0000  0.0000 </r>
       </set>
       <set comment="band 15">
        <r>  0.2941  0.0000  0.0000  0.0000  0.0000  0.0000  0.0000  0.0000  0.0000 </r>
       </set>
       <set comment="band 16">
        <r>  0.0000  0.0000  0.0000  0.0000  0.0000  0.0000  0.0000  0.0000  0.0000 </r>
       </set>
      </set>
      <set comment="kpoint 11">
       <set comment="band 1">
        <r>  0.3839  0.0000  0.0000  0.0000  0.0000  0.0000  0.0000  0.0000  0.0000 </r>
       </set>
       <set comment="band 2">
        <r>  0.0000  0.2265  0.2255  0.2255  0.0000  0.0000  0.0000  0.0000  0.0000 </r>
       </set>
       <set comment="band 3">
        <r>  0.0000  0.4510  0.1133  0.1133  0.0000  0.0000  0.0000  0.0000  0.0000 </r>
       </set>
       <set comment="band 4">
        <r>  0.0000  0.0000  0.3388  0.3388  0.0000  0.0000  0.0000  0.0000  0.0000 </r>
       </set>
       <set comment="band 5">
        <r>  0.0000  0.0000  0.0000  0.0000  0.0000  0.0000  0.0000  0.0000  0.0000 </r>
       </set>
       <set comment="band 6">
        <r>  0.0000  0.0000  0.0000  0.0000  0.0000  0.0000  0.0000  0.0000  0.0000 </r>
       </set>
       <set comment="band 7">
        <r>  0.0000  0.0000  0.0000  0.0000  0.0000  0.0000  0.0000  0.0000  0.0000 </r>
       </set>
       <set comment="band 8">
        <r>  0.0000  0.0000  0.0000  0.0000  0.0000  0.0000  0.0000  0.0000  0.0000 </r>
       </set>
       <set comment="band 9">
        <r>  0.0000  0.0000  0.0000  0.0000  0.0000  0.0000  0.0000  0.0000  0.0000 </r>
       </set>
       <set comment="band 10">
        <r>  0.0000  0.0000  0.0000  0.0000  0.0000  0.0000  0.0000  0.0000  0.0000 </r>
       </set>
       <set comment="band 11">
        <r>  0.2792  0.0000  0.0000  0.0000  0.0000  0.0000  0.0000  0.0000  0.0000 </r>
       </set>
       <set comment="band 12">
        <r>  0.0000  0.0000  0.0424  0.0424  0.0000  0.0000  0.0000  0.0000  0.0000 </r>
       </set>
       <set comment="band 13">
        <r>  0.0000  0.0565  0.0141  0.0141  0.0000  0.0000  0.0000  0.0000  0.0000 </r>
       </set>
       <set comment="band 14">
        <r>  0.0000  0.0282  0.0283  0.0283  0.0000  0.0000  0.0000  0.0000  0.0000 </r>
       </set>
       <set comment="band 15">
        <r>  0.2941  0.0000  0.0000  0.0000  0.0000  0.0000  0.0000  0.0000  0.0000 </r>
       </set>
       <set comment="band 16">
        <r>  0.0000  0.0000  0.0000  0.0000  0.0000  0.0000  0.0000  0.0000  0.0000 </r>
       </set>
      </set>
      <set comment="kpoint 12">
       <set comment="band 1">
        <r>  0.3821  0.0000  0.0000  0.0031  0.0000  0.0000  0.0000  0.0000  0.0000 </r>
       </set>
       <set comment="band 2">
        <r>  0.0000  0.2281  0.2270  0.0000  0.0000  0.0000  0.0000  0.0000  0.0000 </r>
       </set>
       <set comment="band 3">
        <r>  0.0000  0.2271  0.2281  0.0000  0.0000  0.0000  0.0000  0.0000  0.0000 </r>
       </set>
       <set comment="band 4">
        <r>  0.0263  0.0000  0.0000  0.6516  0.0000  0.0000  0.0000  0.0000  0.0000 </r>
       </set>
       <set comment="band 5">
        <r>  0.0000  0.0000  0.0000  0.0000  0.0000  0.0000  0.0000  0.0000  0.0000 </r>
       </set>
       <set comment="band 6">
        <r>  0.0000  0.1149  0.1112  0.0000  0.0000  0.0000  0.0000  0.0000  0.0000 </r>
       </set>
       <set comment="band 7">
        <r>  0.0000  0.1112  0.1149  0.0000  0.0000  0.0000  0.0000  0.0000  0.0000 </r>
       </set>
       <set comment="band 8">
        <r>  0.0016  0.0000  0.0000  0.0126  0.0000  0.0000  0.0000  0.0000  0.0000 </r>
       </set>
       <set comment="band 9">
        <r>  0.0000  0.0000  0.0000  0.0000  0.0000  0.0000  0.0000  0.0000  0.0000 </r>
       </set>
       <set comment="band 10">
        <r>  0.0000  0.0000  0.0000  0.0000  0.0000  0.0000  0.0000  0.0000  0.0000 </r>
       </set>
       <set comment="band 11">
        <r>  0.2087  0.0000  0.0000  0.0425  0.0000  0.0000  0.0000  0.0000  0.0000 </r>
       </set>
       <set comment="band 12">
        <r>  0.0000  0.0402  0.0402  0.0000  0.0000  0.0000  0.0000  0.0000  0.0000 </r>
       </set>
       <set comment="band 13">
        <r>  0.0000  0.0402  0.0402  0.0000  0.0000  0.0000  0.0000  0.0000  0.0000 </r>
       </set>
       <set comment="band 14">
        <r>  0.0959  0.0000  0.0000  0.0300  0.0000  0.0000  0.0000  0.0000  0.0000 </r>
       </set>
       <set comment="band 15">
        <r>  0.2404  0.0000  0.0000  0.0256  0.0000  0.0000  0.0000  0.0000  0.0000 </r>
       </set>
       <set comment="band 16">
        <r>  0.0000  0.0102  0.0108  0.0000  0.0000  0.0000  0.0000  0.0000  0.0000 </r>
       </set>
      </set>
      <set comment="kpoint 13">
       <set comment="band 1">
        <r>  0.3741  0.0000  0.0000  0.0120  0.0000  0.0000  0.0000  0.0000  0.0000 </r>
       </set>
       <set comment="band 2">
        <r>  0.0000  0.2141  0.2130  0.0000  0.0000  0.0000  0.0000  0.0000  0.0000 </r>
       </set>
       <set comment="band 3">
        <r>  0.0000  0.2131  0.2142  0.0000  0.0000  0.0000  0.0000  0.0000  0.0000 </r>
       </set>
       <set comment="band 4">
        <r>  0.0893  0.0000  0.0000  0.5918  0.0000  0.0000  0.0000  0.0000  0.0000 </r>
       </set>
       <set comment="band 5">
        <r>  0.0000  0.0000  0.0000  0.0000  0.0000  0.0000  0.0000  0.0000  0.0000 </r>
       </set>
       <set comment="band 6">
        <r>  0.0034  0.0000  0.0000  0.0198  0.0000  0.0000  0.0000  0.0000  0.0000 </r>
       </set>
       <set comment="band 7">
        <r>  0.0000  0.1296  0.1264  0.0000  0.0000  0.0000  0.0000  0.0000  0.0000 </r>
       </set>
       <set comment="band 8">
        <r>  0.0000  0.1264  0.1296  0.0000  0.0000  0.0000  0.0000  0.0000  0.0000 </r>
       </set>
       <set comment="band 9">
        <r>  0.0000  0.0000  0.0000  0.0000  0.0000  0.0000  0.0000  0.0000  0.0000 </r>
       </set>
       <set comment="band 10">
        <r>  0.0000  0.0000  0.0000  0.0000  0.0000  0.0000  0.0000  0.0000  0.0000 </r>
       </set>
       <set comment="band 11">
        <r>  0.1297  0.0000  0.0000  0.0833  0.0000  0.0000  0.0000  0.0000  0.0000 </r>
       </set>
       <set comment="band 12">
        <r>  0.0000  0.0348  0.0348  0.0000  0.0000  0.0000  0.0000  0.0000  0.0000 </r>
       </set>
       <set comment="band 13">
        <r>  0.0000  0.0347  0.0348  0.0000  0.0000  0.0000  0.0000  0.0000  0.0000 </r>
       </set>
       <set comment="band 14">
        <r>  0.2171  0.0000  0.0000  0.0007  0.0000  0.0000  0.0000  0.0000  0.0000 </r>
       </set>
       <set comment="band 15">
        <r>  0.1311  0.0000  0.0000  0.0618  0.0000  0.0000  0.0000  0.0000  0.0000 </r>
       </set>
       <set comment="band 16">
        <r>  0.0000  0.0097  0.0372  0.0000  0.0000  0.0000  0.0000  0.0000  0.0000 </r>
       </set>
      </set>
      <set comment="kpoint 14">
       <set comment="band 1">
        <r>  0.3607  0.0000  0.0000  0.0266  0.0000  0.0000  0.0000  0.0000  0.0000 </r>
       </set>
       <set comment="band 2">
        <r>  0.0000  0.2154  0.2142  0.0000  0.0000  0.0000  0.0000  0.0000  0.0000 </r>
       </set>
       <set comment="band 3">
        <r>  0.0000  0.2142  0.2154  0.0000  0.0000  0.0000  0.0000  0.0000  0.0000 </r>
       </set>
       <set comment="band 4">
        <r>  0.0000  0.0000  0.0000  0.0000  0.0000  0.0000  0.0000  0.0000  0.0000 </r>
       </set>
       <set comment="band 5">
        <r>  0.1567  0.0000  0.0000  0.5294  0.0000  0.0000  0.0000  0.0000  0.0000 </r>
       </set>
       <set comment="band 6">
        <r>  0.0136  0.0000  0.0000  0.0032  0.0000  0.0000  0.0000  0.0000  0.0000 </r>
       </set>
       <set comment="band 7">
        <r>  0.0000  0.1276  0.1262  0.0000  0.0000  0.0000  0.0000  0.0000  0.0000 </r>
       </set>
       <set comment="band 8">
        <r>  0.0000  0.1263  0.1276  0.0000  0.0000  0.0000  0.0000  0.0000  0.0000 </r>
       </set>
       <set comment="band 9">
        <r>  0.0000  0.0000  0.0000  0.0000  0.0000  0.0000  0.0000  0.0000  0.0000 </r>
       </set>
       <set comment="band 10">
        <r>  0.0000  0.0000  0.0000  0.0000  0.0000  0.0000  0.0000  0.0000  0.0000 </r>
       </set>
       <set comment="band 11">
        <r>  0.0661  0.0000  0.0000  0.1010  0.0000  0.0000  0.0000  0.0000  0.0000 </r>
       </set>
       <set comment="band 12">
        <r>  0.0000  0.0269  0.0269  0.0000  0.0000  0.0000  0.0000  0.0000  0.0000 </r>
       </set>
       <set comment="band 13">
        <r>  0.0000  0.0269  0.0269  0.0000  0.0000  0.0000  0.0000  0.0000  0.0000 </r>
       </set>
       <set comment="band 14">
        <r>  0.2707  0.0000  0.0000  0.0469  0.0000  0.0000  0.0000  0.0000  0.0000 </r>
       </set>
       <set comment="band 15">
        <r>  0.0586  0.0000  0.0000  0.0672  0.0000  0.0000  0.0000  0.0000  0.0000 </r>
       </set>
       <set comment="band 16">
        <r>  0.0000  0.0404  0.0327  0.0000  0.0000  0.0000  0.0000  0.0000  0.0000 </r>
       </set>
      </set>
      <set comment="kpoint 15">
       <set comment="band 1">
        <r>  0.3427  0.0000  0.0000  0.0461  0.0000  0.0000  0.0000  0.0000  0.0000 </r>
       </set>
       <set comment="band 2">
        <r>  0.0000  0.2205  0.2192  0.0000  0.0000  0.0000  0.0000  0.0000  0.0000 </r>
       </set>
       <set comment="band 3">
        <r>  0.0000  0.2193  0.2205  0.0000  0.0000  0.0000  0.0000  0.0000  0.0000 </r>
       </set>
       <set comment="band 4">
        <r>  0.1830  0.0000  0.0000  0.4429  0.0000  0.0000  0.0000  0.0000  0.0000 </r>
       </set>
       <set comment="band 5">
        <r>  0.0000  0.0000  0.0000  0.0000  0.0000  0.0000  0.0000  0.0000  0.0000 </r>
       </set>
       <set comment="band 6">
        <r>  0.0656  0.0000  0.0000  0.0107  0.0000  0.0000  0.0000  0.0000  0.0000 </r>
       </set>
       <set comment="band 7">
        <r>  0.0000  0.1193  0.1183  0.0000  0.0000  0.0000  0.0000  0.0000  0.0000 </r>
       </set>
       <set comment="band 8">
        <r>  0.0000  0.1183  0.1193  0.0000  0.0000  0.0000  0.0000  0.0000  0.0000 </r>
       </set>
       <set comment="band 9">
        <r>  0.0000  0.0000  0.0000  0.0000  0.0000  0.0000  0.0000  0.0000  0.0000 </r>
       </set>
       <set comment="band 10">
        <r>  0.0000  0.0000  0.0000  0.0000  0.0000  0.0000  0.0000  0.0000  0.0000 </r>
       </set>
       <set comment="band 11">
        <r>  0.0227  0.0000  0.0000  0.0835  0.0000  0.0000  0.0000  0.0000  0.0000 </r>
       </set>
       <set comment="band 12">
        <r>  0.0000  0.0188  0.0188  0.0000  0.0000  0.0000  0.0000  0.0000  0.0000 </r>
       </set>
       <set comment="band 13">
        <r>  0.0000  0.0188  0.0188  0.0000  0.0000  0.0000  0.0000  0.0000  0.0000 </r>
       </set>
       <set comment="band 14">
        <r>  0.2610  0.0000  0.0000  0.1460  0.0000  0.0000  0.0000  0.0000  0.0000 </r>
       </set>
       <set comment="band 15">
        <r>  0.0245  0.0000  0.0000  0.0531  0.0000  0.0000  0.0000  0.0000  0.0000 </r>
       </set>
       <set comment="band 16">
        <r>  0.0000  0.0063  0.0949  0.0000  0.0000  0.0000  0.0000  0.0000  0.0000 </r>
       </set>
      </set>
      <set comment="kpoint 16">
       <set comment="band 1">
        <r>  0.3207  0.0000  0.0000  0.0708  0.0000  0.0000  0.0000  0.0000  0.0000 </r>
       </set>
       <set comment="band 2">
        <r>  0.1743  0.0000  0.0000  0.3391  0.0000  0.0000  0.0000  0.0000  0.0000 </r>
       </set>
       <set comment="band 3">
        <r>  0.0000  0.2247  0.2236  0.0000  0.0000  0.0000  0.0000  0.0000  0.0000 </r>
       </set>
       <set comment="band 4">
        <r>  0.0000  0.2237  0.2247  0.0000  0.0000  0.0000  0.0000  0.0000  0.0000 </r>
       </set>
       <set comment="band 5">
        <r>  0.0000  0.0000  0.0000  0.0000  0.0000  0.0000  0.0000  0.0000  0.0000 </r>
       </set>
       <set comment="band 6">
        <r>  0.1469  0.0000  0.0000  0.0382  0.0000  0.0000  0.0000  0.0000  0.0000 </r>
       </set>
       <set comment="band 7">
        <r>  0.0000  0.1084  0.1043  0.0000  0.0000  0.0000  0.0000  0.0000  0.0000 </r>
       </set>
       <set comment="band 8">
        <r>  0.0000  0.1042  0.1084  0.0000  0.0000  0.0000  0.0000  0.0000  0.0000 </r>
       </set>
       <set comment="band 9">
        <r>  0.0000  0.0000  0.0000  0.0000  0.0000  0.0000  0.0000  0.0000  0.0000 </r>
       </set>
       <set comment="band 10">
        <r>  0.0020  0.0000  0.0000  0.0432  0.0000  0.0000  0.0000  0.0000  0.0000 </r>
       </set>
       <set comment="band 11">
        <r>  0.0000  0.0000  0.0000  0.0000  0.0000  0.0000  0.0000  0.0000  0.0000 </r>
       </set>
       <set comment="band 12">
        <r>  0.0000  0.0135  0.0134  0.0000  0.0000  0.0000  0.0000  0.0000  0.0000 </r>
       </set>
       <set comment="band 13">
        <r>  0.0000  0.0134  0.0135  0.0000  0.0000  0.0000  0.0000  0.0000  0.0000 </r>
       </set>
       <set comment="band 14">
        <r>  0.2101  0.0000  0.0000  0.2681  0.0000  0.0000  0.0000  0.0000  0.0000 </r>
       </set>
       <set comment="band 15">
        <r>  0.0000  0.0662  0.0661  0.0000  0.0000  0.0000  0.0000  0.0000  0.0000 </r>
       </set>
       <set comment="band 16">
        <r>  0.0000  0.0661  0.0662  0.0000  0.0000  0.0000  0.0000  0.0000  0.0000 </r>
       </set>
      </set>
      <set comment="kpoint 17">
       <set comment="band 1">
        <r>  0.2936  0.0000  0.0000  0.0991  0.0000  0.0000  0.0000  0.0000  0.0000 </r>
       </set>
       <set comment="band 2">
        <r>  0.1792  0.0000  0.0000  0.2729  0.0000  0.0000  0.0000  0.0000  0.0000 </r>
       </set>
       <set comment="band 3">
        <r>  0.0000  0.2300  0.2289  0.0000  0.0000  0.0000  0.0000  0.0000  0.0000 </r>
       </set>
       <set comment="band 4">
        <r>  0.0000  0.2289  0.2300  0.0000  0.0000  0.0000  0.0000  0.0000  0.0000 </r>
       </set>
       <set comment="band 5">
        <r>  0.0000  0.0000  0.0000  0.0000  0.0000  0.0000  0.0000  0.0000  0.0000 </r>
       </set>
       <set comment="band 6">
        <r>  0.2099  0.0000  0.0000  0.0350  0.0000  0.0000  0.0000  0.0000  0.0000 </r>
       </set>
       <set comment="band 7">
        <r>  0.0000  0.0000  0.0000  0.0000  0.0000  0.0000  0.0000  0.0000  0.0000 </r>
       </set>
       <set comment="band 8">
        <r>  0.0000  0.0872  0.0806  0.0000  0.0000  0.0000  0.0000  0.0000  0.0000 </r>
       </set>
       <set comment="band 9">
        <r>  0.0000  0.0806  0.0871  0.0000  0.0000  0.0000  0.0000  0.0000  0.0000 </r>
       </set>
       <set comment="band 10">
        <r>  0.0031  0.0000  0.0000  0.0025  0.0000  0.0000  0.0000  0.0000  0.0000 </r>
       </set>
       <set comment="band 11">
        <r>  0.0000  0.0168  0.0168  0.0000  0.0000  0.0000  0.0000  0.0000  0.0000 </r>
       </set>
       <set comment="band 12">
        <r>  0.0000  0.0168  0.0168  0.0000  0.0000  0.0000  0.0000  0.0000  0.0000 </r>
       </set>
       <set comment="band 13">
        <r>  0.0000  0.0000  0.0000  0.0000  0.0000  0.0000  0.0000  0.0000  0.0000 </r>
       </set>
       <set comment="band 14">
        <r>  0.1309  0.0000  0.0000  0.3762  0.0000  0.0000  0.0000  0.0000  0.0000 </r>
       </set>
       <set comment="band 15">
        <r>  0.0000  0.0000  0.0000  0.0000  0.0000  0.0000  0.0000  0.0000  0.0000 </r>
       </set>
       <set comment="band 16">
        <r>  0.0000  0.0850  0.0753  0.0000  0.0000  0.0000  0.0000  0.0000  0.0000 </r>
       </set>
      </set>
      <set comment="kpoint 18">
       <set comment="band 1">
        <r>  0.2620  0.0000  0.0000  0.1335  0.0000  0.0000  0.0000  0.0000  0.0000 </r>
       </set>
       <set comment="band 2">
        <r>  0.2017  0.0000  0.0000  0.2251  0.0000  0.0000  0.0000  0.0000  0.0000 </r>
       </set>
       <set comment="band 3">
        <r>  0.0000  0.2337  0.2325  0.0000  0.0000  0.0000  0.0000  0.0000  0.0000 </r>
       </set>
       <set comment="band 4">
        <r>  0.0000  0.2325  0.2337  0.0000  0.0000  0.0000  0.0000  0.0000  0.0000 </r>
       </set>
       <set comment="band 5">
        <r>  0.0000  0.0000  0.0000  0.0000  0.0000  0.0000  0.0000  0.0000  0.0000 </r>
       </set>
       <set comment="band 6">
        <r>  0.2483  0.0000  0.0000  0.0195  0.0000  0.0000  0.0000  0.0000  0.0000 </r>
       </set>
       <set comment="band 7">
        <r>  0.0000  0.0000  0.0000  0.0000  0.0000  0.0000  0.0000  0.0000  0.0000 </r>
       </set>
       <set comment="band 8">
        <r>  0.0000  0.0569  0.0567  0.0000  0.0000  0.0000  0.0000  0.0000  0.0000 </r>
       </set>
       <set comment="band 9">
        <r>  0.0000  0.0567  0.0569  0.0000  0.0000  0.0000  0.0000  0.0000  0.0000 </r>
       </set>
       <set comment="band 10">
        <r>  0.0160  0.0000  0.0000  0.0328  0.0000  0.0000  0.0000  0.0000  0.0000 </r>
       </set>
       <set comment="band 11">
        <r>  0.0000  0.0609  0.0608  0.0000  0.0000  0.0000  0.0000  0.0000  0.0000 </r>
       </set>
       <set comment="band 12">
        <r>  0.0000  0.0608  0.0609  0.0000  0.0000  0.0000  0.0000  0.0000  0.0000 </r>
       </set>
       <set comment="band 13">
        <r>  0.0452  0.0000  0.0000  0.3823  0.0000  0.0000  0.0000  0.0000  0.0000 </r>
       </set>
       <set comment="band 14">
        <r>  0.0000  0.0000  0.0000  0.0000  0.0000  0.0000  0.0000  0.0000  0.0000 </r>
       </set>
       <set comment="band 15">
        <r>  0.0000  0.0000  0.0000  0.0000  0.0000  0.0000  0.0000  0.0000  0.0000 </r>
       </set>
       <set comment="band 16">
        <r>  0.0000  0.0765  0.0434  0.0000  0.0000  0.0000  0.0000  0.0000  0.0000 </r>
       </set>
      </set>
      <set comment="kpoint 19">
       <set comment="band 1">
        <r>  0.2146  0.0000  0.0000  0.1787  0.0000  0.0000  0.0000  0.0000  0.0000 </r>
       </set>
       <set comment="band 2">
        <r>  0.2442  0.0000  0.0000  0.1760  0.0000  0.0000  0.0000  0.0000  0.0000 </r>
       </set>
       <set comment="band 3">
        <r>  0.0000  0.2363  0.2351  0.0000  0.0000  0.0000  0.0000  0.0000  0.0000 </r>
       </set>
       <set comment="band 4">
        <r>  0.0000  0.2351  0.2363  0.0000  0.0000  0.0000  0.0000  0.0000  0.0000 </r>
       </set>
       <set comment="band 5">
        <r>  0.0000  0.0000  0.0000  0.0000  0.0000  0.0000  0.0000  0.0000  0.0000 </r>
       </set>
       <set comment="band 6">
        <r>  0.2713  0.0000  0.0000  0.0052  0.0000  0.0000  0.0000  0.0000  0.0000 </r>
       </set>
       <set comment="band 7">
        <r>  0.0000  0.0000  0.0000  0.0000  0.0000  0.0000  0.0000  0.0000  0.0000 </r>
       </set>
       <set comment="band 8">
        <r>  0.0000  0.0218  0.0218  0.0000  0.0000  0.0000  0.0000  0.0000  0.0000 </r>
       </set>
       <set comment="band 9">
        <r>  0.0000  0.0218  0.0218  0.0000  0.0000  0.0000  0.0000  0.0000  0.0000 </r>
       </set>
       <set comment="band 10">
        <r>  0.0134  0.0000  0.0000  0.1973  0.0000  0.0000  0.0000  0.0000  0.0000 </r>
       </set>
       <set comment="band 11">
        <r>  0.0000  0.1336  0.1335  0.0000  0.0000  0.0000  0.0000  0.0000  0.0000 </r>
       </set>
       <set comment="band 12">
        <r>  0.0000  0.1335  0.1336  0.0000  0.0000  0.0000  0.0000  0.0000  0.0000 </r>
       </set>
       <set comment="band 13">
        <r>  0.0000  0.0000  0.0000  0.0000  0.0000  0.0000  0.0000  0.0000  0.0000 </r>
       </set>
       <set comment="band 14">
        <r>  0.0011  0.0000  0.0000  0.1855  0.0000  0.0000  0.0000  0.0000  0.0000 </r>
       </set>
       <set comment="band 15">
        <r>  0.0000  0.0000  0.0000  0.0000  0.0000  0.0000  0.0000  0.0000  0.0000 </r>
       </set>
       <set comment="band 16">
        <r>  0.0000  0.0087  0.0282  0.0000  0.0000  0.0000  0.0000  0.0000  0.0000 </r>
       </set>
      </set>
      <set comment="kpoint 20">
       <set comment="band 1">
        <r>  0.0000  0.0000  0.0000  0.3542  0.0000  0.0000  0.0000  0.0000  0.0000 </r>
       </set>
       <set comment="band 2">
        <r>  0.4579  0.0000  0.0000  0.0000  0.0000  0.0000  0.0000  0.0000  0.0000 </r>
       </set>
       <set comment="band 3">
        <r>  0.0000  0.2372  0.2360  0.0000  0.0000  0.0000  0.0000  0.0000  0.0000 </r>
       </set>
       <set comment="band 4">
        <r>  0.0000  0.2360  0.2373  0.0000  0.0000  0.0000  0.0000  0.0000  0.0000 </r>
       </set>
       <set comment="band 5">
        <r>  0.0000  0.0000  0.0000  0.0000  0.0000  0.0000  0.0000  0.0000  0.0000 </r>
       </set>
       <set comment="band 6">
        <r>  0.2780  0.0000  0.0000  0.0000  0.0000  0.0000  0.0000  0.0000  0.0000 </r>
       </set>
       <set comment="band 7">
        <r>  0.0000  0.0000  0.0000  0.0000  0.0000  0.0000  0.0000  0.0000  0.0000 </r>
       </set>
       <set comment="band 8">
        <r>  0.0000  0.0000  0.0000  0.0000  0.0000  0.0000  0.0000  0.0000  0.0000 </r>
       </set>
       <set comment="band 9">
        <r>  0.0000  0.0000  0.0000  0.0000  0.0000  0.0000  0.0000  0.0000  0.0000 </r>
       </set>
       <set comment="band 10">
        <r>  0.0000  0.1606  0.1605  0.0000  0.0000  0.0000  0.0000  0.0000  0.0000 </r>
       </set>
       <set comment="band 11">
        <r>  0.0000  0.1605  0.1606  0.0000  0.0000  0.0000  0.0000  0.0000  0.0000 </r>
       </set>
       <set comment="band 12">
        <r>  0.0000  0.0000  0.0000  0.3330  0.0000  0.0000  0.0000  0.0000  0.0000 </r>
       </set>
       <set comment="band 13">
        <r>  0.0000  0.0000  0.0000  0.0000  0.0000  0.0000  0.0000  0.0000  0.0000 </r>
       </set>
       <set comment="band 14">
        <r>  0.0048  0.0000  0.0000  0.0000  0.0000  0.0000  0.0000  0.0000  0.0000 </r>
       </set>
       <set comment="band 15">
        <r>  0.0000  0.0000  0.0000  0.0000  0.0000  0.0000  0.0000  0.0000  0.0000 </r>
       </set>
       <set comment="band 16">
        <r>  0.0000  0.0000  0.0000  0.0000  0.0000  0.0000  0.0000  0.0000  0.0000 </r>
       </set>
      </set>
      <set comment="kpoint 21">
       <set comment="band 1">
        <r>  0.0000  0.0000  0.0000  0.3542  0.0000  0.0000  0.0000  0.0000  0.0000 </r>
       </set>
       <set comment="band 2">
        <r>  0.4579  0.0000  0.0000  0.0000  0.0000  0.0000  0.0000  0.0000  0.0000 </r>
       </set>
       <set comment="band 3">
        <r>  0.0000  0.2372  0.2360  0.0000  0.0000  0.0000  0.0000  0.0000  0.0000 </r>
       </set>
       <set comment="band 4">
        <r>  0.0000  0.2360  0.2373  0.0000  0.0000  0.0000  0.0000  0.0000  0.0000 </r>
       </set>
       <set comment="band 5">
        <r>  0.0000  0.0000  0.0000  0.0000  0.0000  0.0000  0.0000  0.0000  0.0000 </r>
       </set>
       <set comment="band 6">
        <r>  0.2780  0.0000  0.0000  0.0000  0.0000  0.0000  0.0000  0.0000  0.0000 </r>
       </set>
       <set comment="band 7">
        <r>  0.0000  0.0000  0.0000  0.0000  0.0000  0.0000  0.0000  0.0000  0.0000 </r>
       </set>
       <set comment="band 8">
        <r>  0.0000  0.0000  0.0000  0.0000  0.0000  0.0000  0.0000  0.0000  0.0000 </r>
       </set>
       <set comment="band 9">
        <r>  0.0000  0.0000  0.0000  0.0000  0.0000  0.0000  0.0000  0.0000  0.0000 </r>
       </set>
       <set comment="band 10">
        <r>  0.0000  0.1606  0.1605  0.0000  0.0000  0.0000  0.0000  0.0000  0.0000 </r>
       </set>
       <set comment="band 11">
        <r>  0.0000  0.1605  0.1606  0.0000  0.0000  0.0000  0.0000  0.0000  0.0000 </r>
       </set>
       <set comment="band 12">
        <r>  0.0000  0.0000  0.0000  0.3330  0.0000  0.0000  0.0000  0.0000  0.0000 </r>
       </set>
       <set comment="band 13">
        <r>  0.0000  0.0000  0.0000  0.0000  0.0000  0.0000  0.0000  0.0000  0.0000 </r>
       </set>
       <set comment="band 14">
        <r>  0.0048  0.0000  0.0000  0.0000  0.0000  0.0000  0.0000  0.0000  0.0000 </r>
       </set>
       <set comment="band 15">
        <r>  0.0000  0.0000  0.0000  0.0000  0.0000  0.0000  0.0000  0.0000  0.0000 </r>
       </set>
       <set comment="band 16">
        <r>  0.0000  0.0000  0.0000  0.0000  0.0000  0.0000  0.0000  0.0000  0.0000 </r>
       </set>
      </set>
      <set comment="kpoint 22">
       <set comment="band 1">
        <r>  0.0000  0.0000  0.0000  0.3540  0.0000  0.0000  0.0000  0.0000  0.0000 </r>
       </set>
       <set comment="band 2">
        <r>  0.4580  0.0002  0.0002  0.0000  0.0000  0.0000  0.0000  0.0000  0.0000 </r>
       </set>
       <set comment="band 3">
        <r>  0.0096  0.1998  0.1998  0.0000  0.0000  0.0000  0.0000  0.0000  0.0000 </r>
       </set>
       <set comment="band 4">
        <r>  0.0000  0.2366  0.2366  0.0000  0.0000  0.0000  0.0000  0.0000  0.0000 </r>
       </set>
       <set comment="band 5">
        <r>  0.0050  0.0262  0.0262  0.0000  0.0000  0.0000  0.0000  0.0000  0.0000 </r>
       </set>
       <set comment="band 6">
        <r>  0.2628  0.0107  0.0107  0.0000  0.0000  0.0000  0.0000  0.0000  0.0000 </r>
       </set>
       <set comment="band 7">
        <r>  0.0000  0.0030  0.0030  0.0000  0.0000  0.0000  0.0000  0.0000  0.0000 </r>
       </set>
       <set comment="band 8">
        <r>  0.0000  0.0000  0.0000  0.0070  0.0000  0.0000  0.0000  0.0000  0.0000 </r>
       </set>
       <set comment="band 9">
        <r>  0.0000  0.0000  0.0000  0.0000  0.0000  0.0000  0.0000  0.0000  0.0000 </r>
       </set>
       <set comment="band 10">
        <r>  0.0031  0.1531  0.1531  0.0000  0.0000  0.0000  0.0000  0.0000  0.0000 </r>
       </set>
       <set comment="band 11">
        <r>  0.0000  0.1578  0.1578  0.0000  0.0000  0.0000  0.0000  0.0000  0.0000 </r>
       </set>
       <set comment="band 12">
        <r>  0.0000  0.0000  0.0000  0.3236  0.0000  0.0000  0.0000  0.0000  0.0000 </r>
       </set>
       <set comment="band 13">
        <r>  0.0000  0.0000  0.0000  0.0000  0.0000  0.0000  0.0000  0.0000  0.0000 </r>
       </set>
       <set comment="band 14">
        <r>  0.0032  0.0065  0.0065  0.0000  0.0000  0.0000  0.0000  0.0000  0.0000 </r>
       </set>
       <set comment="band 15">
        <r>  0.0005  0.0074  0.0074  0.0000  0.0000  0.0000  0.0000  0.0000  0.0000 </r>
       </set>
       <set comment="band 16">
        <r>  0.0000  0.0000  0.0000  0.0569  0.0000  0.0000  0.0000  0.0000  0.0000 </r>
       </set>
      </set>
      <set comment="kpoint 23">
       <set comment="band 1">
        <r>  0.0000  0.0000  0.0000  0.3535  0.0000  0.0000  0.0000  0.0000  0.0000 </r>
       </set>
       <set comment="band 2">
        <r>  0.4584  0.0008  0.0008  0.0000  0.0000  0.0000  0.0000  0.0000  0.0000 </r>
       </set>
       <set comment="band 3">
        <r>  0.0240  0.1712  0.1712  0.0000  0.0000  0.0000  0.0000  0.0000  0.0000 </r>
       </set>
       <set comment="band 4">
        <r>  0.0000  0.2363  0.2363  0.0000  0.0000  0.0000  0.0000  0.0000  0.0000 </r>
       </set>
       <set comment="band 5">
        <r>  0.0348  0.0276  0.0276  0.0000  0.0000  0.0000  0.0000  0.0000  0.0000 </r>
       </set>
       <set comment="band 6">
        <r>  0.2166  0.0380  0.0380  0.0000  0.0000  0.0000  0.0000  0.0000  0.0000 </r>
       </set>
       <set comment="band 7">
        <r>  0.0000  0.0109  0.0109  0.0000  0.0000  0.0000  0.0000  0.0000  0.0000 </r>
       </set>
       <set comment="band 8">
        <r>  0.0000  0.0000  0.0000  0.0253  0.0000  0.0000  0.0000  0.0000  0.0000 </r>
       </set>
       <set comment="band 9">
        <r>  0.0000  0.0000  0.0000  0.0000  0.0000  0.0000  0.0000  0.0000  0.0000 </r>
       </set>
       <set comment="band 10">
        <r>  0.0105  0.1370  0.1370  0.0000  0.0000  0.0000  0.0000  0.0000  0.0000 </r>
       </set>
       <set comment="band 11">
        <r>  0.0000  0.1505  0.1505  0.0000  0.0000  0.0000  0.0000  0.0000  0.0000 </r>
       </set>
       <set comment="band 12">
        <r>  0.0000  0.0000  0.0000  0.2973  0.0000  0.0000  0.0000  0.0000  0.0000 </r>
       </set>
       <set comment="band 13">
        <r>  0.0000  0.0000  0.0000  0.0000  0.0000  0.0000  0.0000  0.0000  0.0000 </r>
       </set>
       <set comment="band 14">
        <r>  0.0007  0.0198  0.0198  0.0000  0.0000  0.0000  0.0000  0.0000  0.0000 </r>
       </set>
       <set comment="band 15">
        <r>  0.0000  0.0000  0.0000  0.0970  0.0000  0.0000  0.0000  0.0000  0.0000 </r>
       </set>
       <set comment="band 16">
        <r>  0.0019  0.0081  0.0081  0.0000  0.0000  0.0000  0.0000  0.0000  0.0000 </r>
       </set>
      </set>
      <set comment="kpoint 24">
       <set comment="band 1">
        <r>  0.0000  0.0000  0.0000  0.3526  0.0000  0.0000  0.0000  0.0000  0.0000 </r>
       </set>
       <set comment="band 2">
        <r>  0.4594  0.0016  0.0016  0.0000  0.0000  0.0000  0.0000  0.0000  0.0000 </r>
       </set>
       <set comment="band 3">
        <r>  0.0363  0.1567  0.1567  0.0000  0.0000  0.0000  0.0000  0.0000  0.0000 </r>
       </set>
       <set comment="band 4">
        <r>  0.0000  0.2359  0.2359  0.0000  0.0000  0.0000  0.0000  0.0000  0.0000 </r>
       </set>
       <set comment="band 5">
        <r>  0.0735  0.0152  0.0152  0.0000  0.0000  0.0000  0.0000  0.0000  0.0000 </r>
       </set>
       <set comment="band 6">
        <r>  0.1620  0.0651  0.0651  0.0000  0.0000  0.0000  0.0000  0.0000  0.0000 </r>
       </set>
       <set comment="band 7">
        <r>  0.0000  0.0215  0.0215  0.0000  0.0000  0.0000  0.0000  0.0000  0.0000 </r>
       </set>
       <set comment="band 8">
        <r>  0.0000  0.0000  0.0000  0.0496  0.0000  0.0000  0.0000  0.0000  0.0000 </r>
       </set>
       <set comment="band 9">
        <r>  0.0000  0.0000  0.0000  0.0000  0.0000  0.0000  0.0000  0.0000  0.0000 </r>
       </set>
       <set comment="band 10">
        <r>  0.0195  0.1200  0.1200  0.0000  0.0000  0.0000  0.0000  0.0000  0.0000 </r>
       </set>
       <set comment="band 11">
        <r>  0.0000  0.1409  0.1409  0.0000  0.0000  0.0000  0.0000  0.0000  0.0000 </r>
       </set>
       <set comment="band 12">
        <r>  0.0000  0.0000  0.0000  0.2572  0.0000  0.0000  0.0000  0.0000  0.0000 </r>
       </set>
       <set comment="band 13">
        <r>  0.0000  0.0000  0.0000  0.0000  0.0000  0.0000  0.0000  0.0000  0.0000 </r>
       </set>
       <set comment="band 14">
        <r>  0.0006  0.0316  0.0316  0.0000  0.0000  0.0000  0.0000  0.0000  0.0000 </r>
       </set>
       <set comment="band 15">
        <r>  0.0000  0.0000  0.0000  0.1327  0.0000  0.0000  0.0000  0.0000  0.0000 </r>
       </set>
       <set comment="band 16">
        <r>  0.0028  0.0067  0.0067  0.0000  0.0000  0.0000  0.0000  0.0000  0.0000 </r>
       </set>
      </set>
      <set comment="kpoint 25">
       <set comment="band 1">
        <r>  0.0000  0.0000  0.0000  0.3513  0.0000  0.0000  0.0000  0.0000  0.0000 </r>
       </set>
       <set comment="band 2">
        <r>  0.4615  0.0027  0.0027  0.0000  0.0000  0.0000  0.0000  0.0000  0.0000 </r>
       </set>
       <set comment="band 3">
        <r>  0.0452  0.1480  0.1480  0.0000  0.0000  0.0000  0.0000  0.0000  0.0000 </r>
       </set>
       <set comment="band 4">
        <r>  0.0000  0.2354  0.2354  0.0000  0.0000  0.0000  0.0000  0.0000  0.0000 </r>
       </set>
       <set comment="band 5">
        <r>  0.1005  0.0063  0.0063  0.0000  0.0000  0.0000  0.0000  0.0000  0.0000 </r>
       </set>
       <set comment="band 6">
        <r>  0.1200  0.0832  0.0832  0.0000  0.0000  0.0000  0.0000  0.0000  0.0000 </r>
       </set>
       <set comment="band 7">
        <r>  0.0000  0.0319  0.0319  0.0000  0.0000  0.0000  0.0000  0.0000  0.0000 </r>
       </set>
       <set comment="band 8">
        <r>  0.0000  0.0000  0.0000  0.0000  0.0000  0.0000  0.0000  0.0000  0.0000 </r>
       </set>
       <set comment="band 9">
        <r>  0.0000  0.0000  0.0000  0.0725  0.0000  0.0000  0.0000  0.0000  0.0000 </r>
       </set>
       <set comment="band 10">
        <r>  0.0288  0.1045  0.1045  0.0000  0.0000  0.0000  0.0000  0.0000  0.0000 </r>
       </set>
       <set comment="band 11">
        <r>  0.0000  0.1312  0.1312  0.0000  0.0000  0.0000  0.0000  0.0000  0.0000 </r>
       </set>
       <set comment="band 12">
        <r>  0.0000  0.0000  0.0000  0.2051  0.0000  0.0000  0.0000  0.0000  0.0000 </r>
       </set>
       <set comment="band 13">
        <r>  0.0000  0.0000  0.0000  0.0000  0.0000  0.0000  0.0000  0.0000  0.0000 </r>
       </set>
       <set comment="band 14">
        <r>  0.0045  0.0387  0.0387  0.0000  0.0000  0.0000  0.0000  0.0000  0.0000 </r>
       </set>
       <set comment="band 15">
        <r>  0.0000  0.0000  0.0000  0.1775  0.0000  0.0000  0.0000  0.0000  0.0000 </r>
       </set>
       <set comment="band 16">
        <r>  0.0026  0.0050  0.0050  0.0000  0.0000  0.0000  0.0000  0.0000  0.0000 </r>
       </set>
      </set>
      <set comment="kpoint 26">
       <set comment="band 1">
        <r>  0.0000  0.0000  0.0000  0.3497  0.0000  0.0000  0.0000  0.0000  0.0000 </r>
       </set>
       <set comment="band 2">
        <r>  0.4666  0.0035  0.0035  0.0000  0.0000  0.0000  0.0000  0.0000  0.0000 </r>
       </set>
       <set comment="band 3">
        <r>  0.0496  0.1424  0.1424  0.0000  0.0000  0.0000  0.0000  0.0000  0.0000 </r>
       </set>
       <set comment="band 4">
        <r>  0.0000  0.2347  0.2347  0.0000  0.0000  0.0000  0.0000  0.0000  0.0000 </r>
       </set>
       <set comment="band 5">
        <r>  0.1159  0.0018  0.0018  0.0000  0.0000  0.0000  0.0000  0.0000  0.0000 </r>
       </set>
       <set comment="band 6">
        <r>  0.0904  0.0944  0.0944  0.0000  0.0000  0.0000  0.0000  0.0000  0.0000 </r>
       </set>
       <set comment="band 7">
        <r>  0.0000  0.0429  0.0429  0.0000  0.0000  0.0000  0.0000  0.0000  0.0000 </r>
       </set>
       <set comment="band 8">
        <r>  0.0000  0.0000  0.0000  0.0000  0.0000  0.0000  0.0000  0.0000  0.0000 </r>
       </set>
       <set comment="band 9">
        <r>  0.0000  0.0000  0.0000  0.0968  0.0000  0.0000  0.0000  0.0000  0.0000 </r>
       </set>
       <set comment="band 10">
        <r>  0.0380  0.0911  0.0911  0.0000  0.0000  0.0000  0.0000  0.0000  0.0000 </r>
       </set>
       <set comment="band 11">
        <r>  0.0000  0.0000  0.0000  0.1399  0.0000  0.0000  0.0000  0.0000  0.0000 </r>
       </set>
       <set comment="band 12">
        <r>  0.0000  0.1219  0.1219  0.0000  0.0000  0.0000  0.0000  0.0000  0.0000 </r>
       </set>
       <set comment="band 13">
        <r>  0.0000  0.0000  0.0000  0.0000  0.0000  0.0000  0.0000  0.0000  0.0000 </r>
       </set>
       <set comment="band 14">
        <r>  0.0122  0.0411  0.0411  0.0000  0.0000  0.0000  0.0000  0.0000  0.0000 </r>
       </set>
       <set comment="band 15">
        <r>  0.0000  0.0000  0.0000  0.2354  0.0000  0.0000  0.0000  0.0000  0.0000 </r>
       </set>
       <set comment="band 16">
        <r>  0.0014  0.0041  0.0041  0.0000  0.0000  0.0000  0.0000  0.0000  0.0000 </r>
       </set>
      </set>
      <set comment="kpoint 27">
       <set comment="band 1">
        <r>  0.0000  0.0000  0.0000  0.3478  0.0000  0.0000  0.0000  0.0000  0.0000 </r>
       </set>
       <set comment="band 2">
        <r>  0.4777  0.0036  0.0036  0.0000  0.0000  0.0000  0.0000  0.0000  0.0000 </r>
       </set>
       <set comment="band 3">
        <r>  0.0465  0.1387  0.1387  0.0000  0.0000  0.0000  0.0000  0.0000  0.0000 </r>
       </set>
       <set comment="band 4">
        <r>  0.0000  0.2341  0.2341  0.0000  0.0000  0.0000  0.0000  0.0000  0.0000 </r>
       </set>
       <set comment="band 5">
        <r>  0.1239  0.0002  0.0002  0.0000  0.0000  0.0000  0.0000  0.0000  0.0000 </r>
       </set>
       <set comment="band 6">
        <r>  0.0683  0.1020  0.1020  0.0000  0.0000  0.0000  0.0000  0.0000  0.0000 </r>
       </set>
       <set comment="band 7">
        <r>  0.0000  0.0522  0.0522  0.0000  0.0000  0.0000  0.0000  0.0000  0.0000 </r>
       </set>
       <set comment="band 8">
        <r>  0.0000  0.0000  0.0000  0.0000  0.0000  0.0000  0.0000  0.0000  0.0000 </r>
       </set>
       <set comment="band 9">
        <r>  0.0000  0.0000  0.0000  0.1195  0.0000  0.0000  0.0000  0.0000  0.0000 </r>
       </set>
       <set comment="band 10">
        <r>  0.0466  0.0785  0.0785  0.0000  0.0000  0.0000  0.0000  0.0000  0.0000 </r>
       </set>
       <set comment="band 11">
        <r>  0.0000  0.0000  0.0000  0.0729  0.0000  0.0000  0.0000  0.0000  0.0000 </r>
       </set>
       <set comment="band 12">
        <r>  0.0224  0.0402  0.0402  0.0000  0.0000  0.0000  0.0000  0.0000  0.0000 </r>
       </set>
       <set comment="band 13">
        <r>  0.0000  0.1138  0.1138  0.0000  0.0000  0.0000  0.0000  0.0000  0.0000 </r>
       </set>
       <set comment="band 14">
        <r>  0.0000  0.0001  0.0001  0.0000  0.0000  0.0000  0.0000  0.0000  0.0000 </r>
       </set>
       <set comment="band 15">
        <r>  0.0000  0.0000  0.0000  0.2971  0.0000  0.0000  0.0000  0.0000  0.0000 </r>
       </set>
       <set comment="band 16">
        <r>  0.0004  0.0045  0.0045  0.0000  0.0000  0.0000  0.0000  0.0000  0.0000 </r>
       </set>
      </set>
      <set comment="kpoint 28">
       <set comment="band 1">
        <r>  0.0000  0.0000  0.0000  0.3459  0.0000  0.0000  0.0000  0.0000  0.0000 </r>
       </set>
       <set comment="band 2">
        <r>  0.5009  0.0019  0.0019  0.0000  0.0000  0.0000  0.0000  0.0000  0.0000 </r>
       </set>
       <set comment="band 3">
        <r>  0.0300  0.1383  0.1383  0.0000  0.0000  0.0000  0.0000  0.0000  0.0000 </r>
       </set>
       <set comment="band 4">
        <r>  0.0000  0.2332  0.2332  0.0000  0.0000  0.0000  0.0000  0.0000  0.0000 </r>
       </set>
       <set comment="band 5">
        <r>  0.1271  0.0002  0.0002  0.0000  0.0000  0.0000  0.0000  0.0000  0.0000 </r>
       </set>
       <set comment="band 6">
        <r>  0.0519  0.1080  0.1080  0.0000  0.0000  0.0000  0.0000  0.0000  0.0000 </r>
       </set>
       <set comment="band 7">
        <r>  0.0000  0.0617  0.0617  0.0000  0.0000  0.0000  0.0000  0.0000  0.0000 </r>
       </set>
       <set comment="band 8">
        <r>  0.0000  0.0000  0.0000  0.0000  0.0000  0.0000  0.0000  0.0000  0.0000 </r>
       </set>
       <set comment="band 9">
        <r>  0.0000  0.0000  0.0000  0.1398  0.0000  0.0000  0.0000  0.0000  0.0000 </r>
       </set>
       <set comment="band 10">
        <r>  0.0550  0.0671  0.0671  0.0000  0.0000  0.0000  0.0000  0.0000  0.0000 </r>
       </set>
       <set comment="band 11">
        <r>  0.0000  0.0000  0.0000  0.0251  0.0000  0.0000  0.0000  0.0000  0.0000 </r>
       </set>
       <set comment="band 12">
        <r>  0.0331  0.0368  0.0368  0.0000  0.0000  0.0000  0.0000  0.0000  0.0000 </r>
       </set>
       <set comment="band 13">
        <r>  0.0000  0.0000  0.0000  0.0000  0.0000  0.0000  0.0000  0.0000  0.0000 </r>
       </set>
       <set comment="band 14">
        <r>  0.0000  0.1065  0.1065  0.0000  0.0000  0.0000  0.0000  0.0000  0.0000 </r>
       </set>
       <set comment="band 15">
        <r>  0.0000  0.0000  0.0000  0.3421  0.0000  0.0000  0.0000  0.0000  0.0000 </r>
       </set>
       <set comment="band 16">
        <r>  0.0000  0.0065  0.0065  0.0000  0.0000  0.0000  0.0000  0.0000  0.0000 </r>
       </set>
      </set>
      <set comment="kpoint 29">
       <set comment="band 1">
        <r>  0.0000  0.0000  0.0000  0.3434  0.0000  0.0000  0.0000  0.0000  0.0000 </r>
       </set>
       <set comment="band 2">
        <r>  0.5359  0.0007  0.0007  0.0000  0.0000  0.0000  0.0000  0.0000  0.0000 </r>
       </set>
       <set comment="band 3">
        <r>  0.0004  0.1387  0.1387  0.0000  0.0000  0.0000  0.0000  0.0000  0.0000 </r>
       </set>
       <set comment="band 4">
        <r>  0.0000  0.2323  0.2323  0.0000  0.0000  0.0000  0.0000  0.0000  0.0000 </r>
       </set>
       <set comment="band 5">
        <r>  0.1280  0.0012  0.0012  0.0000  0.0000  0.0000  0.0000  0.0000  0.0000 </r>
       </set>
       <set comment="band 6">
        <r>  0.0380  0.1112  0.1112  0.0000  0.0000  0.0000  0.0000  0.0000  0.0000 </r>
       </set>
       <set comment="band 7">
        <r>  0.0000  0.0704  0.0704  0.0000  0.0000  0.0000  0.0000  0.0000  0.0000 </r>
       </set>
       <set comment="band 8">
        <r>  0.0000  0.0000  0.0000  0.0000  0.0000  0.0000  0.0000  0.0000  0.0000 </r>
       </set>
       <set comment="band 9">
        <r>  0.0000  0.0000  0.0000  0.1590  0.0000  0.0000  0.0000  0.0000  0.0000 </r>
       </set>
       <set comment="band 10">
        <r>  0.0628  0.0565  0.0565  0.0000  0.0000  0.0000  0.0000  0.0000  0.0000 </r>
       </set>
       <set comment="band 11">
        <r>  0.0000  0.0000  0.0000  0.0043  0.0000  0.0000  0.0000  0.0000  0.0000 </r>
       </set>
       <set comment="band 12">
        <r>  0.0439  0.0320  0.0320  0.0000  0.0000  0.0000  0.0000  0.0000  0.0000 </r>
       </set>
       <set comment="band 13">
        <r>  0.0000  0.0000  0.0000  0.0000  0.0000  0.0000  0.0000  0.0000  0.0000 </r>
       </set>
       <set comment="band 14">
        <r>  0.0000  0.0998  0.0998  0.0000  0.0000  0.0000  0.0000  0.0000  0.0000 </r>
       </set>
       <set comment="band 15">
        <r>  0.0000  0.0000  0.0000  0.3603  0.0000  0.0000  0.0000  0.0000  0.0000 </r>
       </set>
       <set comment="band 16">
        <r>  0.0003  0.0115  0.0115  0.0000  0.0000  0.0000  0.0000  0.0000  0.0000 </r>
       </set>
      </set>
      <set comment="kpoint 30">
       <set comment="band 1">
        <r>  0.0000  0.0000  0.0000  0.3410  0.0000  0.0000  0.0000  0.0000  0.0000 </r>
       </set>
       <set comment="band 2">
        <r>  0.4448  0.0331  0.0331  0.0000  0.0000  0.0000  0.0000  0.0000  0.0000 </r>
       </set>
       <set comment="band 3">
        <r>  0.0950  0.1061  0.1061  0.0000  0.0000  0.0000  0.0000  0.0000  0.0000 </r>
       </set>
       <set comment="band 4">
        <r>  0.0000  0.2315  0.2315  0.0000  0.0000  0.0000  0.0000  0.0000  0.0000 </r>
       </set>
       <set comment="band 5">
        <r>  0.1274  0.0031  0.0031  0.0000  0.0000  0.0000  0.0000  0.0000  0.0000 </r>
       </set>
       <set comment="band 6">
        <r>  0.0264  0.1130  0.1130  0.0000  0.0000  0.0000  0.0000  0.0000  0.0000 </r>
       </set>
       <set comment="band 7">
        <r>  0.0000  0.0765  0.0765  0.0000  0.0000  0.0000  0.0000  0.0000  0.0000 </r>
       </set>
       <set comment="band 8">
        <r>  0.0000  0.0000  0.0000  0.0000  0.0000  0.0000  0.0000  0.0000  0.0000 </r>
       </set>
       <set comment="band 9">
        <r>  0.0000  0.0000  0.0000  0.1715  0.0000  0.0000  0.0000  0.0000  0.0000 </r>
       </set>
       <set comment="band 10">
        <r>  0.0691  0.0459  0.0459  0.0000  0.0000  0.0000  0.0000  0.0000  0.0000 </r>
       </set>
       <set comment="band 11">
        <r>  0.0000  0.0000  0.0000  0.0000  0.0000  0.0000  0.0000  0.0000  0.0000 </r>
       </set>
       <set comment="band 12">
        <r>  0.0549  0.0264  0.0264  0.0000  0.0000  0.0000  0.0000  0.0000  0.0000 </r>
       </set>
       <set comment="band 13">
        <r>  0.0000  0.0000  0.0000  0.0000  0.0000  0.0000  0.0000  0.0000  0.0000 </r>
       </set>
       <set comment="band 14">
        <r>  0.0000  0.0942  0.0942  0.0000  0.0000  0.0000  0.0000  0.0000  0.0000 </r>
       </set>
       <set comment="band 15">
        <r>  0.0000  0.0000  0.0000  0.3620  0.0000  0.0000  0.0000  0.0000  0.0000 </r>
       </set>
       <set comment="band 16">
        <r>  0.0004  0.0206  0.0206  0.0000  0.0000  0.0000  0.0000  0.0000  0.0000 </r>
       </set>
      </set>
      <set comment="kpoint 31">
       <set comment="band 1">
        <r>  0.0000  0.3410  0.0000  0.0000  0.0000  0.0000  0.0000  0.0000  0.0000 </r>
       </set>
       <set comment="band 2">
        <r>  0.4448  0.0000  0.0331  0.0331  0.0000  0.0000  0.0000  0.0000  0.0000 </r>
       </set>
       <set comment="band 3">
        <r>  0.0950  0.0000  0.1061  0.1061  0.0000  0.0000  0.0000  0.0000  0.0000 </r>
       </set>
       <set comment="band 4">
        <r>  0.0000  0.0000  0.2315  0.2315  0.0000  0.0000  0.0000  0.0000  0.0000 </r>
       </set>
       <set comment="band 5">
        <r>  0.1274  0.0000  0.0031  0.0031  0.0000  0.0000  0.0000  0.0000  0.0000 </r>
       </set>
       <set comment="band 6">
        <r>  0.0264  0.0000  0.1130  0.1130  0.0000  0.0000  0.0000  0.0000  0.0000 </r>
       </set>
       <set comment="band 7">
        <r>  0.0000  0.0000  0.0765  0.0765  0.0000  0.0000  0.0000  0.0000  0.0000 </r>
       </set>
       <set comment="band 8">
        <r>  0.0000  0.0000  0.0000  0.0000  0.0000  0.0000  0.0000  0.0000  0.0000 </r>
       </set>
       <set comment="band 9">
        <r>  0.0000  0.1715  0.0000  0.0000  0.0000  0.0000  0.0000  0.0000  0.0000 </r>
       </set>
       <set comment="band 10">
        <r>  0.0691  0.0000  0.0459  0.0459  0.0000  0.0000  0.0000  0.0000  0.0000 </r>
       </set>
       <set comment="band 11">
        <r>  0.0000  0.0000  0.0000  0.0000  0.0000  0.0000  0.0000  0.0000  0.0000 </r>
       </set>
       <set comment="band 12">
        <r>  0.0549  0.0000  0.0264  0.0264  0.0000  0.0000  0.0000  0.0000  0.0000 </r>
       </set>
       <set comment="band 13">
        <r>  0.0000  0.0000  0.0000  0.0000  0.0000  0.0000  0.0000  0.0000  0.0000 </r>
       </set>
       <set comment="band 14">
        <r>  0.0000  0.0000  0.0942  0.0942  0.0000  0.0000  0.0000  0.0000  0.0000 </r>
       </set>
       <set comment="band 15">
        <r>  0.0000  0.3620  0.0000  0.0000  0.0000  0.0000  0.0000  0.0000  0.0000 </r>
       </set>
       <set comment="band 16">
        <r>  0.0004  0.0000  0.0206  0.0206  0.0000  0.0000  0.0000  0.0000  0.0000 </r>
       </set>
      </set>
      <set comment="kpoint 32">
       <set comment="band 1">
        <r>  0.2662  0.0000  0.0730  0.0730  0.0000  0.0000  0.0000  0.0000  0.0000 </r>
       </set>
       <set comment="band 2">
        <r>  0.0000  0.3316  0.0000  0.0000  0.0000  0.0000  0.0000  0.0000  0.0000 </r>
       </set>
       <set comment="band 3">
        <r>  0.2801  0.0000  0.0686  0.0686  0.0000  0.0000  0.0000  0.0000  0.0000 </r>
       </set>
       <set comment="band 4">
        <r>  0.0000  0.0000  0.2292  0.2292  0.0000  0.0000  0.0000  0.0000  0.0000 </r>
       </set>
       <set comment="band 5">
        <r>  0.1174  0.0000  0.0113  0.0113  0.0000  0.0000  0.0000  0.0000  0.0000 </r>
       </set>
       <set comment="band 6">
        <r>  0.0027  0.0000  0.1180  0.1180  0.0000  0.0000  0.0000  0.0000  0.0000 </r>
       </set>
       <set comment="band 7">
        <r>  0.0000  0.0000  0.0961  0.0961  0.0000  0.0000  0.0000  0.0000  0.0000 </r>
       </set>
       <set comment="band 8">
        <r>  0.0000  0.0000  0.0000  0.0000  0.0000  0.0000  0.0000  0.0000  0.0000 </r>
       </set>
       <set comment="band 9">
        <r>  0.0000  0.2179  0.0000  0.0000  0.0000  0.0000  0.0000  0.0000  0.0000 </r>
       </set>
       <set comment="band 10">
        <r>  0.0825  0.0000  0.0170  0.0170  0.0000  0.0000  0.0000  0.0000  0.0000 </r>
       </set>
       <set comment="band 11">
        <r>  0.0000  0.0143  0.0000  0.0000  0.0000  0.0000  0.0000  0.0000  0.0000 </r>
       </set>
       <set comment="band 12">
        <r>  0.0839  0.0000  0.0100  0.0100  0.0000  0.0000  0.0000  0.0000  0.0000 </r>
       </set>
       <set comment="band 13">
        <r>  0.0000  0.0000  0.0000  0.0000  0.0000  0.0000  0.0000  0.0000  0.0000 </r>
       </set>
       <set comment="band 14">
        <r>  0.0011  0.0000  0.0711  0.0711  0.0000  0.0000  0.0000  0.0000  0.0000 </r>
       </set>
       <set comment="band 15">
        <r>  0.0000  0.0000  0.0738  0.0738  0.0000  0.0000  0.0000  0.0000  0.0000 </r>
       </set>
       <set comment="band 16">
        <r>  0.0000  0.2992  0.0000  0.0000  0.0000  0.0000  0.0000  0.0000  0.0000 </r>
       </set>
      </set>
      <set comment="kpoint 33">
       <set comment="band 1">
        <r>  0.2714  0.0000  0.0644  0.0644  0.0000  0.0000  0.0000  0.0000  0.0000 </r>
       </set>
       <set comment="band 2">
        <r>  0.0000  0.3203  0.0000  0.0000  0.0000  0.0000  0.0000  0.0000  0.0000 </r>
       </set>
       <set comment="band 3">
        <r>  0.2726  0.0000  0.0840  0.0840  0.0000  0.0000  0.0000  0.0000  0.0000 </r>
       </set>
       <set comment="band 4">
        <r>  0.0000  0.0000  0.2284  0.2284  0.0000  0.0000  0.0000  0.0000  0.0000 </r>
       </set>
       <set comment="band 5">
        <r>  0.1019  0.0000  0.0222  0.0222  0.0000  0.0000  0.0000  0.0000  0.0000 </r>
       </set>
       <set comment="band 6">
        <r>  0.0000  0.0000  0.1098  0.1098  0.0000  0.0000  0.0000  0.0000  0.0000 </r>
       </set>
       <set comment="band 7">
        <r>  0.0000  0.0000  0.0000  0.0000  0.0000  0.0000  0.0000  0.0000  0.0000 </r>
       </set>
       <set comment="band 8">
        <r>  0.0000  0.2576  0.0000  0.0000  0.0000  0.0000  0.0000  0.0000  0.0000 </r>
       </set>
       <set comment="band 9">
        <r>  0.0143  0.0000  0.1026  0.1026  0.0000  0.0000  0.0000  0.0000  0.0000 </r>
       </set>
       <set comment="band 10">
        <r>  0.0590  0.0000  0.0000  0.0000  0.0000  0.0000  0.0000  0.0000  0.0000 </r>
       </set>
       <set comment="band 11">
        <r>  0.0000  0.0344  0.0000  0.0000  0.0000  0.0000  0.0000  0.0000  0.0000 </r>
       </set>
       <set comment="band 12">
        <r>  0.1073  0.0000  0.0000  0.0000  0.0000  0.0000  0.0000  0.0000  0.0000 </r>
       </set>
       <set comment="band 13">
        <r>  0.0230  0.0000  0.1202  0.1202  0.0000  0.0000  0.0000  0.0000  0.0000 </r>
       </set>
       <set comment="band 14">
        <r>  0.0000  0.0000  0.0000  0.0000  0.0000  0.0000  0.0000  0.0000  0.0000 </r>
       </set>
       <set comment="band 15">
        <r>  0.0000  0.1154  0.0000  0.0000  0.0000  0.0000  0.0000  0.0000  0.0000 </r>
       </set>
       <set comment="band 16">
        <r>  0.0000  0.0000  0.0444  0.0444  0.0000  0.0000  0.0000  0.0000  0.0000 </r>
       </set>
      </set>
      <set comment="kpoint 34">
       <set comment="band 1">
        <r>  0.2931  0.0000  0.0512  0.0512  0.0000  0.0000  0.0000  0.0000  0.0000 </r>
       </set>
       <set comment="band 2">
        <r>  0.0000  0.3095  0.0000  0.0000  0.0000  0.0000  0.0000  0.0000  0.0000 </r>
       </set>
       <set comment="band 3">
        <r>  0.2400  0.0000  0.1065  0.1065  0.0000  0.0000  0.0000  0.0000  0.0000 </r>
       </set>
       <set comment="band 4">
        <r>  0.0000  0.0000  0.2331  0.2331  0.0000  0.0000  0.0000  0.0000  0.0000 </r>
       </set>
       <set comment="band 5">
        <r>  0.0836  0.0000  0.0335  0.0335  0.0000  0.0000  0.0000  0.0000  0.0000 </r>
       </set>
       <set comment="band 6">
        <r>  0.0000  0.0000  0.1141  0.1141  0.0000  0.0000  0.0000  0.0000  0.0000 </r>
       </set>
       <set comment="band 7">
        <r>  0.0000  0.0000  0.0000  0.0000  0.0000  0.0000  0.0000  0.0000  0.0000 </r>
       </set>
       <set comment="band 8">
        <r>  0.0000  0.2873  0.0000  0.0000  0.0000  0.0000  0.0000  0.0000  0.0000 </r>
       </set>
       <set comment="band 9">
        <r>  0.0770  0.0000  0.0519  0.0519  0.0000  0.0000  0.0000  0.0000  0.0000 </r>
       </set>
       <set comment="band 10">
        <r>  0.0026  0.0000  0.0047  0.0047  0.0000  0.0000  0.0000  0.0000  0.0000 </r>
       </set>
       <set comment="band 11">
        <r>  0.0000  0.0513  0.0000  0.0000  0.0000  0.0000  0.0000  0.0000  0.0000 </r>
       </set>
       <set comment="band 12">
        <r>  0.0978  0.0000  0.0154  0.0154  0.0000  0.0000  0.0000  0.0000  0.0000 </r>
       </set>
       <set comment="band 13">
        <r>  0.0767  0.0000  0.1337  0.1337  0.0000  0.0000  0.0000  0.0000  0.0000 </r>
       </set>
       <set comment="band 14">
        <r>  0.0000  0.0191  0.0000  0.0000  0.0000  0.0000  0.0000  0.0000  0.0000 </r>
       </set>
       <set comment="band 15">
        <r>  0.0000  0.0000  0.0000  0.0000  0.0000  0.0000  0.0000  0.0000  0.0000 </r>
       </set>
       <set comment="band 16">
        <r>  0.0000  0.0000  0.0083  0.0083  0.0000  0.0000  0.0000  0.0000  0.0000 </r>
       </set>
      </set>
      <set comment="kpoint 35">
       <set comment="band 1">
        <r>  0.3170  0.0000  0.0377  0.0377  0.0000  0.0000  0.0000  0.0000  0.0000 </r>
       </set>
       <set comment="band 2">
        <r>  0.0000  0.2990  0.0000  0.0000  0.0000  0.0000  0.0000  0.0000  0.0000 </r>
       </set>
       <set comment="band 3">
        <r>  0.1980  0.0000  0.1312  0.1312  0.0000  0.0000  0.0000  0.0000  0.0000 </r>
       </set>
       <set comment="band 4">
        <r>  0.0000  0.0000  0.2507  0.2507  0.0000  0.0000  0.0000  0.0000  0.0000 </r>
       </set>
       <set comment="band 5">
        <r>  0.0643  0.0000  0.0450  0.0450  0.0000  0.0000  0.0000  0.0000  0.0000 </r>
       </set>
       <set comment="band 6">
        <r>  0.0000  0.0000  0.1017  0.1017  0.0000  0.0000  0.0000  0.0000  0.0000 </r>
       </set>
       <set comment="band 7">
        <r>  0.0000  0.0000  0.0000  0.0000  0.0000  0.0000  0.0000  0.0000  0.0000 </r>
       </set>
       <set comment="band 8">
        <r>  0.0000  0.3137  0.0000  0.0000  0.0000  0.0000  0.0000  0.0000  0.0000 </r>
       </set>
       <set comment="band 9">
        <r>  0.1058  0.0000  0.0158  0.0158  0.0000  0.0000  0.0000  0.0000  0.0000 </r>
       </set>
       <set comment="band 10">
        <r>  0.0043  0.0000  0.0001  0.0001  0.0000  0.0000  0.0000  0.0000  0.0000 </r>
       </set>
       <set comment="band 11">
        <r>  0.0000  0.0671  0.0000  0.0000  0.0000  0.0000  0.0000  0.0000  0.0000 </r>
       </set>
       <set comment="band 12">
        <r>  0.0536  0.0000  0.1584  0.1584  0.0000  0.0000  0.0000  0.0000  0.0000 </r>
       </set>
       <set comment="band 13">
        <r>  0.0000  0.0067  0.0000  0.0000  0.0000  0.0000  0.0000  0.0000  0.0000 </r>
       </set>
       <set comment="band 14">
        <r>  0.1419  0.0000  0.0000  0.0000  0.0000  0.0000  0.0000  0.0000  0.0000 </r>
       </set>
       <set comment="band 15">
        <r>  0.0000  0.0000  0.0009  0.0009  0.0000  0.0000  0.0000  0.0000  0.0000 </r>
       </set>
       <set comment="band 16">
        <r>  0.0000  0.0000  0.0000  0.0000  0.0000  0.0000  0.0000  0.0000  0.0000 </r>
       </set>
      </set>
      <set comment="kpoint 36">
       <set comment="band 1">
        <r>  0.3389  0.0000  0.0251  0.0251  0.0000  0.0000  0.0000  0.0000  0.0000 </r>
       </set>
       <set comment="band 2">
        <r>  0.0000  0.2916  0.0000  0.0000  0.0000  0.0000  0.0000  0.0000  0.0000 </r>
       </set>
       <set comment="band 3">
        <r>  0.1503  0.0000  0.1565  0.1565  0.0000  0.0000  0.0000  0.0000  0.0000 </r>
       </set>
       <set comment="band 4">
        <r>  0.0000  0.0000  0.2958  0.2958  0.0000  0.0000  0.0000  0.0000  0.0000 </r>
       </set>
       <set comment="band 5">
        <r>  0.0502  0.0000  0.0562  0.0562  0.0000  0.0000  0.0000  0.0000  0.0000 </r>
       </set>
       <set comment="band 6">
        <r>  0.0000  0.0000  0.0000  0.0000  0.0000  0.0000  0.0000  0.0000  0.0000 </r>
       </set>
       <set comment="band 7">
        <r>  0.0000  0.0000  0.0596  0.0596  0.0000  0.0000  0.0000  0.0000  0.0000 </r>
       </set>
       <set comment="band 8">
        <r>  0.0000  0.3336  0.0000  0.0000  0.0000  0.0000  0.0000  0.0000  0.0000 </r>
       </set>
       <set comment="band 9">
        <r>  0.1018  0.0000  0.0021  0.0021  0.0000  0.0000  0.0000  0.0000  0.0000 </r>
       </set>
       <set comment="band 10">
        <r>  0.0014  0.0000  0.0112  0.0112  0.0000  0.0000  0.0000  0.0000  0.0000 </r>
       </set>
       <set comment="band 11">
        <r>  0.0000  0.0755  0.0000  0.0000  0.0000  0.0000  0.0000  0.0000  0.0000 </r>
       </set>
       <set comment="band 12">
        <r>  0.0000  0.0104  0.0000  0.0000  0.0000  0.0000  0.0000  0.0000  0.0000 </r>
       </set>
       <set comment="band 13">
        <r>  0.2088  0.0000  0.0949  0.0949  0.0000  0.0000  0.0000  0.0000  0.0000 </r>
       </set>
       <set comment="band 14">
        <r>  0.0000  0.0000  0.0081  0.0081  0.0000  0.0000  0.0000  0.0000  0.0000 </r>
       </set>
       <set comment="band 15">
        <r>  0.0329  0.0000  0.0308  0.0308  0.0000  0.0000  0.0000  0.0000  0.0000 </r>
       </set>
       <set comment="band 16">
        <r>  0.0298  0.0000  0.0420  0.0420  0.0000  0.0000  0.0000  0.0000  0.0000 </r>
       </set>
      </set>
      <set comment="kpoint 37">
       <set comment="band 1">
        <r>  0.3580  0.0000  0.0147  0.0147  0.0000  0.0000  0.0000  0.0000  0.0000 </r>
       </set>
       <set comment="band 2">
        <r>  0.0000  0.2911  0.0000  0.0000  0.0000  0.0000  0.0000  0.0000  0.0000 </r>
       </set>
       <set comment="band 3">
        <r>  0.1018  0.0000  0.1803  0.1803  0.0000  0.0000  0.0000  0.0000  0.0000 </r>
       </set>
       <set comment="band 4">
        <r>  0.0000  0.0000  0.3458  0.3458  0.0000  0.0000  0.0000  0.0000  0.0000 </r>
       </set>
       <set comment="band 5">
        <r>  0.0000  0.0000  0.0000  0.0000  0.0000  0.0000  0.0000  0.0000  0.0000 </r>
       </set>
       <set comment="band 6">
        <r>  0.0000  0.3479  0.0000  0.0000  0.0000  0.0000  0.0000  0.0000  0.0000 </r>
       </set>
       <set comment="band 7">
        <r>  0.0513  0.0000  0.0687  0.0687  0.0000  0.0000  0.0000  0.0000  0.0000 </r>
       </set>
       <set comment="band 8">
        <r>  0.0000  0.0000  0.0097  0.0097  0.0000  0.0000  0.0000  0.0000  0.0000 </r>
       </set>
       <set comment="band 9">
        <r>  0.0597  0.0000  0.0002  0.0002  0.0000  0.0000  0.0000  0.0000  0.0000 </r>
       </set>
       <set comment="band 10">
        <r>  0.0047  0.0000  0.0344  0.0344  0.0000  0.0000  0.0000  0.0000  0.0000 </r>
       </set>
       <set comment="band 11">
        <r>  0.0000  0.0610  0.0000  0.0000  0.0000  0.0000  0.0000  0.0000  0.0000 </r>
       </set>
       <set comment="band 12">
        <r>  0.0000  0.0339  0.0000  0.0000  0.0000  0.0000  0.0000  0.0000  0.0000 </r>
       </set>
       <set comment="band 13">
        <r>  0.2691  0.0000  0.0424  0.0424  0.0000  0.0000  0.0000  0.0000  0.0000 </r>
       </set>
       <set comment="band 14">
        <r>  0.0000  0.0000  0.0164  0.0164  0.0000  0.0000  0.0000  0.0000  0.0000 </r>
       </set>
       <set comment="band 15">
        <r>  0.0742  0.0000  0.0433  0.0433  0.0000  0.0000  0.0000  0.0000  0.0000 </r>
       </set>
       <set comment="band 16">
        <r>  0.0152  0.0000  0.0274  0.0274  0.0000  0.0000  0.0000  0.0000  0.0000 </r>
       </set>
      </set>
      <set comment="kpoint 38">
       <set comment="band 1">
        <r>  0.3727  0.0000  0.0067  0.0067  0.0000  0.0000  0.0000  0.0000  0.0000 </r>
       </set>
       <set comment="band 2">
        <r>  0.0000  0.3116  0.0000  0.0000  0.0000  0.0000  0.0000  0.0000  0.0000 </r>
       </set>
       <set comment="band 3">
        <r>  0.0562  0.0000  0.2034  0.2034  0.0000  0.0000  0.0000  0.0000  0.0000 </r>
       </set>
       <set comment="band 4">
        <r>  0.0000  0.0000  0.3520  0.3520  0.0000  0.0000  0.0000  0.0000  0.0000 </r>
       </set>
       <set comment="band 5">
        <r>  0.0000  0.0000  0.0000  0.0000  0.0000  0.0000  0.0000  0.0000  0.0000 </r>
       </set>
       <set comment="band 6">
        <r>  0.0000  0.3441  0.0000  0.0000  0.0000  0.0000  0.0000  0.0000  0.0000 </r>
       </set>
       <set comment="band 7">
        <r>  0.0496  0.0000  0.0790  0.0790  0.0000  0.0000  0.0000  0.0000  0.0000 </r>
       </set>
       <set comment="band 8">
        <r>  0.0000  0.0000  0.0007  0.0007  0.0000  0.0000  0.0000  0.0000  0.0000 </r>
       </set>
       <set comment="band 9">
        <r>  0.0084  0.0000  0.0083  0.0083  0.0000  0.0000  0.0000  0.0000  0.0000 </r>
       </set>
       <set comment="band 10">
        <r>  0.0000  0.0307  0.0000  0.0000  0.0000  0.0000  0.0000  0.0000  0.0000 </r>
       </set>
       <set comment="band 11">
        <r>  0.0547  0.0000  0.0483  0.0483  0.0000  0.0000  0.0000  0.0000  0.0000 </r>
       </set>
       <set comment="band 12">
        <r>  0.0000  0.0639  0.0000  0.0000  0.0000  0.0000  0.0000  0.0000  0.0000 </r>
       </set>
       <set comment="band 13">
        <r>  0.2545  0.0000  0.0033  0.0033  0.0000  0.0000  0.0000  0.0000  0.0000 </r>
       </set>
       <set comment="band 14">
        <r>  0.0000  0.0000  0.0250  0.0250  0.0000  0.0000  0.0000  0.0000  0.0000 </r>
       </set>
       <set comment="band 15">
        <r>  0.1458  0.0000  0.0337  0.0337  0.0000  0.0000  0.0000  0.0000  0.0000 </r>
       </set>
       <set comment="band 16">
        <r>  0.0051  0.0000  0.0206  0.0206  0.0000  0.0000  0.0000  0.0000  0.0000 </r>
       </set>
      </set>
      <set comment="kpoint 39">
       <set comment="band 1">
        <r>  0.3816  0.0000  0.0017  0.0017  0.0000  0.0000  0.0000  0.0000  0.0000 </r>
       </set>
       <set comment="band 2">
        <r>  0.0000  0.3834  0.0000  0.0000  0.0000  0.0000  0.0000  0.0000  0.0000 </r>
       </set>
       <set comment="band 3">
        <r>  0.0184  0.0000  0.2285  0.2285  0.0000  0.0000  0.0000  0.0000  0.0000 </r>
       </set>
       <set comment="band 4">
        <r>  0.0000  0.0000  0.3430  0.3430  0.0000  0.0000  0.0000  0.0000  0.0000 </r>
       </set>
       <set comment="band 5">
        <r>  0.0000  0.0000  0.0000  0.0000  0.0000  0.0000  0.0000  0.0000  0.0000 </r>
       </set>
       <set comment="band 6">
        <r>  0.0000  0.2913  0.0000  0.0000  0.0000  0.0000  0.0000  0.0000  0.0000 </r>
       </set>
       <set comment="band 7">
        <r>  0.0122  0.0000  0.0927  0.0927  0.0000  0.0000  0.0000  0.0000  0.0000 </r>
       </set>
       <set comment="band 8">
        <r>  0.0000  0.0000  0.0028  0.0028  0.0000  0.0000  0.0000  0.0000  0.0000 </r>
       </set>
       <set comment="band 9">
        <r>  0.0000  0.0062  0.0000  0.0000  0.0000  0.0000  0.0000  0.0000  0.0000 </r>
       </set>
       <set comment="band 10">
        <r>  0.0013  0.0000  0.0031  0.0031  0.0000  0.0000  0.0000  0.0000  0.0000 </r>
       </set>
       <set comment="band 11">
        <r>  0.1776  0.0000  0.0301  0.0301  0.0000  0.0000  0.0000  0.0000  0.0000 </r>
       </set>
       <set comment="band 12">
        <r>  0.0000  0.0796  0.0000  0.0000  0.0000  0.0000  0.0000  0.0000  0.0000 </r>
       </set>
       <set comment="band 13">
        <r>  0.1231  0.0000  0.0126  0.0126  0.0000  0.0000  0.0000  0.0000  0.0000 </r>
       </set>
       <set comment="band 14">
        <r>  0.0000  0.0000  0.0352  0.0352  0.0000  0.0000  0.0000  0.0000  0.0000 </r>
       </set>
       <set comment="band 15">
        <r>  0.2401  0.0000  0.0136  0.0136  0.0000  0.0000  0.0000  0.0000  0.0000 </r>
       </set>
       <set comment="band 16">
        <r>  0.0007  0.0000  0.0105  0.0105  0.0000  0.0000  0.0000  0.0000  0.0000 </r>
       </set>
      </set>
      <set comment="kpoint 40">
       <set comment="band 1">
        <r>  0.3839  0.0000  0.0000  0.0000  0.0000  0.0000  0.0000  0.0000  0.0000 </r>
       </set>
       <set comment="band 2">
        <r>  0.0000  0.2265  0.2255  0.2255  0.0000  0.0000  0.0000  0.0000  0.0000 </r>
       </set>
       <set comment="band 3">
        <r>  0.0000  0.4510  0.1133  0.1133  0.0000  0.0000  0.0000  0.0000  0.0000 </r>
       </set>
       <set comment="band 4">
        <r>  0.0000  0.0000  0.3388  0.3388  0.0000  0.0000  0.0000  0.0000  0.0000 </r>
       </set>
       <set comment="band 5">
        <r>  0.0000  0.0000  0.0000  0.0000  0.0000  0.0000  0.0000  0.0000  0.0000 </r>
       </set>
       <set comment="band 6">
        <r>  0.0000  0.0000  0.0000  0.0000  0.0000  0.0000  0.0000  0.0000  0.0000 </r>
       </set>
       <set comment="band 7">
        <r>  0.0000  0.0000  0.0000  0.0000  0.0000  0.0000  0.0000  0.0000  0.0000 </r>
       </set>
       <set comment="band 8">
        <r>  0.0000  0.0000  0.0000  0.0000  0.0000  0.0000  0.0000  0.0000  0.0000 </r>
       </set>
       <set comment="band 9">
        <r>  0.0000  0.0000  0.0000  0.0000  0.0000  0.0000  0.0000  0.0000  0.0000 </r>
       </set>
       <set comment="band 10">
        <r>  0.0000  0.0000  0.0000  0.0000  0.0000  0.0000  0.0000  0.0000  0.0000 </r>
       </set>
       <set comment="band 11">
        <r>  0.2792  0.0000  0.0000  0.0000  0.0000  0.0000  0.0000  0.0000  0.0000 </r>
       </set>
       <set comment="band 12">
        <r>  0.0000  0.0000  0.0424  0.0424  0.0000  0.0000  0.0000  0.0000  0.0000 </r>
       </set>
       <set comment="band 13">
        <r>  0.0000  0.0565  0.0141  0.0141  0.0000  0.0000  0.0000  0.0000  0.0000 </r>
       </set>
       <set comment="band 14">
        <r>  0.0000  0.0282  0.0283  0.0283  0.0000  0.0000  0.0000  0.0000  0.0000 </r>
       </set>
       <set comment="band 15">
        <r>  0.2941  0.0000  0.0000  0.0000  0.0000  0.0000  0.0000  0.0000  0.0000 </r>
       </set>
       <set comment="band 16">
        <r>  0.0000  0.0000  0.0000  0.0000  0.0000  0.0000  0.0000  0.0000  0.0000 </r>
       </set>
      </set>
     </set>
    </set>
   </array>
  </projected>
 </calculation>
 <structure name="finalpos" >
  <crystal>
   <varray name="basis" >
    <v>       1.95000000       1.95000000       0.00000000 </v>
    <v>       0.00000000       1.95000000       1.95000000 </v>
    <v>       1.95000000       0.00000000       1.95000000 </v>
   </varray>
   <i name="volume">     14.82975000 </i>
   <varray name="rec_basis" >
    <v>       0.25641026       0.25641026      -0.25641026 </v>
    <v>      -0.25641026       0.25641026       0.25641026 </v>
    <v>       0.25641026      -0.25641026       0.25641026 </v>
   </varray>
  </crystal>
  <varray name="positions" >
   <v>       0.00000000       0.00000000       0.00000000 </v>
  </varray>
 </structure>
</modeling>
