<?xml version="1.0" encoding="ISO-8859-1"?>
<modeling>
 <generator>
  <i name="program" type="string">vasp </i>
  <i name="version" type="string">5.4.4.18Apr17-6-g9f103f2a35  </i>
  <i name="subversion" type="string">(build Mar 07 2019 17:46:06) complex            parallel </i>
  <i name="platform" type="string">Magnus_Intel_PSXE_2016U4 </i>
  <i name="date" type="string">2025 10 01 </i>
  <i name="time" type="string">07:26:57 </i>
 </generator>
 <incar>
  <i type="string" name="SYSTEM"> cd Si band structure</i>
  <i type="string" name="PREC">normal</i>
  <i type="int" name="ICHARG">    11</i>
  <i name="ENCUT">    540.00000000</i>
  <i type="int" name="ISMEAR">     0</i>
  <i name="SIGMA">      0.10000000</i>
  <v type="int" name="KPOINT_BSE">    -1     0     0     0</v>
 </incar>
 <structure name="primitive_cell" >
  <crystal>
   <varray name="basis" >
    <v>       0.00000000       2.73450000       2.73450000 </v>
    <v>       2.73450000       0.00000000       2.73450000 </v>
    <v>       2.73450000       2.73450000       0.00000000 </v>
   </varray>
   <i name="volume">     40.89439418 </i>
   <varray name="rec_basis" >
    <v>      -0.18284878       0.18284878       0.18284878 </v>
    <v>       0.18284878      -0.18284878       0.18284878 </v>
    <v>       0.18284878       0.18284878      -0.18284878 </v>
   </varray>
  </crystal>
  <varray name="positions" >
   <v>      -0.12500000      -0.12500000      -0.12500000 </v>
   <v>       0.12500000       0.12500000       0.12500000 </v>
  </varray>
 </structure>
 <varray name="primitive_index" >
  <v type="int" >        1 </v>
  <v type="int" >        2 </v>
 </varray>
 <kpoints>
  <generation param="listgenerated">
   <i name="divisions" type="int">      10 </i>
   <v>       0.50000000       0.50000000       0.50000000 </v>
   <v>       0.00000000       0.00000000       0.00000000 </v>
   <v>       0.50000000       0.00000000       0.50000000 </v>
   <v>       0.37500000       0.37500000       0.75000000 </v>
   <v>       0.00000000       0.00000000       0.00000000 </v>
  </generation>
  <varray name="kpointlist" >
   <v>       0.50000000       0.50000000       0.50000000 </v>
   <v>       0.44444444       0.44444444       0.44444444 </v>
   <v>       0.38888889       0.38888889       0.38888889 </v>
   <v>       0.33333333       0.33333333       0.33333333 </v>
   <v>       0.27777778       0.27777778       0.27777778 </v>
   <v>       0.22222222       0.22222222       0.22222222 </v>
   <v>       0.16666667       0.16666667       0.16666667 </v>
   <v>       0.11111111       0.11111111       0.11111111 </v>
   <v>       0.05555556       0.05555556       0.05555556 </v>
   <v>       0.00000000       0.00000000       0.00000000 </v>
   <v>       0.00000000       0.00000000       0.00000000 </v>
   <v>       0.05555556       0.00000000       0.05555556 </v>
   <v>       0.11111111       0.00000000       0.11111111 </v>
   <v>       0.16666667       0.00000000       0.16666667 </v>
   <v>       0.22222222       0.00000000       0.22222222 </v>
   <v>       0.27777778       0.00000000       0.27777778 </v>
   <v>       0.33333333       0.00000000       0.33333333 </v>
   <v>       0.38888889       0.00000000       0.38888889 </v>
   <v>       0.44444444       0.00000000       0.44444444 </v>
   <v>       0.50000000       0.00000000       0.50000000 </v>
   <v>       0.50000000       0.00000000       0.50000000 </v>
   <v>       0.51388889       0.02777778       0.51388889 </v>
   <v>       0.52777778       0.05555556       0.52777778 </v>
   <v>       0.54166667       0.08333333       0.54166667 </v>
   <v>       0.55555556       0.11111111       0.55555556 </v>
   <v>       0.56944444       0.13888889       0.56944444 </v>
   <v>       0.58333333       0.16666667       0.58333333 </v>
   <v>       0.59722222       0.19444444       0.59722222 </v>
   <v>       0.61111111       0.22222222       0.61111111 </v>
   <v>       0.62500000       0.25000000       0.62500000 </v>
   <v>       0.37500000       0.37500000       0.75000000 </v>
   <v>       0.33333333       0.33333333       0.66666667 </v>
   <v>       0.29166667       0.29166667       0.58333333 </v>
   <v>       0.25000000       0.25000000       0.50000000 </v>
   <v>       0.20833333       0.20833333       0.41666667 </v>
   <v>       0.16666667       0.16666667       0.33333333 </v>
   <v>       0.12500000       0.12500000       0.25000000 </v>
   <v>       0.08333333       0.08333333       0.16666667 </v>
   <v>       0.04166667       0.04166667       0.08333333 </v>
   <v>       0.00000000       0.00000000       0.00000000 </v>
  </varray>
  <varray name="weights" >
   <v>       0.02500000 </v>
   <v>       0.02500000 </v>
   <v>       0.02500000 </v>
   <v>       0.02500000 </v>
   <v>       0.02500000 </v>
   <v>       0.02500000 </v>
   <v>       0.02500000 </v>
   <v>       0.02500000 </v>
   <v>       0.02500000 </v>
   <v>       0.02500000 </v>
   <v>       0.02500000 </v>
   <v>       0.02500000 </v>
   <v>       0.02500000 </v>
   <v>       0.02500000 </v>
   <v>       0.02500000 </v>
   <v>       0.02500000 </v>
   <v>       0.02500000 </v>
   <v>       0.02500000 </v>
   <v>       0.02500000 </v>
   <v>       0.02500000 </v>
   <v>       0.02500000 </v>
   <v>       0.02500000 </v>
   <v>       0.02500000 </v>
   <v>       0.02500000 </v>
   <v>       0.02500000 </v>
   <v>       0.02500000 </v>
   <v>       0.02500000 </v>
   <v>       0.02500000 </v>
   <v>       0.02500000 </v>
   <v>       0.02500000 </v>
   <v>       0.02500000 </v>
   <v>       0.02500000 </v>
   <v>       0.02500000 </v>
   <v>       0.02500000 </v>
   <v>       0.02500000 </v>
   <v>       0.02500000 </v>
   <v>       0.02500000 </v>
   <v>       0.02500000 </v>
   <v>       0.02500000 </v>
   <v>       0.02500000 </v>
  </varray>
 </kpoints>
 <parameters>
  <separator name="general" >
   <i type="string" name="SYSTEM">cd Si band structure</i>
   <i type="logical" name="LCOMPAT"> F  </i>
  </separator>
  <separator name="electronic" >
   <i type="string" name="PREC">normal</i>
   <i name="ENMAX">    540.00000000</i>
   <i name="ENAUG">    322.06900000</i>
   <i name="EDIFF">      0.00010000</i>
   <i type="int" name="IALGO">    38</i>
   <i type="int" name="IWAVPR">    10</i>
   <i type="int" name="NBANDS">    16</i>
   <i name="NELECT">      8.00000000</i>
   <i type="int" name="TURBO">     0</i>
   <i type="int" name="IRESTART">     0</i>
   <i type="int" name="NREBOOT">     0</i>
   <i type="int" name="NMIN">     0</i>
   <i name="EREF">      0.00000000</i>
   <separator name="electronic smearing" >
    <i type="int" name="ISMEAR">     0</i>
    <i name="SIGMA">      0.10000000</i>
    <i name="KSPACING">      0.50000000</i>
    <i type="logical" name="KGAMMA"> T  </i>
   </separator>
   <separator name="electronic projectors" >
    <i type="logical" name="LREAL"> F  </i>
    <v name="ROPT">      0.00000000</v>
    <i type="int" name="LMAXPAW">  -100</i>
    <i type="int" name="LMAXMIX">     2</i>
    <i type="logical" name="NLSPLINE"> F  </i>
   </separator>
   <separator name="electronic startup" >
    <i type="int" name="ISTART">     0</i>
    <i type="int" name="ICHARG">    11</i>
    <i type="int" name="INIWAV">     1</i>
   </separator>
   <separator name="electronic spin" >
    <i type="int" name="ISPIN">     1</i>
    <i type="logical" name="LNONCOLLINEAR"> F  </i>
    <v name="MAGMOM">      1.00000000      1.00000000</v>
    <i name="NUPDOWN">     -1.00000000</i>
    <i type="logical" name="LSORBIT"> F  </i>
    <v name="SAXIS">      0.00000000      0.00000000      1.00000000</v>
    <i type="logical" name="LSPIRAL"> F  </i>
    <v name="QSPIRAL">      0.00000000      0.00000000      0.00000000</v>
    <i type="logical" name="LZEROZ"> F  </i>
   </separator>
   <separator name="electronic exchange-correlation" >
    <i type="logical" name="LASPH"> F  </i>
    <i type="logical" name="LMETAGGA"> F  </i>
   </separator>
   <separator name="electronic convergence" >
    <i type="int" name="NELM">    60</i>
    <i type="int" name="NELMDL">    -5</i>
    <i type="int" name="NELMIN">     2</i>
    <i name="ENINI">    540.00000000</i>
    <separator name="electronic convergence detail" >
     <i type="logical" name="LDIAG"> T  </i>
     <i type="logical" name="LSUBROT"> F  </i>
     <i name="WEIMIN">      0.00000000</i>
     <i name="EBREAK">      0.00000156</i>
     <i name="DEPER">      0.30000000</i>
     <i type="int" name="NRMM">     4</i>
     <i name="TIME">      0.40000000</i>
    </separator>
   </separator>
   <separator name="electronic mixer" >
    <i name="AMIX">      0.40000000</i>
    <i name="BMIX">      1.00000000</i>
    <i name="AMIN">      0.10000000</i>
    <i name="AMIX_MAG">      1.60000000</i>
    <i name="BMIX_MAG">      1.00000000</i>
    <separator name="electronic mixer details" >
     <i type="int" name="IMIX">     4</i>
     <i type="logical" name="MIXFIRST"> F  </i>
     <i type="int" name="MAXMIX">   -45</i>
     <i name="WC">    100.00000000</i>
     <i type="int" name="INIMIX">     1</i>
     <i type="int" name="MIXPRE">     1</i>
     <i type="int" name="MREMOVE">     5</i>
    </separator>
   </separator>
   <separator name="electronic dipolcorrection" >
    <i type="logical" name="LDIPOL"> F  </i>
    <i type="logical" name="LMONO"> F  </i>
    <i type="int" name="IDIPOL">     0</i>
    <i name="EPSILON">      1.00000000</i>
    <v name="DIPOL">   -100.00000000   -100.00000000   -100.00000000</v>
    <i name="EFIELD">      0.00000000</i>
   </separator>
  </separator>
  <separator name="grids" >
   <i type="int" name="NGX">    24</i>
   <i type="int" name="NGY">    24</i>
   <i type="int" name="NGZ">    24</i>
   <i type="int" name="NGXF">    48</i>
   <i type="int" name="NGYF">    48</i>
   <i type="int" name="NGZF">    48</i>
   <i type="logical" name="ADDGRID"> F  </i>
  </separator>
  <separator name="ionic" >
   <i type="int" name="NSW">     0</i>
   <i type="int" name="IBRION">    -1</i>
   <i type="int" name="MDALGO">     0</i>
   <i type="int" name="ISIF">     2</i>
   <i name="PSTRESS">      0.00000000</i>
   <i name="EDIFFG">      0.00100000</i>
   <i type="int" name="NFREE">     0</i>
   <i name="POTIM">      0.50000000</i>
   <i name="SMASS">     -3.00000000</i>
   <i name="SCALEE">      1.00000000</i>
  </separator>
  <separator name="ionic md" >
   <i name="TEBEG">      0.00010000</i>
   <i name="TEEND">      0.00010000</i>
   <i type="int" name="NBLOCK">     1</i>
   <i type="int" name="KBLOCK">     1</i>
   <i type="int" name="NPACO">   256</i>
   <i name="APACO">     16.00000000</i>
  </separator>
  <separator name="symmetry" >
   <i type="int" name="ISYM">     2</i>
   <i name="SYMPREC">      0.00001000</i>
  </separator>
  <separator name="dos" >
   <i type="int" name="LORBIT">     0</i>
   <v name="RWIGS">     -1.00000000</v>
   <i type="int" name="NEDOS">   301</i>
   <i name="EMIN">     10.00000000</i>
   <i name="EMAX">    -10.00000000</i>
   <i name="EFERMI">      0.00000000</i>
  </separator>
  <separator name="writing" >
   <i type="int" name="NWRITE">     2</i>
   <i type="logical" name="LWAVE"> T  </i>
   <i type="logical" name="LDOWNSAMPLE"> F  </i>
   <i type="logical" name="LCHARG"> T  </i>
   <i type="logical" name="LPARD"> F  </i>
   <i type="logical" name="LVTOT"> F  </i>
   <i type="logical" name="LVHAR"> F  </i>
   <i type="logical" name="LELF"> F  </i>
   <i type="logical" name="LOPTICS"> F  </i>
   <v name="STM">      0.00000000      0.00000000      0.00000000      0.00000000      0.00000000      0.00000000      0.00000000</v>
  </separator>
  <separator name="performance" >
   <i type="int" name="NPAR">    16</i>
   <i type="int" name="NSIM">     4</i>
   <i type="int" name="NBLK">    -1</i>
   <i type="logical" name="LPLANE"> T  </i>
   <i type="logical" name="LSCALAPACK"> T  </i>
   <i type="logical" name="LSCAAWARE"> F  </i>
   <i type="logical" name="LSCALU"> F  </i>
   <i type="logical" name="LASYNC"> F  </i>
   <i type="logical" name="LORBITALREAL"> F  </i>
  </separator>
  <separator name="miscellaneous" >
   <i type="int" name="IDIOT">     3</i>
   <i type="int" name="ISPECIAL">     0</i>
   <i type="logical" name="LMUSIC"> F  </i>
   <v name="POMASS">     28.08500000</v>
   <v name="DARWINR">      0.00000000</v>
   <v name="DARWINV">      1.00000000</v>
   <i type="logical" name="LCORR"> T  </i>
  </separator>
  <i type="logical" name="GGA_COMPAT"> T  </i>
  <i type="logical" name="LBERRY"> F  </i>
  <i type="int" name="ICORELEVEL">     0</i>
  <i type="logical" name="LDAU"> F  </i>
  <i type="int" name="I_CONSTRAINED_M">     0</i>
  <separator name="electronic exchange-correlation" >
   <i type="string" name="GGA">--</i>
   <i type="int" name="VOSKOWN">     0</i>
   <i type="logical" name="LHFCALC"> F  </i>
   <i type="string" name="PRECFOCK"></i>
   <i type="logical" name="LSYMGRAD"> F  </i>
   <i type="logical" name="LHFONE"> F  </i>
   <i type="logical" name="LRHFCALC"> F  </i>
   <i type="logical" name="LTHOMAS"> F  </i>
   <i type="logical" name="LMODELHF"> F  </i>
   <i name="ENCUT4O">     -1.00000000</i>
   <i type="int" name="EXXOEP">     0</i>
   <i type="int" name="FOURORBIT">     0</i>
   <i name="AEXX">      0.00000000</i>
   <i name="HFALPHA">      0.00000000</i>
   <i name="MCALPHA">      0.00000000</i>
   <i name="ALDAX">      1.00000000</i>
   <i name="AGGAX">      1.00000000</i>
   <i name="ALDAC">      1.00000000</i>
   <i name="AGGAC">      1.00000000</i>
   <i type="int" name="NKREDX">     1</i>
   <i type="int" name="NKREDY">     1</i>
   <i type="int" name="NKREDZ">     1</i>
   <i type="logical" name="SHIFTRED"> F  </i>
   <i type="logical" name="ODDONLY"> F  </i>
   <i type="logical" name="EVENONLY"> F  </i>
   <i type="int" name="LMAXFOCK">     0</i>
   <i type="int" name="NMAXFOCKAE">     0</i>
   <i type="logical" name="LFOCKAEDFT"> F  </i>
   <i name="HFSCREEN">      0.00000000</i>
   <i name="HFSCREENC">      0.00000000</i>
   <i type="int" name="NBANDSGWLOW">     0</i>
  </separator>
  <separator name="vdW DFT" >
   <i type="logical" name="LUSE_VDW"> F  </i>
   <i name="Zab_VDW">     -0.84910000</i>
   <i name="PARAM1">      0.12340000</i>
   <i name="PARAM2">      1.00000000</i>
   <i name="PARAM3">      0.00000000</i>
  </separator>
  <separator name="model GW" >
   <i type="int" name="MODEL_GW">     0</i>
   <i name="MODEL_EPS0">     12.26831825</i>
   <i name="MODEL_ALPHA">      1.00000000</i>
  </separator>
  <separator name="linear response parameters" >
   <i type="logical" name="LEPSILON"> F  </i>
   <i type="logical" name="LRPA"> F  </i>
   <i type="logical" name="LNABLA"> F  </i>
   <i type="logical" name="LVEL"> F  </i>
   <i type="int" name="KINTER">     0</i>
   <i name="CSHIFT">      0.10000000</i>
   <i name="OMEGAMAX">     -1.00000000</i>
   <i name="DEG_THRESHOLD">      0.00200000</i>
   <i name="RTIME">     -0.10000000</i>
   <i name="WPLASMAI">      0.00000000</i>
   <v name="DFIELD">      0.00000000      0.00000000      0.00000000</v>
   <v name="WPLASMA">      0.00000000      0.00000000      0.00000000      0.00000000      0.00000000      0.00000000      0.00000000      0.00000000      0.00000000</v>
  </separator>
  <separator name="orbital magnetization" >
   <i type="logical" name="NUCIND"> F  </i>
   <v name="MAGPOS">      0.00000000      0.00000000      0.00000000</v>
   <i type="logical" name="LNICSALL"> T  </i>
   <i type="logical" name="ORBITALMAG"> F  </i>
   <i type="logical" name="LMAGBLOCH"> F  </i>
   <i type="logical" name="LCHIMAG"> F  </i>
   <i type="logical" name="LGAUGE"> T  </i>
   <i type="int" name="MAGATOM">     0</i>
   <v name="MAGDIPOL">      0.00000000      0.00000000      0.00000000</v>
   <v name="AVECCONST">      0.00000000      0.00000000      0.00000000</v>
  </separator>
  <separator name="response functions" >
   <i type="logical" name="LADDER"> F  </i>
   <i type="logical" name="LRPAFORCE"> F  </i>
   <i type="logical" name="LFXC"> F  </i>
   <i type="logical" name="LHARTREE"> T  </i>
   <i type="int" name="IBSE">     0</i>
   <v type="int" name="KPOINT">    -1     0     0     0</v>
   <i type="logical" name="LTCTE"> F  </i>
   <i type="logical" name="LTETE"> F  </i>
   <i type="logical" name="LTRIPLET"> F  </i>
   <i type="logical" name="LFXCEPS"> F  </i>
   <i type="logical" name="LFXHEG"> F  </i>
   <i type="int" name="NATURALO">     2</i>
   <i type="logical" name="L2ORDER"> F  </i>
   <i type="logical" name="LMP2LT"> F  </i>
   <i type="logical" name="LUSEW"> F  </i>
   <i name="ENCUTGW">     -2.00000000</i>
   <i name="ENCUTGWSOFT">     -2.00000000</i>
   <i name="ENCUTLF">     -1.00000000</i>
   <i type="int" name="LMAXMP2">    -1</i>
   <i name="SCISSOR">      0.00000000</i>
   <i type="int" name="NOMEGA">     0</i>
   <i type="int" name="NOMEGAR">     0</i>
   <i type="int" name="NBANDSGW">    -1</i>
   <i type="int" name="NBANDSO">    -1</i>
   <i type="int" name="NBANDSV">    -1</i>
   <i type="int" name="NELM">     1</i>
   <i type="int" name="NELMHF">     1</i>
   <i type="int" name="DIM">     3</i>
   <i type="int" name="ANTIRES">     0</i>
   <i name="OMEGAMAX">    -30.00000000</i>
   <i name="OMEGAMIN">    -30.00000000</i>
   <i name="OMEGATL">   -200.00000000</i>
   <i type="int" name="OMEGAGRID">   140</i>
   <i name="CSHIFT">     -0.10000000</i>
   <i type="logical" name="SELFENERGY"> F  </i>
   <i type="logical" name="LSPECTRAL"> F  </i>
   <i type="logical" name="LSPECTRALGW"> F  </i>
   <i type="logical" name="LSINGLES"> F  </i>
   <i type="logical" name="LFERMIGW"> F  </i>
   <i type="logical" name="ODDONLYGW"> F  </i>
   <i type="logical" name="EVENONLYGW"> F  </i>
   <i type="int" name="NKREDLFX">     1</i>
   <i type="int" name="NKREDLFY">     1</i>
   <i type="int" name="NKREDLFZ">     1</i>
   <i type="int" name="MAXMEM">  2800</i>
   <i type="int" name="TELESCOPE">     0</i>
   <i type="int" name="TAUPAR">     1</i>
   <i type="int" name="OMEGAPAR">    -1</i>
   <i name="LAMBDA">      1.00000000</i>
  </separator>
  <separator name="External order field" >
   <i name="OFIELD_KAPPA">      0.00000000</i>
   <v name="OFIELD_K">      0.00000000      0.00000000      0.00000000</v>
   <i name="OFIELD_Q6_NEAR">      0.00000000</i>
   <i name="OFIELD_Q6_FAR">      0.00000000</i>
   <i name="OFIELD_A">      0.00000000</i>
  </separator>
 </parameters>
 <atominfo>
  <atoms>       2 </atoms>
  <types>       1 </types>
  <array name="atoms" >
   <dimension dim="1">ion</dimension>
   <field type="string">element</field>
   <field type="int">atomtype</field>
   <set>
    <rc><c>Si</c><c>   1</c></rc>
    <rc><c>Si</c><c>   1</c></rc>
   </set>
  </array>
  <array name="atomtypes" >
   <dimension dim="1">type</dimension>
   <field type="int">atomspertype</field>
   <field type="string">element</field>
   <field>mass</field>
   <field>valence</field>
   <field type="string">pseudopotential</field>
   <set>
    <rc><c>   2</c><c>Si</c><c>     28.08500000</c><c>      4.00000000</c><c> PAW_PBE Si 05Jan2001                   </c></rc>
   </set>
  </array>
 </atominfo>
 <structure name="initialpos" >
  <crystal>
   <varray name="basis" >
    <v>       0.00000000       2.73450000       2.73450000 </v>
    <v>       2.73450000       0.00000000       2.73450000 </v>
    <v>       2.73450000       2.73450000       0.00000000 </v>
   </varray>
   <i name="volume">     40.89439418 </i>
   <varray name="rec_basis" >
    <v>      -0.18284878       0.18284878       0.18284878 </v>
    <v>       0.18284878      -0.18284878       0.18284878 </v>
    <v>       0.18284878       0.18284878      -0.18284878 </v>
   </varray>
  </crystal>
  <varray name="positions" >
   <v>       0.87500000       0.87500000       0.87500000 </v>
   <v>       0.12500000       0.12500000       0.12500000 </v>
  </varray>
 </structure>
 <calculation>
  <scstep>
   <time name="dav">    0.15    0.15</time>
   <time name="total">    0.16    0.16</time>
   <energy>
    <i name="alphaZ">      3.29268391 </i>
    <i name="ewald">   -226.93361499 </i>
    <i name="hartreedc">    -15.17412085 </i>
    <i name="XCdc">    -18.06142097 </i>
    <i name="pawpsdc">     73.60606077 </i>
    <i name="pawaedc">    -38.62466451 </i>
    <i name="eentropy">     -0.00723634 </i>
    <i name="bandstr">     18.84711861 </i>
    <i name="atom">    206.13286921 </i>
    <i name="e_fr_energy">      3.07767484 </i>
    <i name="e_wo_entrp">      3.08491118 </i>
    <i name="e_0_energy">      3.08129301 </i>
   </energy>
  </scstep>
  <scstep>
   <time name="dav">    0.23    0.23</time>
   <time name="total">    0.23    0.23</time>
   <energy>
    <i name="e_fr_energy">     -6.84208643 </i>
    <i name="e_wo_entrp">     -6.84208494 </i>
    <i name="e_0_energy">     -6.84208569 </i>
   </energy>
  </scstep>
  <scstep>
   <time name="dav">    0.17    0.17</time>
   <time name="total">    0.17    0.17</time>
   <energy>
    <i name="e_fr_energy">     -6.92192140 </i>
    <i name="e_wo_entrp">     -6.92192075 </i>
    <i name="e_0_energy">     -6.92192107 </i>
   </energy>
  </scstep>
  <scstep>
   <time name="dav">    0.31    0.31</time>
   <time name="total">    0.31    0.31</time>
   <energy>
    <i name="e_fr_energy">     -6.92212369 </i>
    <i name="e_wo_entrp">     -6.92212304 </i>
    <i name="e_0_energy">     -6.92212337 </i>
   </energy>
  </scstep>
  <scstep>
   <time name="dav">    0.15    0.15</time>
   <time name="total">    0.15    0.15</time>
   <energy>
    <i name="e_fr_energy">     -6.92212370 </i>
    <i name="e_wo_entrp">     -6.92212305 </i>
    <i name="e_0_energy">     -6.92212337 </i>
   </energy>
  </scstep>
  <scstep>
   <time name="dav">    0.27    0.27</time>
   <time name="total">    0.27    0.27</time>
   <energy>
    <i name="alphaZ">      3.29268391 </i>
    <i name="ewald">   -226.93361499 </i>
    <i name="hartreedc">    -15.17412085 </i>
    <i name="XCdc">    -18.06142097 </i>
    <i name="pawpsdc">     73.60606077 </i>
    <i name="pawaedc">    -38.62466451 </i>
    <i name="eentropy">     -0.00000065 </i>
    <i name="bandstr">      8.84008438 </i>
    <i name="atom">    206.13286921 </i>
    <i name="e_fr_energy">     -6.92212370 </i>
    <i name="e_wo_entrp">     -6.92212305 </i>
    <i name="e_0_energy">     -6.92212337 </i>
   </energy>
  </scstep>
  <structure>
   <crystal>
    <varray name="basis" >
     <v>       0.00000000       2.73450000       2.73450000 </v>
     <v>       2.73450000       0.00000000       2.73450000 </v>
     <v>       2.73450000       2.73450000       0.00000000 </v>
    </varray>
    <i name="volume">     40.89439418 </i>
    <varray name="rec_basis" >
     <v>      -0.18284878       0.18284878       0.18284878 </v>
     <v>       0.18284878      -0.18284878       0.18284878 </v>
     <v>       0.18284878       0.18284878      -0.18284878 </v>
    </varray>
   </crystal>
   <varray name="positions" >
    <v>       0.87500000       0.87500000       0.87500000 </v>
    <v>       0.12500000       0.12500000       0.12500000 </v>
   </varray>
  </structure>
  <varray name="forces" >
   <v>      -0.00000000       0.00000000       0.00000000 </v>
   <v>       0.00000000      -0.00000000      -0.00000000 </v>
  </varray>
  <varray name="stress" >
   <v>     155.69689776      -0.00000000       0.00000000 </v>
   <v>       0.00000000     155.69689776      -0.00000000 </v>
   <v>       0.00000000      -0.00000000     155.69689776 </v>
  </varray>
  <energy>
   <i name="e_fr_energy">     -6.92212370 </i>
   <i name="e_wo_entrp">     -6.92212337 </i>
   <i name="e_0_energy">     -0.00000065 </i>
  </energy>
  <time name="totalsc">    1.61    1.72</time>
  <eigenvalues>
   <array>
    <dimension dim="1">band</dimension>
    <dimension dim="2">kpoint</dimension>
    <dimension dim="3">spin</dimension>
    <field>eigene</field>
    <field>occ</field>
    <set>
     <set comment="spin 1">
      <set comment="kpoint 1">
       <r>   -3.9208    1.0000 </r>
       <r>   -1.2533    1.0000 </r>
       <r>    4.4363    1.0000 </r>
       <r>    4.4363    1.0000 </r>
       <r>    7.0808    0.0000 </r>
       <r>    8.9642    0.0000 </r>
       <r>    8.9642    0.0000 </r>
       <r>   13.3168    0.0000 </r>
       <r>   16.1094    0.0000 </r>
       <r>   16.1094    0.0000 </r>
       <r>   16.7950    0.0000 </r>
       <r>   16.8337    0.0000 </r>
       <r>   16.8337    0.0000 </r>
       <r>   18.3531    0.0000 </r>
       <r>   24.7533    0.0000 </r>
       <r>   25.3616    0.0000 </r>
      </set>
      <set comment="kpoint 2">
       <r>   -4.0783    1.0000 </r>
       <r>   -1.0207    1.0000 </r>
       <r>    4.4582    1.0000 </r>
       <r>    4.4582    1.0000 </r>
       <r>    7.1063    0.0000 </r>
       <r>    8.9879    0.0000 </r>
       <r>    8.9879    0.0000 </r>
       <r>   13.3529    0.0000 </r>
       <r>   15.3180    0.0000 </r>
       <r>   15.3180    0.0000 </r>
       <r>   16.2502    0.0000 </r>
       <r>   17.7170    0.0000 </r>
       <r>   17.7170    0.0000 </r>
       <r>   18.8579    0.0000 </r>
       <r>   23.4060    0.0000 </r>
       <r>   25.7130    0.0000 </r>
      </set>
      <set comment="kpoint 3">
       <r>   -4.4380    1.0000 </r>
       <r>   -0.4366    1.0000 </r>
       <r>    4.5238    1.0000 </r>
       <r>    4.5238    1.0000 </r>
       <r>    7.1823    0.0000 </r>
       <r>    9.0495    0.0000 </r>
       <r>    9.0495    0.0000 </r>
       <r>   13.4362    0.0000 </r>
       <r>   14.3706    0.0000 </r>
       <r>   14.3706    0.0000 </r>
       <r>   15.3450    0.0000 </r>
       <r>   18.9301    0.0000 </r>
       <r>   18.9301    0.0000 </r>
       <r>   19.4562    0.0000 </r>
       <r>   22.2133    0.0000 </r>
       <r>   24.3155    0.0000 </r>
      </set>
      <set comment="kpoint 4">
       <r>   -4.8492    1.0000 </r>
       <r>    0.3456    1.0000 </r>
       <r>    4.6322    1.0000 </r>
       <r>    4.6322    1.0000 </r>
       <r>    7.3067    0.0000 </r>
       <r>    9.1180    0.0000 </r>
       <r>    9.1180    0.0000 </r>
       <r>   13.3977    0.0000 </r>
       <r>   13.5691    0.0000 </r>
       <r>   13.5691    0.0000 </r>
       <r>   14.5949    0.0000 </r>
       <r>   19.0417    0.0000 </r>
       <r>   20.0778    0.0000 </r>
       <r>   20.0778    0.0000 </r>
       <r>   22.2010    0.0000 </r>
       <r>   23.1231    0.0000 </r>
      </set>
      <set comment="kpoint 5">
       <r>   -5.2384    1.0000 </r>
       <r>    1.2467    1.0000 </r>
       <r>    4.7813    1.0000 </r>
       <r>    4.7813    1.0000 </r>
       <r>    7.4753    0.0000 </r>
       <r>    9.1363    0.0000 </r>
       <r>    9.1363    0.0000 </r>
       <r>   12.8097    0.0000 </r>
       <r>   12.9874    0.0000 </r>
       <r>   12.9874    0.0000 </r>
       <r>   14.4560    0.0000 </r>
       <r>   17.9066    0.0000 </r>
       <r>   20.4549    0.0000 </r>
       <r>   20.4549    0.0000 </r>
       <r>   22.8531    0.0000 </r>
       <r>   22.8544    0.0000 </r>
      </set>
      <set comment="kpoint 6">
       <r>   -5.5748    1.0000 </r>
       <r>    2.2262    1.0000 </r>
       <r>    4.9657    1.0000 </r>
       <r>    4.9657    1.0000 </r>
       <r>    7.6789    0.0000 </r>
       <r>    9.0377    0.0000 </r>
       <r>    9.0377    0.0000 </r>
       <r>   11.8862    0.0000 </r>
       <r>   12.6941    0.0000 </r>
       <r>   12.6941    0.0000 </r>
       <r>   14.6441    0.0000 </r>
       <r>   16.8056    0.0000 </r>
       <r>   19.6567    0.0000 </r>
       <r>   19.6567    0.0000 </r>
       <r>   23.4996    0.0000 </r>
       <r>   23.9169    0.0000 </r>
      </set>
      <set comment="kpoint 7">
       <r>   -5.8445    1.0000 </r>
       <r>    3.2516    1.0000 </r>
       <r>    5.1739    1.0000 </r>
       <r>    5.1739    1.0000 </r>
       <r>    7.8999    0.0000 </r>
       <r>    8.8067    0.0000 </r>
       <r>    8.8067    0.0000 </r>
       <r>   10.8918    0.0000 </r>
       <r>   12.6997    0.0000 </r>
       <r>   12.6997    0.0000 </r>
       <r>   14.6151    0.0000 </r>
       <r>   16.1965    0.0000 </r>
       <r>   18.6433    0.0000 </r>
       <r>   18.6433    0.0000 </r>
       <r>   22.8103    0.0000 </r>
       <r>   25.3519    0.0000 </r>
      </set>
      <set comment="kpoint 8">
       <r>   -6.0405    1.0000 </r>
       <r>    4.2755    1.0000 </r>
       <r>    5.3824    1.0000 </r>
       <r>    5.3824    1.0000 </r>
       <r>    8.1036    0.0000 </r>
       <r>    8.5136    0.0000 </r>
       <r>    8.5136    0.0000 </r>
       <r>    9.9048    0.0000 </r>
       <r>   12.9177    0.0000 </r>
       <r>   12.9177    0.0000 </r>
       <r>   14.1293    0.0000 </r>
       <r>   16.3132    0.0000 </r>
       <r>   17.7301    0.0000 </r>
       <r>   17.7301    0.0000 </r>
       <r>   21.8804    0.0000 </r>
       <r>   26.8197    0.0000 </r>
      </set>
      <set comment="kpoint 9">
       <r>   -6.1594    1.0000 </r>
       <r>    5.1819    1.0000 </r>
       <r>    5.5486    1.0000 </r>
       <r>    5.5486    1.0000 </r>
       <r>    8.2151    0.0000 </r>
       <r>    8.2682    0.0000 </r>
       <r>    8.2682    0.0000 </r>
       <r>    9.0675    0.0000 </r>
       <r>   13.1924    0.0000 </r>
       <r>   13.1924    0.0000 </r>
       <r>   13.6662    0.0000 </r>
       <r>   16.6393    0.0000 </r>
       <r>   17.0572    0.0000 </r>
       <r>   17.0572    0.0000 </r>
       <r>   21.1661    0.0000 </r>
       <r>   28.0012    0.0000 </r>
      </set>
      <set comment="kpoint 10">
       <r>   -6.1991    1.0000 </r>
       <r>    5.6145    1.0000 </r>
       <r>    5.6145    1.0000 </r>
       <r>    5.6145    1.0000 </r>
       <r>    8.1714    0.0000 </r>
       <r>    8.1714    0.0000 </r>
       <r>    8.1714    0.0000 </r>
       <r>    8.7467    0.0000 </r>
       <r>   13.3237    0.0000 </r>
       <r>   13.3237    0.0000 </r>
       <r>   13.4918    0.0000 </r>
       <r>   16.7965    0.0000 </r>
       <r>   16.7965    0.0000 </r>
       <r>   16.7965    0.0000 </r>
       <r>   20.8880    0.0000 </r>
       <r>   28.4672    0.0000 </r>
      </set>
      <set comment="kpoint 11">
       <r>   -6.1991    1.0000 </r>
       <r>    5.6145    1.0000 </r>
       <r>    5.6145    1.0000 </r>
       <r>    5.6145    1.0000 </r>
       <r>    8.1714    0.0000 </r>
       <r>    8.1714    0.0000 </r>
       <r>    8.1714    0.0000 </r>
       <r>    8.7467    0.0000 </r>
       <r>   13.3237    0.0000 </r>
       <r>   13.3237    0.0000 </r>
       <r>   13.4918    0.0000 </r>
       <r>   16.7965    0.0000 </r>
       <r>   16.7965    0.0000 </r>
       <r>   16.7965    0.0000 </r>
       <r>   20.8880    0.0000 </r>
       <r>   28.4671    0.0000 </r>
      </set>
      <set comment="kpoint 12">
       <r>   -6.1461    1.0000 </r>
       <r>    5.2647    1.0000 </r>
       <r>    5.4078    1.0000 </r>
       <r>    5.4078    1.0000 </r>
       <r>    8.0448    0.0000 </r>
       <r>    8.4435    0.0000 </r>
       <r>    8.4435    0.0000 </r>
       <r>    9.0837    0.0000 </r>
       <r>   12.9350    0.0000 </r>
       <r>   13.3826    0.0000 </r>
       <r>   13.7237    0.0000 </r>
       <r>   16.8893    0.0000 </r>
       <r>   16.8893    0.0000 </r>
       <r>   17.0653    0.0000 </r>
       <r>   21.2703    0.0000 </r>
       <r>   27.7328    0.0000 </r>
      </set>
      <set comment="kpoint 13">
       <r>   -5.9872    1.0000 </r>
       <r>    4.4858    1.0000 </r>
       <r>    4.9541    1.0000 </r>
       <r>    4.9541    1.0000 </r>
       <r>    7.7263    0.0000 </r>
       <r>    9.0917    0.0000 </r>
       <r>    9.0917    0.0000 </r>
       <r>    9.7183    0.0000 </r>
       <r>   12.2232    0.0000 </r>
       <r>   13.5593    0.0000 </r>
       <r>   14.3559    0.0000 </r>
       <r>   17.1658    0.0000 </r>
       <r>   17.1658    0.0000 </r>
       <r>   17.5979    0.0000 </r>
       <r>   22.3322    0.0000 </r>
       <r>   26.3474    0.0000 </r>
      </set>
      <set comment="kpoint 14">
       <r>   -5.7237    1.0000 </r>
       <r>    3.5603    1.0000 </r>
       <r>    4.4500    1.0000 </r>
       <r>    4.4500    1.0000 </r>
       <r>    7.3292    0.0000 </r>
       <r>    9.8251    0.0000 </r>
       <r>    9.9158    0.0000 </r>
       <r>    9.9158    0.0000 </r>
       <r>   12.1239    0.0000 </r>
       <r>   13.8537    0.0000 </r>
       <r>   15.2655    0.0000 </r>
       <r>   17.6175    0.0000 </r>
       <r>   17.6175    0.0000 </r>
       <r>   18.1900    0.0000 </r>
       <r>   23.8447    0.0000 </r>
       <r>   24.8690    0.0000 </r>
      </set>
      <set comment="kpoint 15">
       <r>   -5.3575    1.0000 </r>
       <r>    2.5882    1.0000 </r>
       <r>    3.9785    1.0000 </r>
       <r>    3.9785    1.0000 </r>
       <r>    6.9405    0.0000 </r>
       <r>    9.1571    0.0000 </r>
       <r>   10.8275    0.0000 </r>
       <r>   10.8275    0.0000 </r>
       <r>   12.9413    0.0000 </r>
       <r>   14.2653    0.0000 </r>
       <r>   16.3439    0.0000 </r>
       <r>   18.2119    0.0000 </r>
       <r>   18.2119    0.0000 </r>
       <r>   18.8615    0.0000 </r>
       <r>   23.4631    0.0000 </r>
       <r>   23.4631    0.0000 </r>
      </set>
      <set comment="kpoint 16">
       <r>   -4.8914    1.0000 </r>
       <r>    1.6036    1.0000 </r>
       <r>    3.5728    1.0000 </r>
       <r>    3.5728    1.0000 </r>
       <r>    6.6118    0.0000 </r>
       <r>    8.3526    0.0000 </r>
       <r>   11.7901    0.0000 </r>
       <r>   11.7901    0.0000 </r>
       <r>   14.0533    0.0000 </r>
       <r>   14.7937    0.0000 </r>
       <r>   17.4878    0.0000 </r>
       <r>   18.8209    0.0000 </r>
       <r>   18.8209    0.0000 </r>
       <r>   19.6616    0.0000 </r>
       <r>   22.3000    0.0000 </r>
       <r>   22.3000    0.0000 </r>
      </set>
      <set comment="kpoint 17">
       <r>   -4.3295    1.0000 </r>
       <r>    0.6245    1.0000 </r>
       <r>    3.2480    1.0000 </r>
       <r>    3.2480    1.0000 </r>
       <r>    6.3733    0.0000 </r>
       <r>    7.6365    0.0000 </r>
       <r>   12.7868    0.0000 </r>
       <r>   12.7868    0.0000 </r>
       <r>   15.2256    0.0000 </r>
       <r>   15.4382    0.0000 </r>
       <r>   18.5365    0.0000 </r>
       <r>   18.9700    0.0000 </r>
       <r>   18.9700    0.0000 </r>
       <r>   20.6233    0.0000 </r>
       <r>   21.6582    0.0000 </r>
       <r>   21.8669    0.0000 </r>
      </set>
      <set comment="kpoint 18">
       <r>   -3.6771    1.0000 </r>
       <r>   -0.3343    1.0000 </r>
       <r>    3.0119    1.0000 </r>
       <r>    3.0119    1.0000 </r>
       <r>    6.2442    0.0000 </r>
       <r>    7.0612    0.0000 </r>
       <r>   13.8082    0.0000 </r>
       <r>   13.8082    0.0000 </r>
       <r>   16.1978    0.0000 </r>
       <r>   16.3796    0.0000 </r>
       <r>   18.2707    0.0000 </r>
       <r>   18.2707    0.0000 </r>
       <r>   19.1739    0.0000 </r>
       <r>   20.3547    0.0000 </r>
       <r>   21.7583    0.0000 </r>
       <r>   22.5515    0.0000 </r>
      </set>
      <set comment="kpoint 19">
       <r>   -2.9414    1.0000 </r>
       <r>   -1.2578    1.0000 </r>
       <r>    2.8688    1.0000 </r>
       <r>    2.8688    1.0000 </r>
       <r>    6.2383    0.0000 </r>
       <r>    6.6385    0.0000 </r>
       <r>   14.8312    0.0000 </r>
       <r>   14.8312    0.0000 </r>
       <r>   17.0714    0.0000 </r>
       <r>   17.2554    0.0000 </r>
       <r>   17.2554    0.0000 </r>
       <r>   17.4647    0.0000 </r>
       <r>   19.0845    0.0000 </r>
       <r>   19.1527    0.0000 </r>
       <r>   23.0402    0.0000 </r>
       <r>   23.8246    0.0000 </r>
      </set>
      <set comment="kpoint 20">
       <r>   -2.1312    1.0000 </r>
       <r>   -2.1312    1.0000 </r>
       <r>    2.8209    1.0000 </r>
       <r>    2.8209    1.0000 </r>
       <r>    6.3666    0.0000 </r>
       <r>    6.3666    0.0000 </r>
       <r>   15.5499    0.0000 </r>
       <r>   15.5499    0.0000 </r>
       <r>   16.5212    0.0000 </r>
       <r>   16.5212    0.0000 </r>
       <r>   18.0571    0.0000 </r>
       <r>   18.0571    0.0000 </r>
       <r>   18.4156    0.0000 </r>
       <r>   18.4156    0.0000 </r>
       <r>   24.2899    0.0000 </r>
       <r>   24.2901    0.0000 </r>
      </set>
      <set comment="kpoint 21">
       <r>   -2.1312    1.0000 </r>
       <r>   -2.1312    1.0000 </r>
       <r>    2.8209    1.0000 </r>
       <r>    2.8209    1.0000 </r>
       <r>    6.3666    0.0000 </r>
       <r>    6.3666    0.0000 </r>
       <r>   15.5499    0.0000 </r>
       <r>   15.5499    0.0000 </r>
       <r>   16.5212    0.0000 </r>
       <r>   16.5212    0.0000 </r>
       <r>   18.0571    0.0000 </r>
       <r>   18.0571    0.0000 </r>
       <r>   18.4156    0.0000 </r>
       <r>   18.4156    0.0000 </r>
       <r>   24.2899    0.0000 </r>
       <r>   24.2899    0.0000 </r>
      </set>
      <set comment="kpoint 22">
       <r>   -2.1341    1.0000 </r>
       <r>   -2.1240    1.0000 </r>
       <r>    2.7765    1.0000 </r>
       <r>    2.8262    1.0000 </r>
       <r>    6.3727    0.0000 </r>
       <r>    6.4332    0.0000 </r>
       <r>   15.4790    0.0000 </r>
       <r>   15.5097    0.0000 </r>
       <r>   16.4113    0.0000 </r>
       <r>   16.4391    0.0000 </r>
       <r>   18.1326    0.0000 </r>
       <r>   18.1378    0.0000 </r>
       <r>   18.4545    0.0000 </r>
       <r>   18.5364    0.0000 </r>
       <r>   24.1480    0.0000 </r>
       <r>   24.2227    0.0000 </r>
      </set>
      <set comment="kpoint 23">
       <r>   -2.1433    1.0000 </r>
       <r>   -2.1023    1.0000 </r>
       <r>    2.6537    1.0000 </r>
       <r>    2.8421    1.0000 </r>
       <r>    6.3910    0.0000 </r>
       <r>    6.6230    0.0000 </r>
       <r>   15.2880    0.0000 </r>
       <r>   15.3956    0.0000 </r>
       <r>   16.1399    0.0000 </r>
       <r>   16.2312    0.0000 </r>
       <r>   18.3373    0.0000 </r>
       <r>   18.3413    0.0000 </r>
       <r>   18.5649    0.0000 </r>
       <r>   18.8406    0.0000 </r>
       <r>   23.8269    0.0000 </r>
       <r>   24.0308    0.0000 </r>
      </set>
      <set comment="kpoint 24">
       <r>   -2.1599    1.0000 </r>
       <r>   -2.0663    1.0000 </r>
       <r>    2.4768    1.0000 </r>
       <r>    2.8686    1.0000 </r>
       <r>    6.4215    0.0000 </r>
       <r>    6.9129    0.0000 </r>
       <r>   15.0190    0.0000 </r>
       <r>   15.2229    0.0000 </r>
       <r>   15.7921    0.0000 </r>
       <r>   15.9573    0.0000 </r>
       <r>   18.6079    0.0000 </r>
       <r>   18.6285    0.0000 </r>
       <r>   18.7314    0.0000 </r>
       <r>   19.2422    0.0000 </r>
       <r>   23.4422    0.0000 </r>
       <r>   23.7472    0.0000 </r>
      </set>
      <set comment="kpoint 25">
       <r>   -2.1857    1.0000 </r>
       <r>   -2.0159    1.0000 </r>
       <r>    2.2718    1.0000 </r>
       <r>    2.9055    1.0000 </r>
       <r>    6.4640    0.0000 </r>
       <r>    7.2783    0.0000 </r>
       <r>   14.7064    0.0000 </r>
       <r>   15.0087    0.0000 </r>
       <r>   15.4143    0.0000 </r>
       <r>   15.6536    0.0000 </r>
       <r>   18.9012    0.0000 </r>
       <r>   18.9368    0.0000 </r>
       <r>   18.9711    0.0000 </r>
       <r>   19.6936    0.0000 </r>
       <r>   23.0383    0.0000 </r>
       <r>   23.4123    0.0000 </r>
      </set>
      <set comment="kpoint 26">
       <r>   -2.2232    1.0000 </r>
       <r>   -1.9511    1.0000 </r>
       <r>    2.0604    1.0000 </r>
       <r>    2.9527    1.0000 </r>
       <r>    6.5184    0.0000 </r>
       <r>    7.6999    0.0000 </r>
       <r>   14.3717    0.0000 </r>
       <r>   14.7671    0.0000 </r>
       <r>   15.0274    0.0000 </r>
       <r>   15.3379    0.0000 </r>
       <r>   19.1669    0.0000 </r>
       <r>   19.2037    0.0000 </r>
       <r>   19.3427    0.0000 </r>
       <r>   20.1707    0.0000 </r>
       <r>   22.6324    0.0000 </r>
       <r>   23.0560    0.0000 </r>
      </set>
      <set comment="kpoint 27">
       <r>   -2.2754    1.0000 </r>
       <r>   -1.8719    1.0000 </r>
       <r>    1.8588    1.0000 </r>
       <r>    3.0100    1.0000 </r>
       <r>    6.5845    0.0000 </r>
       <r>    8.1639    0.0000 </r>
       <r>   14.0271    0.0000 </r>
       <r>   14.5085    0.0000 </r>
       <r>   14.6412    0.0000 </r>
       <r>   15.0197    0.0000 </r>
       <r>   19.4104    0.0000 </r>
       <r>   19.5064    0.0000 </r>
       <r>   19.7295    0.0000 </r>
       <r>   20.6567    0.0000 </r>
       <r>   22.2325    0.0000 </r>
       <r>   22.7002    0.0000 </r>
      </set>
      <set comment="kpoint 28">
       <r>   -2.3450    1.0000 </r>
       <r>   -1.7785    1.0000 </r>
       <r>    1.6788    1.0000 </r>
       <r>    3.0771    1.0000 </r>
       <r>    6.6619    0.0000 </r>
       <r>    8.6608    0.0000 </r>
       <r>   13.6800    0.0000 </r>
       <r>   14.2405    0.0000 </r>
       <r>   14.2609    0.0000 </r>
       <r>   14.7042    0.0000 </r>
       <r>   19.6582    0.0000 </r>
       <r>   19.8046    0.0000 </r>
       <r>   20.1229    0.0000 </r>
       <r>   21.1222    0.0000 </r>
       <r>   21.8444    0.0000 </r>
       <r>   22.3762    0.0000 </r>
      </set>
      <set comment="kpoint 29">
       <r>   -2.4347    1.0000 </r>
       <r>   -1.6708    1.0000 </r>
       <r>    1.5290    1.0000 </r>
       <r>    3.1536    1.0000 </r>
       <r>    6.7502    0.0000 </r>
       <r>    9.1836    0.0000 </r>
       <r>   13.3349    0.0000 </r>
       <r>   13.8897    0.0000 </r>
       <r>   13.9685    0.0000 </r>
       <r>   14.3950    0.0000 </r>
       <r>   19.8999    0.0000 </r>
       <r>   20.0960    0.0000 </r>
       <r>   20.5170    0.0000 </r>
       <r>   21.4415    0.0000 </r>
       <r>   21.4755    0.0000 </r>
       <r>   22.2092    0.0000 </r>
      </set>
      <set comment="kpoint 30">
       <r>   -2.5460    1.0000 </r>
       <r>   -1.5489    1.0000 </r>
       <r>    1.4149    1.0000 </r>
       <r>    3.2393    1.0000 </r>
       <r>    6.8492    0.0000 </r>
       <r>    9.7268    0.0000 </r>
       <r>   12.9948    0.0000 </r>
       <r>   13.5303    0.0000 </r>
       <r>   13.6966    0.0000 </r>
       <r>   14.0949    0.0000 </r>
       <r>   20.1148    0.0000 </r>
       <r>   20.3796    0.0000 </r>
       <r>   20.9078    0.0000 </r>
       <r>   21.1442    0.0000 </r>
       <r>   21.3526    0.0000 </r>
       <r>   22.4575    0.0000 </r>
      </set>
      <set comment="kpoint 31">
       <r>   -2.5460    1.0000 </r>
       <r>   -1.5489    1.0000 </r>
       <r>    1.4149    1.0000 </r>
       <r>    3.2393    1.0000 </r>
       <r>    6.8492    0.0000 </r>
       <r>    9.7268    0.0000 </r>
       <r>   12.9948    0.0000 </r>
       <r>   13.5303    0.0000 </r>
       <r>   13.6966    0.0000 </r>
       <r>   14.0949    0.0000 </r>
       <r>   20.1148    0.0000 </r>
       <r>   20.3796    0.0000 </r>
       <r>   20.9078    0.0000 </r>
       <r>   21.1442    0.0000 </r>
       <r>   21.3526    0.0000 </r>
       <r>   22.4575    0.0000 </r>
      </set>
      <set comment="kpoint 32">
       <r>   -3.0029    1.0000 </r>
       <r>   -1.0984    1.0000 </r>
       <r>    1.3049    1.0000 </r>
       <r>    3.5460    1.0000 </r>
       <r>    7.2027    0.0000 </r>
       <r>   11.3917    0.0000 </r>
       <r>   12.0218    0.0000 </r>
       <r>   12.5846    0.0000 </r>
       <r>   12.9094    0.0000 </r>
       <r>   13.2667    0.0000 </r>
       <r>   19.8541    0.0000 </r>
       <r>   20.4286    0.0000 </r>
       <r>   21.0757    0.0000 </r>
       <r>   21.1829    0.0000 </r>
       <r>   22.0362    0.0000 </r>
       <r>   22.9670    0.0000 </r>
      </set>
      <set comment="kpoint 33">
       <r>   -3.5841    1.0000 </r>
       <r>   -0.5226    1.0000 </r>
       <r>    1.5090    1.0000 </r>
       <r>    3.9126    1.0000 </r>
       <r>    7.6200    0.0000 </r>
       <r>   11.1399    0.0000 </r>
       <r>   11.4697    0.0000 </r>
       <r>   12.2105    0.0000 </r>
       <r>   12.5788    0.0000 </r>
       <r>   13.4205    0.0000 </r>
       <r>   18.9587    0.0000 </r>
       <r>   19.5587    0.0000 </r>
       <r>   20.5495    0.0000 </r>
       <r>   21.9136    0.0000 </r>
       <r>   22.1265    0.0000 </r>
       <r>   23.0868    0.0000 </r>
      </set>
      <set comment="kpoint 34">
       <r>   -4.1953    1.0000 </r>
       <r>    0.1755    1.0000 </r>
       <r>    1.9461    1.0000 </r>
       <r>    4.3125    1.0000 </r>
       <r>    8.0525    0.0000 </r>
       <r>   10.3631    0.0000 </r>
       <r>   10.6977    0.0000 </r>
       <r>   11.6555    0.0000 </r>
       <r>   12.0685    0.0000 </r>
       <r>   15.1358    0.0000 </r>
       <r>   18.1084    0.0000 </r>
       <r>   18.6434    0.0000 </r>
       <r>   18.9584    0.0000 </r>
       <r>   22.1195    0.0000 </r>
       <r>   22.4973    0.0000 </r>
       <r>   22.8157    0.0000 </r>
      </set>
      <set comment="kpoint 35">
       <r>   -4.7692    1.0000 </r>
       <r>    0.9915    1.0000 </r>
       <r>    2.5468    1.0000 </r>
       <r>    4.7086    1.0000 </r>
       <r>    8.4121    0.0000 </r>
       <r>    9.6989    0.0000 </r>
       <r>   10.0090    0.0000 </r>
       <r>   11.3101    0.0000 </r>
       <r>   11.7754    0.0000 </r>
       <r>   16.1730    0.0000 </r>
       <r>   16.5980    0.0000 </r>
       <r>   17.5646    0.0000 </r>
       <r>   19.1321    0.0000 </r>
       <r>   20.6264    0.0000 </r>
       <r>   22.5337    0.0000 </r>
       <r>   23.5723    0.0000 </r>
      </set>
      <set comment="kpoint 36">
       <r>   -5.2673    1.0000 </r>
       <r>    1.9177    1.0000 </r>
       <r>    3.2580    1.0000 </r>
       <r>    5.0580    1.0000 </r>
       <r>    8.5928    0.0000 </r>
       <r>    9.1515    0.0000 </r>
       <r>    9.4255    0.0000 </r>
       <r>   11.1968    0.0000 </r>
       <r>   11.7368    0.0000 </r>
       <r>   14.8726    0.0000 </r>
       <r>   15.9884    0.0000 </r>
       <r>   17.0454    0.0000 </r>
       <r>   18.8843    0.0000 </r>
       <r>   21.0601    0.0000 </r>
       <r>   21.4933    0.0000 </r>
       <r>   24.1144    0.0000 </r>
      </set>
      <set comment="kpoint 37">
       <r>   -5.6686    1.0000 </r>
       <r>    2.9402    1.0000 </r>
       <r>    4.0258    1.0000 </r>
       <r>    5.3248    1.0000 </r>
       <r>    8.5829    0.0000 </r>
       <r>    8.7237    0.0000 </r>
       <r>    8.9453    0.0000 </r>
       <r>   11.0442    0.0000 </r>
       <r>   11.9707    0.0000 </r>
       <r>   13.5799    0.0000 </r>
       <r>   15.2699    0.0000 </r>
       <r>   16.7286    0.0000 </r>
       <r>   17.8928    0.0000 </r>
       <r>   19.9725    0.0000 </r>
       <r>   23.1315    0.0000 </r>
       <r>   23.5791    0.0000 </r>
      </set>
      <set comment="kpoint 38">
       <r>   -5.9615    1.0000 </r>
       <r>    4.0255    1.0000 </r>
       <r>    4.7739    1.0000 </r>
       <r>    5.4971    1.0000 </r>
       <r>    8.4172    0.0000 </r>
       <r>    8.4789    0.0000 </r>
       <r>    8.5623    0.0000 </r>
       <r>   10.2736    0.0000 </r>
       <r>   12.4437    0.0000 </r>
       <r>   13.1686    0.0000 </r>
       <r>   14.4256    0.0000 </r>
       <r>   16.6282    0.0000 </r>
       <r>   17.2446    0.0000 </r>
       <r>   18.4934    0.0000 </r>
       <r>   22.3334    0.0000 </r>
       <r>   25.3825    0.0000 </r>
      </set>
      <set comment="kpoint 39">
       <r>   -6.1395    1.0000 </r>
       <r>    5.0653    1.0000 </r>
       <r>    5.3714    1.0000 </r>
       <r>    5.5873    1.0000 </r>
       <r>    8.2329    0.0000 </r>
       <r>    8.2843    0.0000 </r>
       <r>    8.3404    0.0000 </r>
       <r>    9.2131    0.0000 </r>
       <r>   13.0173    0.0000 </r>
       <r>   13.2553    0.0000 </r>
       <r>   13.7507    0.0000 </r>
       <r>   16.7129    0.0000 </r>
       <r>   16.9028    0.0000 </r>
       <r>   17.3070    0.0000 </r>
       <r>   21.3012    0.0000 </r>
       <r>   27.4737    0.0000 </r>
      </set>
      <set comment="kpoint 40">
       <r>   -6.1991    1.0000 </r>
       <r>    5.6145    1.0000 </r>
       <r>    5.6145    1.0000 </r>
       <r>    5.6145    1.0000 </r>
       <r>    8.1714    0.0000 </r>
       <r>    8.1714    0.0000 </r>
       <r>    8.1714    0.0000 </r>
       <r>    8.7467    0.0000 </r>
       <r>   13.3237    0.0000 </r>
       <r>   13.3237    0.0000 </r>
       <r>   13.4918    0.0000 </r>
       <r>   16.7965    0.0000 </r>
       <r>   16.7965    0.0000 </r>
       <r>   16.7965    0.0000 </r>
       <r>   20.8880    0.0000 </r>
       <r>   28.4671    0.0000 </r>
      </set>
     </set>
    </set>
   </array>
  </eigenvalues>
  <separator name="orbital magnetization" >
   <v name="MAGDIPOLOUT">      0.00000000      0.00000000      0.00000000</v>
  </separator>
  <dos>
   <i name="efermi">      5.93933700 </i>
   <total>
    <array>
     <dimension dim="1">gridpoints</dimension>
     <dimension dim="2">spin</dimension>
     <field>energy</field>
     <field>total</field>
     <field>integrated</field>
     <set>
      <set comment="spin 1">
       <r>    -7.9324     0.0000     0.0000 </r>
       <r>    -7.8053     0.0000     0.0000 </r>
       <r>    -7.6782     0.0000     0.0000 </r>
       <r>    -7.5511     0.0000     0.0000 </r>
       <r>    -7.4240     0.0000     0.0000 </r>
       <r>    -7.2969     0.0000     0.0000 </r>
       <r>    -7.1698     0.0000     0.0000 </r>
       <r>    -7.0427     0.0000     0.0000 </r>
       <r>    -6.9156     0.0000     0.0000 </r>
       <r>    -6.7884     0.0000     0.0000 </r>
       <r>    -6.6613     0.0000     0.0000 </r>
       <r>    -6.5342     0.0000     0.0000 </r>
       <r>    -6.4071     0.0021     0.0003 </r>
       <r>    -6.2800     0.1851     0.0238 </r>
       <r>    -6.1529     1.2768     0.1861 </r>
       <r>    -6.0258     1.2554     0.3457 </r>
       <r>    -5.8987     0.7869     0.4457 </r>
       <r>    -5.7716     0.4937     0.5084 </r>
       <r>    -5.6445     0.5877     0.5831 </r>
       <r>    -5.5173     0.4419     0.6393 </r>
       <r>    -5.3902     0.2313     0.6687 </r>
       <r>    -5.2631     0.5593     0.7398 </r>
       <r>    -5.1360     0.4319     0.7947 </r>
       <r>    -5.0089     0.0653     0.8030 </r>
       <r>    -4.8818     0.3432     0.8466 </r>
       <r>    -4.7547     0.6025     0.9232 </r>
       <r>    -4.6276     0.2030     0.9490 </r>
       <r>    -4.5005     0.0850     0.9598 </r>
       <r>    -4.3734     0.3528     1.0047 </r>
       <r>    -4.2462     0.4045     1.0561 </r>
       <r>    -4.1191     0.4014     1.1071 </r>
       <r>    -3.9920     0.3546     1.1522 </r>
       <r>    -3.8649     0.2928     1.1894 </r>
       <r>    -3.7378     0.1642     1.2103 </r>
       <r>    -3.6107     0.3831     1.2590 </r>
       <r>    -3.4836     0.2910     1.2960 </r>
       <r>    -3.3565     0.0315     1.3000 </r>
       <r>    -3.2294     0.0005     1.3000 </r>
       <r>    -3.1023     0.0357     1.3046 </r>
       <r>    -2.9751     0.3452     1.3485 </r>
       <r>    -2.8480     0.3632     1.3946 </r>
       <r>    -2.7209     0.0473     1.4006 </r>
       <r>    -2.5938     0.1963     1.4256 </r>
       <r>    -2.4667     0.6288     1.5055 </r>
       <r>    -2.3396     0.6264     1.5851 </r>
       <r>    -2.2125     1.2610     1.7454 </r>
       <r>    -2.0854     2.8483     2.1075 </r>
       <r>    -1.9583     1.6061     2.3116 </r>
       <r>    -1.8312     0.6592     2.3954 </r>
       <r>    -1.7040     0.5051     2.4596 </r>
       <r>    -1.5769     0.5527     2.5298 </r>
       <r>    -1.4498     0.4905     2.5922 </r>
       <r>    -1.3227     0.1958     2.6171 </r>
       <r>    -1.1956     0.5321     2.6847 </r>
       <r>    -1.0685     0.4764     2.7453 </r>
       <r>    -0.9414     0.3739     2.7928 </r>
       <r>    -0.8143     0.0560     2.7999 </r>
       <r>    -0.6872     0.0047     2.8005 </r>
       <r>    -0.5601     0.1295     2.8170 </r>
       <r>    -0.4329     0.4564     2.8750 </r>
       <r>    -0.3058     0.4419     2.9312 </r>
       <r>    -0.1787     0.1428     2.9493 </r>
       <r>    -0.0516     0.0058     2.9500 </r>
       <r>     0.0755     0.0307     2.9539 </r>
       <r>     0.2026     0.2329     2.9835 </r>
       <r>     0.3297     0.2856     3.0198 </r>
       <r>     0.4568     0.2181     3.0475 </r>
       <r>     0.5839     0.1305     3.0641 </r>
       <r>     0.7110     0.2387     3.0945 </r>
       <r>     0.8381     0.0489     3.1007 </r>
       <r>     0.9653     0.1344     3.1178 </r>
       <r>     1.0924     0.2296     3.1470 </r>
       <r>     1.2195     0.2083     3.1734 </r>
       <r>     1.3466     0.5997     3.2497 </r>
       <r>     1.4737     0.8468     3.3573 </r>
       <r>     1.6008     0.8703     3.4679 </r>
       <r>     1.7279     0.5474     3.5375 </r>
       <r>     1.8550     0.3974     3.5880 </r>
       <r>     1.9821     0.7265     3.6804 </r>
       <r>     2.1092     0.4694     3.7400 </r>
       <r>     2.2364     0.4163     3.7929 </r>
       <r>     2.3635     0.4238     3.8468 </r>
       <r>     2.4906     0.3727     3.8942 </r>
       <r>     2.6177     0.7574     3.9905 </r>
       <r>     2.7448     0.9093     4.1060 </r>
       <r>     2.8719     2.5539     4.4307 </r>
       <r>     2.9990     2.4138     4.7375 </r>
       <r>     3.1261     1.3569     4.9100 </r>
       <r>     3.2532     1.5389     5.1056 </r>
       <r>     3.3803     1.0724     5.2419 </r>
       <r>     3.5075     0.4079     5.2937 </r>
       <r>     3.6346     0.9798     5.4183 </r>
       <r>     3.7617     0.2528     5.4504 </r>
       <r>     3.8888     0.2429     5.4813 </r>
       <r>     4.0159     1.0212     5.6111 </r>
       <r>     4.1430     0.6687     5.6961 </r>
       <r>     4.2701     0.3388     5.7391 </r>
       <r>     4.3972     1.0481     5.8723 </r>
       <r>     4.5243     2.1801     6.1495 </r>
       <r>     4.6514     1.3568     6.3219 </r>
       <r>     4.7786     1.1322     6.4658 </r>
       <r>     4.9057     0.9786     6.5902 </r>
       <r>     5.0328     1.3114     6.7569 </r>
       <r>     5.1599     1.1764     6.9064 </r>
       <r>     5.2870     1.1780     7.0562 </r>
       <r>     5.4141     1.6146     7.2614 </r>
       <r>     5.5412     1.9418     7.5082 </r>
       <r>     5.6683     2.9901     7.8883 </r>
       <r>     5.7954     0.8592     7.9975 </r>
       <r>     5.9225     0.0194     8.0000 </r>
       <r>     6.0497     0.0027     8.0003 </r>
       <r>     6.1768     0.1484     8.0192 </r>
       <r>     6.3039     0.9921     8.1453 </r>
       <r>     6.4310     2.4223     8.4532 </r>
       <r>     6.5581     1.7384     8.6742 </r>
       <r>     6.6852     1.4414     8.8574 </r>
       <r>     6.8123     0.9231     8.9747 </r>
       <r>     6.9394     0.9892     9.1005 </r>
       <r>     7.0665     0.8862     9.2131 </r>
       <r>     7.1936     1.0835     9.3508 </r>
       <r>     7.3208     1.0543     9.4849 </r>
       <r>     7.4479     0.6238     9.5641 </r>
       <r>     7.5750     0.4789     9.6250 </r>
       <r>     7.7021     1.0656     9.7605 </r>
       <r>     7.8292     0.7172     9.8516 </r>
       <r>     7.9563     0.3844     9.9005 </r>
       <r>     8.0834     1.1400    10.0454 </r>
       <r>     8.2105     3.3887    10.4761 </r>
       <r>     8.3376     2.7818    10.8297 </r>
       <r>     8.4647     2.0202    11.0865 </r>
       <r>     8.5919     1.9062    11.3288 </r>
       <r>     8.7190     1.5215    11.5222 </r>
       <r>     8.8461     1.5439    11.7184 </r>
       <r>     8.9732     1.6366    11.9265 </r>
       <r>     9.1003     3.4784    12.3686 </r>
       <r>     9.2274     2.8378    12.7293 </r>
       <r>     9.3545     0.6031    12.8060 </r>
       <r>     9.4816     0.2631    12.8394 </r>
       <r>     9.6087     0.1830    12.8627 </r>
       <r>     9.7358     0.8926    12.9761 </r>
       <r>     9.8630     1.1203    13.1185 </r>
       <r>     9.9901     1.0252    13.2488 </r>
       <r>    10.1172     0.3808    13.2972 </r>
       <r>    10.2443     0.1732    13.3193 </r>
       <r>    10.3714     0.4241    13.3732 </r>
       <r>    10.4985     0.2009    13.3987 </r>
       <r>    10.6256     0.0725    13.4079 </r>
       <r>    10.7527     0.3692    13.4548 </r>
       <r>    10.8798     0.7403    13.5489 </r>
       <r>    11.0069     0.5079    13.6135 </r>
       <r>    11.1341     0.5070    13.6779 </r>
       <r>    11.2612     0.5877    13.7527 </r>
       <r>    11.3883     0.5563    13.8234 </r>
       <r>    11.5154     0.4941    13.8862 </r>
       <r>    11.6425     0.3360    13.9289 </r>
       <r>    11.7696     0.9201    14.0458 </r>
       <r>    11.8967     1.0423    14.1783 </r>
       <r>    12.0238     0.8025    14.2803 </r>
       <r>    12.1509     0.8787    14.3920 </r>
       <r>    12.2780     0.6938    14.4802 </r>
       <r>    12.4052     0.2726    14.5149 </r>
       <r>    12.5323     0.4417    14.5710 </r>
       <r>    12.6594     1.0176    14.7004 </r>
       <r>    12.7865     1.6092    14.9049 </r>
       <r>    12.9136     1.8013    15.1339 </r>
       <r>    13.0407     2.2786    15.4235 </r>
       <r>    13.1678     1.1858    15.5742 </r>
       <r>    13.2949     2.3096    15.8678 </r>
       <r>    13.4220     3.4412    16.3052 </r>
       <r>    13.5491     2.7675    16.6570 </r>
       <r>    13.6763     2.2885    16.9479 </r>
       <r>    13.8034     1.8841    17.1874 </r>
       <r>    13.9305     1.2526    17.3466 </r>
       <r>    14.0576     1.1431    17.4919 </r>
       <r>    14.1847     1.2592    17.6519 </r>
       <r>    14.3118     1.3272    17.8206 </r>
       <r>    14.4389     1.9060    18.0629 </r>
       <r>    14.5660     1.3172    18.2303 </r>
       <r>    14.6931     1.5109    18.4224 </r>
       <r>    14.8202     1.5620    18.6209 </r>
       <r>    14.9474     1.1601    18.7684 </r>
       <r>    15.0745     1.1802    18.9184 </r>
       <r>    15.2016     1.1006    19.0583 </r>
       <r>    15.3287     2.1117    19.3267 </r>
       <r>    15.4558     2.1150    19.5955 </r>
       <r>    15.5829     1.8544    19.8312 </r>
       <r>    15.7100     0.8794    19.9430 </r>
       <r>    15.8371     0.3671    19.9897 </r>
       <r>    15.9642     0.4537    20.0474 </r>
       <r>    16.0913     0.9015    20.1619 </r>
       <r>    16.2184     1.7227    20.3809 </r>
       <r>    16.3456     1.5696    20.5804 </r>
       <r>    16.4727     1.4892    20.7697 </r>
       <r>    16.5998     1.6980    20.9856 </r>
       <r>    16.7269     1.9860    21.2380 </r>
       <r>    16.8540     3.9161    21.7358 </r>
       <r>    16.9811     2.1865    22.0137 </r>
       <r>    17.1082     1.5630    22.2124 </r>
       <r>    17.2353     1.4846    22.4011 </r>
       <r>    17.3624     1.0595    22.5358 </r>
       <r>    17.4895     0.6706    22.6210 </r>
       <r>    17.6167     1.2425    22.7789 </r>
       <r>    17.7438     1.4940    22.9688 </r>
       <r>    17.8709     0.8848    23.0813 </r>
       <r>    17.9980     0.8383    23.1879 </r>
       <r>    18.1251     1.7664    23.4124 </r>
       <r>    18.2522     1.9655    23.6622 </r>
       <r>    18.3793     2.0169    23.9186 </r>
       <r>    18.5064     2.2072    24.1992 </r>
       <r>    18.6335     2.0638    24.4615 </r>
       <r>    18.7606     1.5796    24.6623 </r>
       <r>    18.8878     2.3160    24.9567 </r>
       <r>    19.0149     3.0585    25.3454 </r>
       <r>    19.1420     1.8579    25.5816 </r>
       <r>    19.2691     1.4831    25.7701 </r>
       <r>    19.3962     0.8036    25.8722 </r>
       <r>    19.5233     0.9239    25.9897 </r>
       <r>    19.6504     1.3086    26.1560 </r>
       <r>    19.7775     1.5199    26.3492 </r>
       <r>    19.9046     0.9470    26.4696 </r>
       <r>    20.0317     0.9557    26.5911 </r>
       <r>    20.1589     1.7053    26.8078 </r>
       <r>    20.2860     0.8456    26.9153 </r>
       <r>    20.4131     1.1492    27.0614 </r>
       <r>    20.5402     1.5015    27.2522 </r>
       <r>    20.6673     1.1418    27.3974 </r>
       <r>    20.7944     0.5498    27.4672 </r>
       <r>    20.9215     1.1407    27.6122 </r>
       <r>    21.0486     1.1268    27.7555 </r>
       <r>    21.1757     1.5874    27.9572 </r>
       <r>    21.3028     1.3599    28.1301 </r>
       <r>    21.4300     1.1637    28.2780 </r>
       <r>    21.5571     0.8479    28.3858 </r>
       <r>    21.6842     0.4287    28.4403 </r>
       <r>    21.8113     0.6794    28.5266 </r>
       <r>    21.9384     1.0770    28.6635 </r>
       <r>    22.0655     0.7318    28.7565 </r>
       <r>    22.1926     1.2756    28.9187 </r>
       <r>    22.3197     1.8427    29.1529 </r>
       <r>    22.4468     1.5489    29.3498 </r>
       <r>    22.5739     1.3155    29.5170 </r>
       <r>    22.7011     0.8318    29.6227 </r>
       <r>    22.8282     0.9530    29.7439 </r>
       <r>    22.9553     1.0698    29.8799 </r>
       <r>    23.0824     1.3590    30.0526 </r>
       <r>    23.2095     1.0366    30.1844 </r>
       <r>    23.3366     0.3019    30.2227 </r>
       <r>    23.4637     1.2394    30.3803 </r>
       <r>    23.5908     1.3301    30.5493 </r>
       <r>    23.7179     0.5796    30.6230 </r>
       <r>    23.8450     0.9176    30.7396 </r>
       <r>    23.9722     0.8447    30.8470 </r>
       <r>    24.0993     0.6311    30.9272 </r>
       <r>    24.2264     1.0322    31.0584 </r>
       <r>    24.3535     1.4805    31.2466 </r>
       <r>    24.4806     0.4107    31.2988 </r>
       <r>    24.6077     0.0172    31.3010 </r>
       <r>    24.7348     0.1598    31.3213 </r>
       <r>    24.8619     0.3823    31.3699 </r>
       <r>    24.9890     0.2190    31.3977 </r>
       <r>    25.1161     0.0180    31.4000 </r>
       <r>    25.2433     0.0524    31.4067 </r>
       <r>    25.3704     0.5705    31.4792 </r>
       <r>    25.4975     0.5184    31.5451 </r>
       <r>    25.6246     0.0799    31.5553 </r>
       <r>    25.7517     0.2371    31.5854 </r>
       <r>    25.8788     0.1112    31.5995 </r>
       <r>    26.0059     0.0037    31.6000 </r>
       <r>    26.1330     0.0005    31.6001 </r>
       <r>    26.2601     0.0422    31.6054 </r>
       <r>    26.3872     0.2379    31.6357 </r>
       <r>    26.5144     0.1091    31.6495 </r>
       <r>    26.6415     0.0059    31.6503 </r>
       <r>    26.7686     0.0900    31.6617 </r>
       <r>    26.8957     0.2454    31.6929 </r>
       <r>    27.0228     0.0548    31.6999 </r>
       <r>    27.1499     0.0008    31.7000 </r>
       <r>    27.2770     0.0011    31.7001 </r>
       <r>    27.4041     0.0629    31.7081 </r>
       <r>    27.5312     0.2485    31.7397 </r>
       <r>    27.6583     0.1366    31.7571 </r>
       <r>    27.7855     0.2483    31.7886 </r>
       <r>    27.9126     0.1285    31.8050 </r>
       <r>    28.0397     0.2389    31.8353 </r>
       <r>    28.1668     0.1116    31.8495 </r>
       <r>    28.2939     0.0122    31.8511 </r>
       <r>    28.4210     0.2949    31.8885 </r>
       <r>    28.5481     0.7280    31.9811 </r>
       <r>    28.6752     0.1469    31.9998 </r>
       <r>    28.8023     0.0019    32.0000 </r>
       <r>    28.9294     0.0000    32.0000 </r>
       <r>    29.0566     0.0000    32.0000 </r>
       <r>    29.1837     0.0000    32.0000 </r>
       <r>    29.3108     0.0000    32.0000 </r>
       <r>    29.4379     0.0000    32.0000 </r>
       <r>    29.5650     0.0000    32.0000 </r>
       <r>    29.6921     0.0000    32.0000 </r>
       <r>    29.8192     0.0000    32.0000 </r>
       <r>    29.9463     0.0000    32.0000 </r>
       <r>    30.0734     0.0000    32.0000 </r>
       <r>    30.2005     0.0000    32.0000 </r>
      </set>
     </set>
    </array>
   </total>
  </dos>
 </calculation>
 <structure name="finalpos" >
  <crystal>
   <varray name="basis" >
    <v>       0.00000000       2.73450000       2.73450000 </v>
    <v>       2.73450000       0.00000000       2.73450000 </v>
    <v>       2.73450000       2.73450000       0.00000000 </v>
   </varray>
   <i name="volume">     40.89439418 </i>
   <varray name="rec_basis" >
    <v>      -0.18284878       0.18284878       0.18284878 </v>
    <v>       0.18284878      -0.18284878       0.18284878 </v>
    <v>       0.18284878       0.18284878      -0.18284878 </v>
   </varray>
  </crystal>
  <varray name="positions" >
   <v>       0.87500000       0.87500000       0.87500000 </v>
   <v>       0.12500000       0.12500000       0.12500000 </v>
  </varray>
 </structure>
</modeling>
