fcc Si                                  
   3.90000000000000     
     0.500000    0.500000    0.000000
     0.000000    0.500000    0.500000
     0.500000    0.000000    0.500000
   Si
     1
Direct
  0.000000  0.000000  0.000000
 
   20   20   20
 -2.5617     -1.7633     0.29466      2.7791      4.7911      5.7918      5.7891      5.2169      4.6019      4.1821    
  4.0345      4.1821      4.6019      5.2169      5.7891      5.7918      4.7911      2.7791     0.29466     -1.7633    
 -1.7633     -.33785      1.9107      4.0984      5.5046      5.8840      5.4905      4.8422      4.3158      4.0297    
  4.0298      4.3161      4.8422      5.4903      5.8840      5.5049      4.0986      1.9103     -.33868     -1.7637    
 0.29466      1.9107      3.8139      5.2685      5.8595      5.6407      5.0163      4.4190      4.0181      3.8781    
  4.0181      4.4190      5.0162      5.6407      5.8595      5.2685      3.8139      1.9105     0.29453     -.33868    
  2.7791      4.0984      5.2685      5.8336      5.6980      5.1182      4.4864      4.0044      3.7476      3.7475    
  4.0042      4.4863      5.1183      5.6980      5.8334      5.2684      4.0987      2.7796      1.9105      1.9103    
  4.7911      5.5046      5.8595      5.6980      5.1511      4.5191      3.9935      3.6536      3.5369      3.6536    
  3.9935      4.5190      5.1511      5.6980      5.8595      5.5046      4.7912      4.0987      3.8139      4.0986    
  5.7918      5.8840      5.6407      5.1182      4.5191      3.9895      3.6049      3.4054      3.4055      3.6050    
  3.9896      4.5191      5.1183      5.6409      5.8840      5.7916      5.5046      5.2684      5.2685      5.5049    
  5.7891      5.4905      5.0163      4.4864      3.9935      3.6049      3.3611      3.2786      3.3611      3.6050    
  3.9935      4.4863      5.0163      5.4906      5.7891      5.8840      5.8595      5.8334      5.8595      5.8840    
  5.2169      4.8422      4.4190      4.0044      3.6536      3.4054      3.2786      3.2786      3.4054      3.6535    
  4.0042      4.4188      4.8422      5.2171      5.4906      5.6409      5.6980      5.6980      5.6407      5.4903    
  4.6019      4.3158      4.0181      3.7476      3.5369      3.4055      3.3611      3.4054      3.5369      3.7476    
  4.0181      4.3158      4.6019      4.8422      5.0163      5.1183      5.1511      5.1183      5.0162      4.8422    
  4.1821      4.0297      3.8781      3.7475      3.6536      3.6050      3.6050      3.6535      3.7476      3.8783    
  4.0298      4.1820      4.3158      4.4188      4.4863      4.5191      4.5190      4.4863      4.4190      4.3161    
  4.0345      4.0298      4.0181      4.0042      3.9935      3.9896      3.9935      4.0042      4.0181      4.0298    
  4.0345      4.0298      4.0181      4.0042      3.9935      3.9896      3.9935      4.0042      4.0181      4.0298    
  4.1821      4.3161      4.4190      4.4863      4.5190      4.5191      4.4863      4.4188      4.3158      4.1820    
  4.0298      3.8783      3.7476      3.6535      3.6050      3.6050      3.6536      3.7475      3.8781      4.0297    
  4.6019      4.8422      5.0162      5.1183      5.1511      5.1183      5.0163      4.8422      4.6019      4.3158    
  4.0181      3.7476      3.5369      3.4054      3.3611      3.4055      3.5369      3.7476      4.0181      4.3158    
  5.2169      5.4903      5.6407      5.6980      5.6980      5.6409      5.4906      5.2171      4.8422      4.4188    
  4.0042      3.6535      3.4054      3.2786      3.2786      3.4054      3.6536      4.0044      4.4190      4.8422    
  5.7891      5.8840      5.8595      5.8334      5.8595      5.8840      5.7891      5.4906      5.0163      4.4863    
  3.9935      3.6050      3.3611      3.2786      3.3611      3.6049      3.9935      4.4864      5.0163      5.4905    
  5.7918      5.5049      5.2685      5.2684      5.5046      5.7916      5.8840      5.6409      5.1183      4.5191    
  3.9896      3.6050      3.4055      3.4054      3.6049      3.9895      4.5191      5.1182      5.6407      5.8840    
  4.7911      4.0986      3.8139      4.0987      4.7912      5.5046      5.8595      5.6980      5.1511      4.5190    
  3.9935      3.6536      3.5369      3.6536      3.9935      4.5191      5.1511      5.6980      5.8595      5.5046    
  2.7791      1.9103      1.9105      2.7796      4.0987      5.2684      5.8334      5.6980      5.1183      4.4863    
  4.0042      3.7475      3.7476      4.0044      4.4864      5.1182      5.6980      5.8336      5.2685      4.0984    
 0.29466     -.33868     0.29453      1.9105      3.8139      5.2685      5.8595      5.6407      5.0162      4.4190    
  4.0181      3.8781      4.0181      4.4190      5.0163      5.6407      5.8595      5.2685      3.8139      1.9107    
 -1.7633     -1.7637     -.33868      1.9103      4.0986      5.5049      5.8840      5.4903      4.8422      4.3161    
  4.0298      4.0297      4.3158      4.8422      5.4905      5.8840      5.5046      4.0984      1.9107     -.33785    
 -1.7633     -.33790      1.9107      4.0984      5.5046      5.8840      5.4905      4.8422      4.3158      4.0297    
  4.0298      4.3161      4.8422      5.4903      5.8840      5.5049      4.0986      1.9103     -.33867     -1.7637    
 -.33790      1.4220      3.5121      5.1435      5.8619      5.7083      5.0972      4.4931      4.0854      3.9427    
  4.0855      4.4931      5.0971      5.7083      5.8623      5.1437      3.5118      1.4210     -.33875     -1.0256    
  1.9107      3.5121      4.9859      5.7954      5.8023      5.2665      4.6239      4.1263      3.8595      3.8594    
  4.1261      4.6238      5.2666      5.8025      5.7954      4.9858      3.5119      1.9105     0.87102     0.87108    
  4.0984      5.1435      5.7954      5.8251      5.3474      4.7025      4.1518      3.7920      3.6678      3.7919    
  4.1518      4.7024      5.3473      5.8251      5.7953      5.1436      4.0988      3.1444      2.7599      3.1441    
  5.5046      5.8619      5.8023      5.3474      4.7287      4.1642      3.7487      3.5316      3.5317      3.7488    
  4.1641      4.7285      5.3473      5.8025      5.8621      5.5047      4.9539      4.5529      4.5529      4.9539    
  5.8840      5.7083      5.2665      4.7025      4.1642      3.7340      3.4619      3.3696      3.4619      3.7340    
  4.1641      4.7025      5.2666      5.7084      5.8839      5.8055      5.6300      5.5442      5.6301      5.8057    
  5.4905      5.0972      4.6239      4.1518      3.7487      3.4619      3.3150      3.3150      3.4619      3.7487    
  4.1519      4.6238      5.0971      5.4905      5.7235      5.8034      5.8079      5.8079      5.8033      5.7234    
  4.8422      4.4931      4.1263      3.7920      3.5316      3.3696      3.3150      3.3696      3.5317      3.7919    
  4.1261      4.4929      4.8422      5.1305      5.3284      5.4312      5.4609      5.4310      5.3282      5.1303    
  4.3158      4.0854      3.8595      3.6678      3.5317      3.4619      3.4619      3.5317      3.6678      3.8595    
  4.0854      4.3158      4.5211      4.6801      4.7843      4.8347      4.8347      4.7843      4.6801      4.5211    
  4.0297      3.9427      3.8594      3.7919      3.7488      3.7340      3.7487      3.7919      3.8595      3.9430    
  4.0298      4.1077      4.1681      4.2085      4.2306      4.2375      4.2306      4.2086      4.1683      4.1077    
  4.0298      4.0855      4.1261      4.1518      4.1641      4.1641      4.1519      4.1261      4.0854      4.0298    
  3.9628      3.8920      3.8277      3.7795      3.7540      3.7540      3.7796      3.8277      3.8919      3.9627    
  4.3161      4.4931      4.6238      4.7024      4.7285      4.7025      4.6238      4.4929      4.3158      4.1077    
  3.8920      3.6957      3.5420      3.4457      3.4131      3.4457      3.5420      3.6955      3.8918      4.1078    
  4.8422      5.0971      5.2666      5.3473      5.3473      5.2666      5.0971      4.8422      4.5211      4.1681    
  3.8277      3.5420      3.3405      3.2377      3.2377      3.3406      3.5420      3.8277      4.1681      4.5211    
  5.4903      5.7083      5.8025      5.8251      5.8025      5.7084      5.4905      5.1305      4.6801      4.2085    
  3.7795      3.4457      3.2377      3.1675      3.2376      3.4457      3.7797      4.2086      4.6801      5.1303    
  5.8840      5.8623      5.7954      5.7953      5.8621      5.8839      5.7235      5.3284      4.7843      4.2306    
  3.7540      3.4131      3.2377      3.2376      3.4130      3.7540      4.2306      4.7843      5.3284      5.7234    
  5.5049      5.1437      4.9858      5.1436      5.5047      5.8055      5.8034      5.4312      4.8347      4.2375    
  3.7540      3.4457      3.3406      3.4457      3.7540      4.2374      4.8346      5.4311      5.8035      5.8057    
  4.0986      3.5118      3.5119      4.0988      4.9539      5.6300      5.8079      5.4609      4.8347      4.2306    
  3.7796      3.5420      3.5420      3.7797      4.2306      4.8346      5.4608      5.8079      5.6301      4.9539    
  1.9103      1.4210      1.9105      3.1444      4.5529      5.5442      5.8079      5.4310      4.7843      4.2086    
  3.8277      3.6955      3.8277      4.2086      4.7843      5.4311      5.8079      5.5442      4.5527      3.1441    
 -.33867     -.33875     0.87102      2.7599      4.5529      5.6301      5.8033      5.3282      4.6801      4.1683    
  3.8919      3.8918      4.1681      4.6801      5.3284      5.8035      5.6301      4.5527      2.7598     0.87111    
 -1.7637     -1.0256     0.87108      3.1441      4.9539      5.8057      5.7234      5.1303      4.5211      4.1077    
  3.9627      4.1078      4.5211      5.1303      5.7234      5.8057      4.9539      3.1441     0.87111     -1.0256    
 0.29461      1.9106      3.8139      5.2685      5.8595      5.6407      5.0163      4.4190      4.0181      3.8780    
  4.0181      4.4190      5.0163      5.6407      5.8595      5.2686      3.8139      1.9105     0.29452     -.33869    
  1.9106      3.5121      4.9859      5.7954      5.8023      5.2665      4.6239      4.1263      3.8595      3.8594    
  4.1261      4.6238      5.2667      5.8025      5.7954      4.9858      3.5119      1.9105     0.87100     0.87105    
  3.8139      4.9859      5.7530      5.8593      5.4127      4.7661      4.2073      3.8406      3.7139      3.8405    
  4.2072      4.7661      5.4127      5.8593      5.7530      4.9859      3.8140      2.7598      2.3375      2.7597    
  5.2685      5.7954      5.8593      5.4595      4.8385      4.2570      3.8257      3.5995      3.5996      3.8258    
  4.2570      4.8384      5.4593      5.8592      5.7954      5.2687      4.5530      4.0497      4.0496      4.5527    
  5.8595      5.8023      5.4127      4.8385      4.2737      3.8179      3.5280      3.4293      3.5280      3.8180    
  4.2737      4.8385      5.4127      5.8023      5.8595      5.6301      5.3279      5.1926      5.3278      5.6301    
  5.6407      5.2665      4.7661      4.2570      3.8179      3.5039      3.3424      3.3424      3.5038      3.8179    
  4.2570      4.7663      5.2666      5.6407      5.8032      5.7951      5.7396      5.7398      5.7954      5.8034    
  5.0163      4.6239      4.2073      3.8257      3.5280      3.3424      3.2799      3.3424      3.5280      3.8257    
  4.2073      4.6238      5.0163      5.3284      5.5164      5.5955      5.6137      5.5955      5.5164      5.3284    
  4.4190      4.1263      3.8406      3.5995      3.4293      3.3424      3.3424      3.4293      3.5995      3.8405    
  4.1261      4.4188      4.6801      4.8819      5.0129      5.0744      5.0743      5.0127      4.8817      4.6801    
  4.0181      3.8595      3.7139      3.5996      3.5280      3.5038      3.5280      3.5995      3.7138      3.8595    
  4.0181      4.1681      4.2919      4.3800      4.4310      4.4475      4.4310      4.3799      4.2919      4.1681    
  3.8780      3.8594      3.8405      3.8258      3.8180      3.8179      3.8257      3.8405      3.8595      3.8783    
  3.8919      3.8980      3.8974      3.8936      3.8905      3.8905      3.8937      3.8975      3.8980      3.8918    
  4.0181      4.1261      4.2072      4.2570      4.2737      4.2570      4.2073      4.1261      4.0181      3.8919    
  3.7609      3.6406      3.5452      3.4847      3.4641      3.4847      3.5452      3.6406      3.7609      3.8919    
  4.4190      4.6238      4.7661      4.8384      4.8385      4.7663      4.6238      4.4188      4.1681      3.8980    
  3.6406      3.4255      3.2738      3.1963      3.1963      3.2738      3.4254      3.6405      3.8981      4.1683    
  5.0163      5.2667      5.4127      5.4593      5.4127      5.2666      5.0163      4.6801      4.2919      3.8974    
  3.5452      3.2738      3.1055      3.0488      3.1055      3.2738      3.5452      3.8974      4.2919      4.6801    
  5.6407      5.8025      5.8593      5.8592      5.8023      5.6407      5.3284      4.8819      4.3800      3.8936    
  3.4847      3.1963      3.0488      3.0488      3.1962      3.4848      3.8937      4.3800      4.8817      5.3281    
  5.8595      5.7954      5.7530      5.7954      5.8595      5.8032      5.5164      5.0129      4.4310      3.8905    
  3.4641      3.1963      3.1055      3.1962      3.4641      3.8905      4.4310      5.0129      5.5164      5.8033    
  5.2686      4.9858      4.9859      5.2687      5.6301      5.7951      5.5955      5.0744      4.4475      3.8905    
  3.4847      3.2738      3.2738      3.4848      3.8905      4.4473      5.0743      5.5957      5.7954      5.6302    
  3.8139      3.5119      3.8140      4.5530      5.3279      5.7396      5.6137      5.0743      4.4310      3.8937    
  3.5452      3.4254      3.5452      3.8937      4.4310      5.0743      5.6137      5.7396      5.3278      4.5529    
  1.9105      1.9105      2.7598      4.0497      5.1926      5.7398      5.5955      5.0127      4.3799      3.8975    
  3.6406      3.6405      3.8974      4.3800      5.0129      5.5957      5.7396      5.1923      4.0495      2.7598    
 0.29452     0.87100      2.3375      4.0496      5.3278      5.7954      5.5164      4.8817      4.2919      3.8980    
  3.7609      3.8981      4.2919      4.8817      5.5164      5.7954      5.3278      4.0495      2.3374     0.87103    
 -.33869     0.87105      2.7597      4.5527      5.6301      5.8034      5.3284      4.6801      4.1681      3.8918    
  3.8919      4.1683      4.6801      5.3281      5.8033      5.6302      4.5529      2.7598     0.87103     -.33872    
  2.7790      4.0984      5.2685      5.8336      5.6980      5.1182      4.4864      4.0044      3.7476      3.7475    
  4.0042      4.4864      5.1183      5.6979      5.8334      5.2684      4.0987      2.7796      1.9105      1.9103    
  4.0984      5.1434      5.7954      5.8252      5.3474      4.7025      4.1519      3.7920      3.6678      3.7919    
  4.1518      4.7025      5.3473      5.8250      5.7953      5.1436      4.0987      3.1444      2.7598      3.1441    
  5.2685      5.7954      5.8593      5.4595      4.8385      4.2570      3.8257      3.5995      3.5996      3.8258    
  4.2570      4.8384      5.4593      5.8592      5.7954      5.2687      4.5529      4.0497      4.0496      4.5527    
  5.8336      5.8252      5.4595      4.8847      4.3114      3.8470      3.5510      3.4501      3.5510      3.8471    
  4.3115      4.8847      5.4593      5.8248      5.8335      5.5445      5.1927      5.0380      5.1923      5.5442    
  5.6980      5.3474      4.8385      4.3114      3.8542      3.5262      3.3572      3.3572      3.5262      3.8543    
  4.3115      4.8386      5.3473      5.6978      5.8079      5.7397      5.6444      5.6443      5.7396      5.8079    
  5.1182      4.7025      4.2570      3.8470      3.5262      3.3260      3.2584      3.3259      3.5262      3.8470    
  4.2571      4.7026      5.1183      5.4310      5.5954      5.6461      5.6520      5.6464      5.5956      5.4311    
  4.4864      4.1519      3.8257      3.5510      3.3572      3.2584      3.2584      3.3572      3.5510      3.8257    
  4.1519      4.4864      4.7843      5.0128      5.1549      5.2173      5.2173      5.1550      5.0129      4.7844    
  4.0044      3.7920      3.5995      3.4501      3.3572      3.3259      3.3572      3.4501      3.5995      3.7919    
  4.0042      4.2085      4.3800      4.5040      4.5767      4.6003      4.5766      4.5039      4.3800      4.2086    
  3.7476      3.6678      3.5996      3.5510      3.5262      3.5262      3.5510      3.5995      3.6678      3.7476    
  3.8277      3.8974      3.9500      3.9837      3.9997      3.9997      3.9837      3.9500      3.8974      3.8277    
  3.7475      3.7919      3.8258      3.8471      3.8543      3.8470      3.8257      3.7919      3.7476      3.6956    
  3.6406      3.5883      3.5456      3.5177      3.5080      3.5177      3.5457      3.5884      3.6404      3.6955    
  4.0042      4.1518      4.2570      4.3115      4.3115      4.2571      4.1519      4.0042      3.8277      3.6406    
  3.4636      3.3160      3.2116      3.1580      3.1580      3.2116      3.3160      3.4637      3.6406      3.8277    
  4.4864      4.7025      4.8384      4.8847      4.8386      4.7026      4.4864      4.2085      3.8974      3.5883    
  3.3160      3.1074      2.9783      2.9348      2.9783      3.1074      3.3160      3.5884      3.8976      4.2086    
  5.1183      5.3473      5.4593      5.4593      5.3473      5.1183      4.7843      4.3800      3.9500      3.5456    
  3.2116      2.9783      2.8596      2.8596      2.9783      3.2116      3.5456      3.9500      4.3799      4.7843    
  5.6979      5.8250      5.8592      5.8248      5.6978      5.4310      5.0128      4.5040      3.9837      3.5177    
  3.1580      2.9348      2.8596      2.9348      3.1581      3.5177      3.9837      4.5039      5.0127      5.4310    
  5.8334      5.7953      5.7954      5.8335      5.8079      5.5954      5.1549      4.5767      3.9997      3.5080    
  3.1580      2.9783      2.9783      3.1581      3.5080      3.9996      4.5767      5.1550      5.5955      5.8079    
  5.2684      5.1436      5.2687      5.5445      5.7397      5.6461      5.2173      4.6003      3.9997      3.5177    
  3.2116      3.1074      3.2116      3.5177      3.9996      4.6003      5.2175      5.6464      5.7398      5.5442    
  4.0987      4.0987      4.5529      5.1927      5.6444      5.6520      5.2173      4.5766      3.9837      3.5457    
  3.3160      3.3160      3.5456      3.9837      4.5767      5.2175      5.6521      5.6443      5.1926      4.5529    
  2.7796      3.1444      4.0497      5.0380      5.6443      5.6464      5.1550      4.5039      3.9500      3.5884    
  3.4637      3.5884      3.9500      4.5039      5.1550      5.6464      5.6443      5.0379      4.0497      3.1444    
  1.9105      2.7598      4.0496      5.1923      5.7396      5.5956      5.0129      4.3800      3.8974      3.6404    
  3.6406      3.8976      4.3799      5.0127      5.5955      5.7398      5.1926      4.0497      2.7598      1.9105    
  1.9103      3.1441      4.5527      5.5442      5.8079      5.4311      4.7844      4.2086      3.8277      3.6955    
  3.8277      4.2086      4.7843      5.4310      5.8079      5.5442      4.5529      3.1444      1.9105      1.4211    
  4.7911      5.5046      5.8595      5.6980      5.1511      4.5190      3.9935      3.6536      3.5369      3.6536    
  3.9935      4.5191      5.1511      5.6980      5.8595      5.5046      4.7912      4.0987      3.8139      4.0987    
  5.5046      5.8619      5.8024      5.3474      4.7287      4.1641      3.7487      3.5316      3.5317      3.7488    
  4.1641      4.7286      5.3473      5.8024      5.8621      5.5047      4.9539      4.5529      4.5529      4.9539    
  5.8595      5.8024      5.4127      4.8385      4.2737      3.8179      3.5280      3.4293      3.5280      3.8179    
  4.2737      4.8385      5.4127      5.8023      5.8595      5.6301      5.3278      5.1926      5.3278      5.6301    
  5.6980      5.3474      4.8385      4.3114      3.8542      3.5262      3.3572      3.3572      3.5262      3.8543    
  4.3115      4.8385      5.3473      5.6977      5.8079      5.7397      5.6444      5.6444      5.7397      5.8080    
  5.1511      4.7287      4.2737      3.8542      3.5256      3.3205      3.2513      3.3205      3.5257      3.8543    
  4.2738      4.7287      5.1511      5.4607      5.6136      5.6520      5.6526      5.6521      5.6136      5.4608    
  4.5190      4.1641      3.8179      3.5262      3.3205      3.2156      3.2156      3.3205      3.5262      3.8179    
  4.1642      4.5192      4.8347      5.0742      5.2173      5.2773      5.2774      5.2174      5.0742      4.8345    
  3.9935      3.7487      3.5280      3.3572      3.2513      3.2156      3.2512      3.3572      3.5280      3.7487    
  3.9936      4.2306      4.4310      4.5767      4.6624      4.6904      4.6625      4.5767      4.4310      4.2306    
  3.6536      3.5316      3.4293      3.3572      3.3205      3.3205      3.3572      3.4293      3.5317      3.6536    
  3.7796      3.8936      3.9837      4.0439      4.0735      4.0734      4.0438      3.9837      3.8937      3.7797    
  3.5369      3.5317      3.5280      3.5262      3.5257      3.5262      3.5280      3.5317      3.5369      3.5420    
  3.5452      3.5456      3.5438      3.5415      3.5405      3.5415      3.5437      3.5456      3.5452      3.5420    
  3.6536      3.7488      3.8179      3.8543      3.8543      3.8179      3.7487      3.6536      3.5420      3.4255    
  3.3160      3.2247      3.1597      3.1262      3.1262      3.1598      3.2247      3.3160      3.4253      3.5419    
  3.9935      4.1641      4.2737      4.3115      4.2738      4.1642      3.9936      3.7796      3.5452      3.3160    
  3.1158      2.9627      2.8678      2.8358      2.8678      2.9628      3.1158      3.3160      3.5452      3.7796    
  4.5191      4.7286      4.8385      4.8385      4.7287      4.5192      4.2306      3.8936      3.5456      3.2247    
  2.9627      2.7806      2.6880      2.6880      2.7806      2.9627      3.2247      3.5457      3.8937      4.2306    
  5.1511      5.3473      5.4127      5.3473      5.1511      4.8347      4.4310      3.9837      3.5438      3.1597    
  2.8678      2.6880      2.6277      2.6881      2.8678      3.1597      3.5437      3.9837      4.4310      4.8347    
  5.6980      5.8024      5.8023      5.6977      5.4607      5.0742      4.5767      4.0439      3.5415      3.1262    
  2.8358      2.6880      2.6881      2.8358      3.1262      3.5415      4.0438      4.5766      5.0742      5.4609    
  5.8595      5.8621      5.8595      5.8079      5.6136      5.2173      4.6624      4.0735      3.5405      3.1262    
  2.8678      2.7806      2.8678      3.1262      3.5405      4.0735      4.6625      5.2173      5.6137      5.8079    
  5.5046      5.5047      5.6301      5.7397      5.6520      5.2773      4.6904      4.0734      3.5415      3.1598    
  2.9628      2.9627      3.1597      3.5415      4.0735      4.6905      5.2774      5.6521      5.7397      5.6300    
  4.7912      4.9539      5.3278      5.6444      5.6526      5.2774      4.6625      4.0438      3.5437      3.2247    
  3.1158      3.2247      3.5437      4.0438      4.6625      5.2774      5.6526      5.6444      5.3279      4.9539    
  4.0987      4.5529      5.1926      5.6444      5.6521      5.2174      4.5767      3.9837      3.5456      3.3160    
  3.3160      3.5457      3.9837      4.5766      5.2173      5.6521      5.6444      5.1927      4.5529      4.0988    
  3.8139      4.5529      5.3278      5.7397      5.6136      5.0742      4.4310      3.8937      3.5452      3.4253    
  3.5452      3.8937      4.4310      5.0742      5.6137      5.7397      5.3279      4.5529      3.8140      3.5120    
  4.0987      4.9539      5.6301      5.8080      5.4608      4.8345      4.2306      3.7797      3.5420      3.5419    
  3.7796      4.2306      4.8347      5.4609      5.8079      5.6300      4.9539      4.0988      3.5120      3.5119    
  5.7918      5.8840      5.6407      5.1182      4.5190      3.9895      3.6049      3.4054      3.4054      3.6050    
  3.9896      4.5191      5.1183      5.6409      5.8840      5.7917      5.5046      5.2684      5.2686      5.5049    
  5.8840      5.7082      5.2665      4.7025      4.1641      3.7340      3.4619      3.3696      3.4619      3.7340    
  4.1642      4.7026      5.2666      5.7084      5.8839      5.8055      5.6300      5.5442      5.6302      5.8057    
  5.6407      5.2665      4.7661      4.2570      3.8179      3.5039      3.3424      3.3424      3.5038      3.8179    
  4.2570      4.7663      5.2666      5.6407      5.8032      5.7951      5.7396      5.7398      5.7954      5.8035    
  5.1182      4.7025      4.2570      3.8470      3.5262      3.3260      3.2584      3.3259      3.5262      3.8470    
  4.2570      4.7026      5.1183      5.4310      5.5954      5.6462      5.6520      5.6464      5.5957      5.4311    
  4.5190      4.1641      3.8179      3.5262      3.3205      3.2155      3.2156      3.3205      3.5262      3.8179    
  4.1642      4.5192      4.8347      5.0742      5.2173      5.2773      5.2774      5.2175      5.0743      4.8345    
  3.9895      3.7340      3.5039      3.3260      3.2155      3.1784      3.2156      3.3259      3.5038      3.7339    
  3.9896      4.2376      4.4475      4.6003      4.6905      4.7199      4.6905      4.6003      4.4473      4.2373    
  3.6049      3.4619      3.3424      3.2584      3.2156      3.2156      3.2584      3.3424      3.4619      3.6049    
  3.7541      3.8906      3.9997      4.0735      4.1102      4.1102      4.0735      3.9996      3.8905      3.7540    
  3.4054      3.3696      3.3424      3.3259      3.3205      3.3259      3.3424      3.3696      3.4054      3.4457    
  3.4848      3.5177      3.5415      3.5555      3.5600      3.5554      3.5415      3.5177      3.4848      3.4457    
  3.4054      3.4619      3.5038      3.5262      3.5262      3.5038      3.4619      3.4054      3.3405      3.2738    
  3.2116      3.1597      3.1226      3.1033      3.1033      3.1226      3.1597      3.2117      3.2738      3.3406    
  3.6050      3.7340      3.8179      3.8470      3.8179      3.7339      3.6049      3.4457      3.2738      3.1075    
  2.9628      2.8520      2.7831      2.7597      2.7831      2.8521      2.9627      3.1074      3.2738      3.4457    
  3.9896      4.1642      4.2570      4.2570      4.1642      3.9896      3.7541      3.4848      3.2116      2.9628    
  2.7606      2.6198      2.5481      2.5481      2.6199      2.7606      2.9628      3.2116      3.4848      3.7540    
  4.5191      4.7026      4.7663      4.7026      4.5192      4.2376      3.8906      3.5177      3.1597      2.8520    
  2.6198      2.4771      2.4291      2.4770      2.6198      2.8521      3.1598      3.5178      3.8906      4.2375    
  5.1183      5.2666      5.2666      5.1183      4.8347      4.4475      3.9997      3.5415      3.1226      2.7831    
  2.5481      2.4291      2.4291      2.5481      2.7830      3.1226      3.5415      3.9997      4.4475      4.8347    
  5.6409      5.7084      5.6407      5.4310      5.0742      4.6003      4.0735      3.5555      3.1033      2.7597    
  2.5481      2.4770      2.5481      2.7597      3.1033      3.5554      4.0735      4.6003      5.0743      5.4312    
  5.8840      5.8839      5.8032      5.5954      5.2173      4.6905      4.1102      3.5600      3.1033      2.7831    
  2.6199      2.6198      2.7830      3.1033      3.5600      4.1102      4.6904      5.2173      5.5955      5.8034    
  5.7917      5.8055      5.7951      5.6462      5.2773      4.7199      4.1102      3.5554      3.1226      2.8521    
  2.7606      2.8521      3.1226      3.5554      4.1102      4.7199      5.2773      5.6462      5.7951      5.8055    
  5.5046      5.6300      5.7396      5.6520      5.2774      4.6905      4.0735      3.5415      3.1597      2.9627    
  2.9628      3.1598      3.5415      4.0735      4.6904      5.2773      5.6520      5.7397      5.6301      5.5047    
  5.2684      5.5442      5.7398      5.6464      5.2175      4.6003      3.9996      3.5177      3.2117      3.1074    
  3.2116      3.5178      3.9997      4.6003      5.2173      5.6462      5.7397      5.5445      5.2687      5.1436    
  5.2686      5.6302      5.7954      5.5957      5.0743      4.4473      3.8905      3.4848      3.2738      3.2738    
  3.4848      3.8906      4.4475      5.0743      5.5955      5.7951      5.6301      5.2687      4.9859      4.9858    
  5.5049      5.8057      5.8035      5.4311      4.8345      4.2373      3.7540      3.4457      3.3406      3.4457    
  3.7540      4.2375      4.8347      5.4312      5.8034      5.8055      5.5047      5.1436      4.9858      5.1438    
  5.7890      5.4905      5.0163      4.4864      3.9935      3.6049      3.3611      3.2786      3.3611      3.6050    
  3.9936      4.4864      5.0163      5.4905      5.7891      5.8840      5.8595      5.8334      5.8595      5.8840    
  5.4905      5.0972      4.6239      4.1519      3.7486      3.4619      3.3150      3.3150      3.4619      3.7487    
  4.1519      4.6239      5.0971      5.4905      5.7235      5.8034      5.8079      5.8078      5.8033      5.7234    
  5.0163      4.6239      4.2073      3.8257      3.5280      3.3424      3.2799      3.3424      3.5280      3.8257    
  4.2073      4.6239      5.0163      5.3284      5.5164      5.5955      5.6137      5.5955      5.5164      5.3284    
  4.4864      4.1519      3.8257      3.5510      3.3572      3.2584      3.2584      3.3572      3.5510      3.8257    
  4.1519      4.4864      4.7843      5.0128      5.1549      5.2173      5.2173      5.1550      5.0129      4.7844    
  3.9935      3.7486      3.5280      3.3572      3.2513      3.2156      3.2512      3.3572      3.5280      3.7487    
  3.9936      4.2307      4.4310      4.5767      4.6625      4.6904      4.6625      4.5767      4.4310      4.2306    
  3.6049      3.4619      3.3424      3.2584      3.2156      3.2156      3.2584      3.3424      3.4619      3.6049    
  3.7541      3.8906      3.9997      4.0735      4.1102      4.1102      4.0735      3.9996      3.8905      3.7540    
  3.3611      3.3150      3.2799      3.2584      3.2512      3.2584      3.2799      3.3150      3.3611      3.4131    
  3.4642      3.5081      3.5405      3.5600      3.5665      3.5600      3.5405      3.5080      3.4641      3.4130    
  3.2786      3.3150      3.3424      3.3572      3.3572      3.3424      3.3150      3.2786      3.2376      3.1962    
  3.1580      3.1262      3.1033      3.0913      3.0913      3.1033      3.1262      3.1581      3.1963      3.2376    
  3.3611      3.4619      3.5280      3.5510      3.5280      3.4619      3.3611      3.2376      3.1055      2.9783    
  2.8678      2.7830      2.7300      2.7120      2.7300      2.7830      2.8678      2.9783      3.1055      3.2377    
  3.6050      3.7487      3.8257      3.8257      3.7487      3.6049      3.4131      3.1962      2.9783      2.7806    
  2.6198      2.5074      2.4497      2.4497      2.5074      2.6198      2.7806      2.9783      3.1963      3.4131    
  3.9936      4.1519      4.2073      4.1519      3.9936      3.7541      3.4642      3.1580      2.8678      2.6198    
  2.4326      2.3169      2.2779      2.3169      2.4326      2.6199      2.8678      3.1580      3.4642      3.7540    
  4.4864      4.6239      4.6239      4.4864      4.2307      3.8906      3.5081      3.1262      2.7830      2.5074    
  2.3169      2.2203      2.2203      2.3169      2.5074      2.7831      3.1262      3.5080      3.8905      4.2306    
  5.0163      5.0971      5.0163      4.7843      4.4310      3.9997      3.5405      3.1033      2.7300      2.4497    
  2.2779      2.2203      2.2779      2.4497      2.7300      3.1033      3.5405      3.9997      4.4310      4.7843    
  5.4905      5.4905      5.3284      5.0128      4.5767      4.0735      3.5600      3.0913      2.7120      2.4497    
  2.3169      2.3169      2.4497      2.7120      3.0913      3.5600      4.0735      4.5767      5.0129      5.3284    
  5.7891      5.7235      5.5164      5.1549      4.6625      4.1102      3.5665      3.0913      2.7300      2.5074    
  2.4326      2.5074      2.7300      3.0913      3.5665      4.1102      4.6624      5.1549      5.5164      5.7235    
  5.8840      5.8034      5.5955      5.2173      4.6904      4.1102      3.5600      3.1033      2.7830      2.6198    
  2.6199      2.7831      3.1033      3.5600      4.1102      4.6904      5.2173      5.5954      5.8032      5.8839    
  5.8595      5.8079      5.6137      5.2173      4.6625      4.0735      3.5405      3.1262      2.8678      2.7806    
  2.8678      3.1262      3.5405      4.0735      4.6624      5.2173      5.6136      5.8079      5.8594      5.8621    
  5.8334      5.8078      5.5955      5.1550      4.5767      3.9996      3.5080      3.1581      2.9783      2.9783    
  3.1580      3.5080      3.9997      4.5767      5.1549      5.5954      5.8079      5.8335      5.7954      5.7953    
  5.8595      5.8033      5.5164      5.0129      4.4310      3.8905      3.4641      3.1963      3.1055      3.1963    
  3.4642      3.8905      4.4310      5.0129      5.5164      5.8032      5.8594      5.7954      5.7530      5.7954    
  5.8840      5.7234      5.3284      4.7844      4.2306      3.7540      3.4130      3.2376      3.2377      3.4131    
  3.7540      4.2306      4.7843      5.3284      5.7235      5.8839      5.8621      5.7953      5.7954      5.8623    
  5.2168      4.8422      4.4190      4.0044      3.6536      3.4054      3.2786      3.2786      3.4054      3.6535    
  4.0042      4.4189      4.8422      5.2170      5.4906      5.6409      5.6980      5.6979      5.6407      5.4903    
  4.8422      4.4931      4.1263      3.7920      3.5316      3.3696      3.3150      3.3696      3.5317      3.7919    
  4.1261      4.4929      4.8422      5.1305      5.3285      5.4312      5.4609      5.4310      5.3281      5.1303    
  4.4190      4.1263      3.8406      3.5995      3.4293      3.3424      3.3425      3.4293      3.5995      3.8405    
  4.1261      4.4189      4.6801      4.8819      5.0129      5.0743      5.0742      5.0127      4.8817      4.6801    
  4.0044      3.7920      3.5995      3.4501      3.3572      3.3259      3.3572      3.4502      3.5995      3.7919    
  4.0042      4.2085      4.3800      4.5040      4.5767      4.6003      4.5766      4.5039      4.3800      4.2086    
  3.6536      3.5316      3.4293      3.3572      3.3205      3.3205      3.3572      3.4293      3.5317      3.6536    
  3.7796      3.8937      3.9837      4.0439      4.0735      4.0735      4.0438      3.9837      3.8937      3.7797    
  3.4054      3.3696      3.3424      3.3259      3.3205      3.3259      3.3424      3.3696      3.4054      3.4457    
  3.4848      3.5177      3.5415      3.5555      3.5600      3.5554      3.5415      3.5177      3.4848      3.4457    
  3.2786      3.3150      3.3425      3.3572      3.3572      3.3424      3.3150      3.2786      3.2376      3.1962    
  3.1580      3.1262      3.1033      3.0913      3.0913      3.1033      3.1262      3.1581      3.1962      3.2376    
  3.2786      3.3696      3.4293      3.4502      3.4293      3.3696      3.2786      3.1675      3.0488      2.9348    
  2.8358      2.7597      2.7120      2.6957      2.7119      2.7597      2.8358      2.9348      3.0488      3.1675    
  3.4054      3.5317      3.5995      3.5995      3.5317      3.4054      3.2376      3.0488      2.8596      2.6880    
  2.5481      2.4497      2.3990      2.3990      2.4497      2.5481      2.6881      2.8596      3.0488      3.2376    
  3.6535      3.7919      3.8405      3.7919      3.6536      3.4457      3.1962      2.9348      2.6880      2.4771    
  2.3170      2.2174      2.1837      2.2174      2.3169      2.4770      2.6880      2.9348      3.1963      3.4457    
  4.0042      4.1261      4.1261      4.0042      3.7796      3.4848      3.1580      2.8358      2.5481      2.3170    
  2.1565      2.0746      2.0746      2.1565      2.3169      2.5481      2.8358      3.1580      3.4848      3.7795    
  4.4189      4.4929      4.4189      4.2085      3.8937      3.5177      3.1262      2.7597      2.4497      2.2174    
  2.0746      2.0266      2.0746      2.2174      2.4497      2.7597      3.1262      3.5177      3.8936      4.2085    
  4.8422      4.8422      4.6801      4.3800      3.9837      3.5415      3.1033      2.7120      2.3990      2.1837    
  2.0746      2.0746      2.1837      2.3990      2.7120      3.1033      3.5415      3.9837      4.3800      4.6801    
  5.2170      5.1305      4.8819      4.5040      4.0439      3.5555      3.0913      2.6957      2.3990      2.2174    
  2.1565      2.2174      2.3990      2.6957      3.0913      3.5555      4.0439      4.5040      4.8819      5.1305    
  5.4906      5.3285      5.0129      4.5767      4.0735      3.5600      3.0913      2.7119      2.4497      2.3169    
  2.3169      2.4497      2.7120      3.0913      3.5600      4.0735      4.5767      5.0128      5.3283      5.4905    
  5.6409      5.4312      5.0743      4.6003      4.0735      3.5554      3.1033      2.7597      2.5481      2.4770    
  2.5481      2.7597      3.1033      3.5555      4.0735      4.6003      5.0742      5.4310      5.6407      5.7084    
  5.6980      5.4609      5.0742      4.5766      4.0438      3.5415      3.1262      2.8358      2.6881      2.6880    
  2.8358      3.1262      3.5415      4.0439      4.5767      5.0742      5.4607      5.6978      5.8023      5.8024    
  5.6979      5.4310      5.0127      4.5039      3.9837      3.5177      3.1581      2.9348      2.8596      2.9348    
  3.1580      3.5177      3.9837      4.5040      5.0128      5.4310      5.6978      5.8248      5.8592      5.8250    
  5.6407      5.3281      4.8817      4.3800      3.8937      3.4848      3.1962      3.0488      3.0488      3.1963    
  3.4848      3.8936      4.3800      4.8819      5.3283      5.6407      5.8023      5.8592      5.8593      5.8025    
  5.4903      5.1303      4.6801      4.2086      3.7797      3.4457      3.2376      3.1675      3.2376      3.4457    
  3.7795      4.2085      4.6801      5.1305      5.4905      5.7084      5.8024      5.8250      5.8025      5.7084    
  4.6019      4.3158      4.0181      3.7476      3.5369      3.4055      3.3611      3.4054      3.5368      3.7476    
  4.0181      4.3158      4.6019      4.8422      5.0163      5.1183      5.1511      5.1183      5.0163      4.8422    
  4.3158      4.0854      3.8595      3.6678      3.5317      3.4619      3.4619      3.5317      3.6678      3.8595    
  4.0854      4.3158      4.5211      4.6801      4.7843      4.8347      4.8347      4.7843      4.6801      4.5211    
  4.0181      3.8595      3.7139      3.5996      3.5280      3.5038      3.5280      3.5995      3.7138      3.8595    
  4.0181      4.1681      4.2918      4.3800      4.4310      4.4475      4.4310      4.3799      4.2919      4.1681    
  3.7476      3.6678      3.5996      3.5510      3.5262      3.5262      3.5510      3.5995      3.6678      3.7476    
  3.8277      3.8974      3.9500      3.9837      3.9997      3.9997      3.9837      3.9500      3.8974      3.8277    
  3.5369      3.5317      3.5280      3.5262      3.5257      3.5262      3.5280      3.5317      3.5369      3.5420    
  3.5452      3.5456      3.5438      3.5415      3.5405      3.5415      3.5437      3.5456      3.5452      3.5420    
  3.4055      3.4619      3.5038      3.5262      3.5262      3.5038      3.4619      3.4054      3.3405      3.2738    
  3.2116      3.1597      3.1226      3.1033      3.1033      3.1226      3.1597      3.2116      3.2738      3.3406    
  3.3611      3.4619      3.5280      3.5510      3.5280      3.4619      3.3611      3.2376      3.1055      2.9783    
  2.8678      2.7830      2.7300      2.7120      2.7300      2.7830      2.8678      2.9783      3.1055      3.2377    
  3.4054      3.5317      3.5995      3.5995      3.5317      3.4054      3.2376      3.0488      2.8596      2.6880    
  2.5481      2.4497      2.3990      2.3990      2.4497      2.5481      2.6880      2.8596      3.0488      3.2377    
  3.5368      3.6678      3.7138      3.6678      3.5369      3.3405      3.1055      2.8596      2.6277      2.4291    
  2.2780      2.1837      2.1516      2.1837      2.2779      2.4291      2.6277      2.8596      3.1055      3.3405    
  3.7476      3.8595      3.8595      3.7476      3.5420      3.2738      2.9783      2.6880      2.4291      2.2203    
  2.0746      1.9999      1.9999      2.0746      2.2203      2.4291      2.6880      2.9783      3.2738      3.5420    
  4.0181      4.0854      4.0181      3.8277      3.5452      3.2116      2.8678      2.5481      2.2780      2.0746    
  1.9489      1.9063      1.9489      2.0746      2.2779      2.5481      2.8678      3.2116      3.5452      3.8277    
  4.3158      4.3158      4.1681      3.8974      3.5456      3.1597      2.7830      2.4497      2.1837      1.9999    
  1.9063      1.9063      1.9999      2.1837      2.4497      2.7830      3.1597      3.5456      3.8974      4.1681    
  4.6019      4.5211      4.2918      3.9500      3.5438      3.1226      2.7300      2.3990      2.1516      1.9999    
  1.9489      1.9999      2.1516      2.3990      2.7300      3.1226      3.5438      3.9500      4.2919      4.5211    
  4.8422      4.6801      4.3800      3.9837      3.5415      3.1033      2.7120      2.3990      2.1837      2.0746    
  2.0746      2.1837      2.3990      2.7120      3.1033      3.5415      3.9837      4.3800      4.6801      4.8422    
  5.0163      4.7843      4.4310      3.9997      3.5405      3.1033      2.7300      2.4497      2.2779      2.2203    
  2.2779      2.4497      2.7300      3.1033      3.5405      3.9997      4.4310      4.7843      5.0163      5.0971    
  5.1183      4.8347      4.4475      3.9997      3.5415      3.1226      2.7830      2.5481      2.4291      2.4291    
  2.5481      2.7830      3.1226      3.5415      3.9997      4.4475      4.8347      5.1183      5.2666      5.2666    
  5.1511      4.8347      4.4310      3.9837      3.5437      3.1597      2.8678      2.6880      2.6277      2.6880    
  2.8678      3.1597      3.5438      3.9837      4.4310      4.8347      5.1511      5.3473      5.4127      5.3473    
  5.1183      4.7843      4.3799      3.9500      3.5456      3.2116      2.9783      2.8596      2.8596      2.9783    
  3.2116      3.5456      3.9500      4.3800      4.7843      5.1183      5.3473      5.4593      5.4593      5.3473    
  5.0163      4.6801      4.2919      3.8974      3.5452      3.2738      3.1055      3.0488      3.1055      3.2738    
  3.5452      3.8974      4.2919      4.6801      5.0163      5.2666      5.4127      5.4593      5.4128      5.2667    
  4.8422      4.5211      4.1681      3.8277      3.5420      3.3406      3.2377      3.2377      3.3405      3.5420    
  3.8277      4.1681      4.5211      4.8422      5.0971      5.2666      5.3473      5.3473      5.2667      5.0971    
  4.1821      4.0297      3.8781      3.7475      3.6536      3.6050      3.6050      3.6535      3.7476      3.8783    
  4.0299      4.1820      4.3158      4.4189      4.4864      4.5191      4.5191      4.4864      4.4190      4.3161    
  4.0297      3.9427      3.8594      3.7919      3.7488      3.7340      3.7487      3.7919      3.8595      3.9430    
  4.0298      4.1077      4.1681      4.2085      4.2306      4.2375      4.2306      4.2086      4.1683      4.1077    
  3.8781      3.8594      3.8406      3.8258      3.8179      3.8179      3.8257      3.8405      3.8595      3.8782    
  3.8919      3.8980      3.8974      3.8936      3.8905      3.8905      3.8937      3.8976      3.8981      3.8918    
  3.7475      3.7919      3.8258      3.8471      3.8543      3.8470      3.8257      3.7919      3.7476      3.6956    
  3.6405      3.5883      3.5455      3.5177      3.5080      3.5177      3.5457      3.5884      3.6405      3.6955    
  3.6536      3.7488      3.8179      3.8543      3.8542      3.8179      3.7487      3.6536      3.5420      3.4255    
  3.3160      3.2247      3.1597      3.1262      3.1262      3.1598      3.2247      3.3160      3.4254      3.5419    
  3.6050      3.7340      3.8179      3.8470      3.8179      3.7339      3.6049      3.4457      3.2738      3.1075    
  2.9628      2.8520      2.7830      2.7597      2.7831      2.8521      2.9627      3.1074      3.2738      3.4457    
  3.6050      3.7487      3.8257      3.8257      3.7487      3.6049      3.4131      3.1962      2.9783      2.7806    
  2.6198      2.5074      2.4497      2.4497      2.5074      2.6198      2.7806      2.9783      3.1963      3.4131    
  3.6535      3.7919      3.8405      3.7919      3.6536      3.4457      3.1962      2.9348      2.6880      2.4771    
  2.3170      2.2174      2.1837      2.2174      2.3169      2.4770      2.6880      2.9348      3.1963      3.4457    
  3.7476      3.8595      3.8595      3.7476      3.5420      3.2738      2.9783      2.6880      2.4291      2.2203    
  2.0746      1.9999      1.9999      2.0746      2.2203      2.4291      2.6881      2.9783      3.2738      3.5420    
  3.8783      3.9430      3.8782      3.6956      3.4255      3.1075      2.7806      2.4771      2.2203      2.0266    
  1.9064      1.8656      1.9063      2.0266      2.2203      2.4771      2.7806      3.1075      3.4255      3.6957    
  4.0299      4.0298      3.8919      3.6405      3.3160      2.9628      2.6198      2.3170      2.0746      1.9064    
  1.8203      1.8203      1.9063      2.0746      2.3169      2.6198      2.9628      3.3160      3.6406      3.8920    
  4.1820      4.1077      3.8980      3.5883      3.2247      2.8520      2.5074      2.2174      1.9999      1.8656    
  1.8203      1.8656      1.9999      2.2174      2.5074      2.8520      3.2247      3.5883      3.8980      4.1077    
  4.3158      4.1681      3.8974      3.5455      3.1597      2.7830      2.4497      2.1837      1.9999      1.9063    
  1.9063      1.9999      2.1837      2.4497      2.7830      3.1597      3.5456      3.8974      4.1681      4.3158    
  4.4189      4.2085      3.8936      3.5177      3.1262      2.7597      2.4497      2.2174      2.0746      2.0266    
  2.0746      2.2174      2.4497      2.7597      3.1262      3.5177      3.8937      4.2085      4.4189      4.4929    
  4.4864      4.2306      3.8905      3.5080      3.1262      2.7831      2.5074      2.3169      2.2203      2.2203    
  2.3169      2.5074      2.7830      3.1262      3.5081      3.8906      4.2307      4.4864      4.6239      4.6238    
  4.5191      4.2375      3.8905      3.5177      3.1598      2.8521      2.6198      2.4770      2.4291      2.4771    
  2.6198      2.8520      3.1597      3.5177      3.8906      4.2376      4.5192      4.7026      4.7663      4.7026    
  4.5191      4.2306      3.8937      3.5457      3.2247      2.9627      2.7806      2.6880      2.6881      2.7806    
  2.9628      3.2247      3.5456      3.8937      4.2307      4.5192      4.7287      4.8386      4.8385      4.7286    
  4.4864      4.2086      3.8976      3.5884      3.3160      3.1074      2.9783      2.9348      2.9783      3.1075    
  3.3160      3.5883      3.8974      4.2085      4.4864      4.7026      4.8386      4.8847      4.8384      4.7024    
  4.4190      4.1683      3.8981      3.6405      3.4254      3.2738      3.1963      3.1963      3.2738      3.4255    
  3.6406      3.8980      4.1681      4.4189      4.6239      4.7663      4.8385      4.8384      4.7661      4.6238    
  4.3161      4.1077      3.8918      3.6955      3.5419      3.4457      3.4131      3.4457      3.5420      3.6957    
  3.8920      4.1077      4.3158      4.4929      4.6238      4.7026      4.7286      4.7024      4.6238      4.4931    
  4.0344      4.0298      4.0181      4.0042      3.9935      3.9896      3.9936      4.0042      4.0181      4.0299    
  4.0345      4.0299      4.0181      4.0042      3.9936      3.9896      3.9935      4.0042      4.0181      4.0298    
  4.0298      4.0854      4.1261      4.1518      4.1641      4.1642      4.1519      4.1261      4.0854      4.0298    
  3.9628      3.8920      3.8277      3.7795      3.7540      3.7540      3.7795      3.8277      3.8919      3.9627    
  4.0181      4.1261      4.2072      4.2570      4.2737      4.2570      4.2073      4.1261      4.0181      3.8919    
  3.7609      3.6406      3.5452      3.4848      3.4642      3.4848      3.5452      3.6406      3.7609      3.8919    
  4.0042      4.1518      4.2570      4.3115      4.3115      4.2570      4.1519      4.0042      3.8277      3.6406    
  3.4636      3.3160      3.2116      3.1580      3.1580      3.2116      3.3160      3.4637      3.6406      3.8277    
  3.9935      4.1641      4.2737      4.3115      4.2738      4.1642      3.9936      3.7796      3.5452      3.3160    
  3.1158      2.9628      2.8678      2.8358      2.8678      2.9628      3.1158      3.3160      3.5452      3.7795    
  3.9896      4.1642      4.2570      4.2570      4.1642      3.9896      3.7541      3.4848      3.2116      2.9628    
  2.7606      2.6198      2.5481      2.5481      2.6199      2.7606      2.9628      3.2116      3.4848      3.7540    
  3.9936      4.1519      4.2073      4.1519      3.9936      3.7541      3.4642      3.1580      2.8678      2.6198    
  2.4326      2.3169      2.2779      2.3169      2.4326      2.6199      2.8678      3.1580      3.4642      3.7540    
  4.0042      4.1261      4.1261      4.0042      3.7796      3.4848      3.1580      2.8358      2.5481      2.3170    
  2.1565      2.0746      2.0746      2.1565      2.3169      2.5481      2.8358      3.1580      3.4848      3.7795    
  4.0181      4.0854      4.0181      3.8277      3.5452      3.2116      2.8678      2.5481      2.2780      2.0746    
  1.9489      1.9063      1.9489      2.0746      2.2779      2.5481      2.8678      3.2116      3.5452      3.8277    
  4.0299      4.0298      3.8919      3.6406      3.3160      2.9628      2.6198      2.3170      2.0746      1.9064    
  1.8203      1.8203      1.9063      2.0746      2.3169      2.6198      2.9628      3.3160      3.6406      3.8920    
  4.0345      3.9628      3.7609      3.4636      3.1158      2.7606      2.4326      2.1565      1.9489      1.8203    
  1.7768      1.8203      1.9489      2.1565      2.4326      2.7606      3.1158      3.4636      3.7609      3.9628    
  4.0299      3.8920      3.6406      3.3160      2.9628      2.6198      2.3169      2.0746      1.9063      1.8203    
  1.8203      1.9064      2.0746      2.3170      2.6198      2.9628      3.3160      3.6406      3.8919      4.0298    
  4.0181      3.8277      3.5452      3.2116      2.8678      2.5481      2.2779      2.0746      1.9489      1.9063    
  1.9489      2.0746      2.2780      2.5481      2.8678      3.2116      3.5452      3.8277      4.0181      4.0854    
  4.0042      3.7795      3.4848      3.1580      2.8358      2.5481      2.3169      2.1565      2.0746      2.0746    
  2.1565      2.3170      2.5481      2.8358      3.1580      3.4848      3.7796      4.0042      4.1261      4.1261    
  3.9936      3.7540      3.4642      3.1580      2.8678      2.6199      2.4326      2.3169      2.2779      2.3169    
  2.4326      2.6198      2.8678      3.1580      3.4642      3.7541      3.9936      4.1519      4.2073      4.1519    
  3.9896      3.7540      3.4848      3.2116      2.9628      2.7606      2.6199      2.5481      2.5481      2.6198    
  2.7606      2.9628      3.2116      3.4848      3.7541      3.9896      4.1642      4.2570      4.2570      4.1642    
  3.9935      3.7795      3.5452      3.3160      3.1158      2.9628      2.8678      2.8358      2.8678      2.9628    
  3.1158      3.3160      3.5452      3.7796      3.9936      4.1642      4.2738      4.3115      4.2737      4.1641    
  4.0042      3.8277      3.6406      3.4637      3.3160      3.2116      3.1580      3.1580      3.2116      3.3160    
  3.4636      3.6406      3.8277      4.0042      4.1519      4.2570      4.3115      4.3115      4.2570      4.1518    
  4.0181      3.8919      3.7609      3.6406      3.5452      3.4848      3.4642      3.4848      3.5452      3.6406    
  3.7609      3.8919      4.0181      4.1261      4.2073      4.2570      4.2737      4.2570      4.2072      4.1261    
  4.0298      3.9627      3.8919      3.8277      3.7795      3.7540      3.7540      3.7795      3.8277      3.8920    
  3.9628      4.0298      4.0854      4.1261      4.1519      4.1642      4.1641      4.1518      4.1261      4.0854    
  4.1821      4.3161      4.4190      4.4864      4.5191      4.5191      4.4864      4.4189      4.3158      4.1820    
  4.0299      3.8783      3.7476      3.6535      3.6050      3.6050      3.6536      3.7475      3.8781      4.0297    
  4.3161      4.4931      4.6238      4.7024      4.7286      4.7026      4.6238      4.4929      4.3158      4.1077    
  3.8920      3.6957      3.5420      3.4457      3.4131      3.4457      3.5419      3.6955      3.8918      4.1077    
  4.4190      4.6238      4.7661      4.8384      4.8385      4.7663      4.6239      4.4189      4.1681      3.8980    
  3.6406      3.4255      3.2738      3.1963      3.1963      3.2738      3.4254      3.6405      3.8981      4.1683    
  4.4864      4.7024      4.8384      4.8847      4.8386      4.7026      4.4864      4.2085      3.8974      3.5883    
  3.3160      3.1075      2.9783      2.9348      2.9783      3.1074      3.3160      3.5884      3.8976      4.2086    
  4.5191      4.7286      4.8385      4.8386      4.7287      4.5192      4.2307      3.8937      3.5456      3.2247    
  2.9628      2.7806      2.6881      2.6880      2.7806      2.9627      3.2247      3.5457      3.8937      4.2306    
  4.5191      4.7026      4.7663      4.7026      4.5192      4.2376      3.8906      3.5177      3.1597      2.8520    
  2.6198      2.4771      2.4291      2.4770      2.6198      2.8521      3.1598      3.5177      3.8905      4.2375    
  4.4864      4.6238      4.6239      4.4864      4.2307      3.8906      3.5081      3.1262      2.7830      2.5074    
  2.3169      2.2203      2.2203      2.3169      2.5074      2.7831      3.1262      3.5080      3.8905      4.2306    
  4.4189      4.4929      4.4189      4.2085      3.8937      3.5177      3.1262      2.7597      2.4497      2.2174    
  2.0746      2.0266      2.0746      2.2174      2.4497      2.7597      3.1262      3.5177      3.8936      4.2085    
  4.3158      4.3158      4.1681      3.8974      3.5456      3.1597      2.7830      2.4497      2.1837      1.9999    
  1.9063      1.9063      1.9999      2.1837      2.4497      2.7830      3.1597      3.5455      3.8974      4.1681    
  4.1820      4.1077      3.8980      3.5883      3.2247      2.8520      2.5074      2.2174      1.9999      1.8656    
  1.8203      1.8656      1.9999      2.2174      2.5074      2.8520      3.2247      3.5883      3.8980      4.1077    
  4.0299      3.8920      3.6406      3.3160      2.9628      2.6198      2.3169      2.0746      1.9063      1.8203    
  1.8203      1.9064      2.0746      2.3170      2.6198      2.9628      3.3160      3.6405      3.8919      4.0298    
  3.8783      3.6957      3.4255      3.1075      2.7806      2.4771      2.2203      2.0266      1.9063      1.8656    
  1.9064      2.0266      2.2203      2.4771      2.7806      3.1075      3.4255      3.6956      3.8782      3.9430    
  3.7476      3.5420      3.2738      2.9783      2.6881      2.4291      2.2203      2.0746      1.9999      1.9999    
  2.0746      2.2203      2.4291      2.6880      2.9783      3.2738      3.5420      3.7476      3.8595      3.8595    
  3.6535      3.4457      3.1963      2.9348      2.6880      2.4770      2.3169      2.2174      2.1837      2.2174    
  2.3170      2.4771      2.6880      2.9348      3.1962      3.4457      3.6536      3.7919      3.8405      3.7919    
  3.6050      3.4131      3.1963      2.9783      2.7806      2.6198      2.5074      2.4497      2.4497      2.5074    
  2.6198      2.7806      2.9783      3.1962      3.4131      3.6049      3.7487      3.8257      3.8257      3.7487    
  3.6050      3.4457      3.2738      3.1074      2.9627      2.8521      2.7831      2.7597      2.7830      2.8520    
  2.9628      3.1075      3.2738      3.4457      3.6049      3.7339      3.8179      3.8470      3.8179      3.7340    
  3.6536      3.5419      3.4254      3.3160      3.2247      3.1598      3.1262      3.1262      3.1597      3.2247    
  3.3160      3.4255      3.5420      3.6536      3.7487      3.8179      3.8542      3.8543      3.8179      3.7488    
  3.7475      3.6955      3.6405      3.5884      3.5457      3.5177      3.5080      3.5177      3.5455      3.5883    
  3.6405      3.6956      3.7476      3.7919      3.8257      3.8470      3.8543      3.8471      3.8258      3.7919    
  3.8781      3.8918      3.8981      3.8976      3.8937      3.8905      3.8905      3.8936      3.8974      3.8980    
  3.8919      3.8782      3.8595      3.8405      3.8257      3.8179      3.8179      3.8258      3.8406      3.8594    
  4.0297      4.1077      4.1683      4.2086      4.2306      4.2375      4.2306      4.2085      4.1681      4.1077    
  4.0298      3.9430      3.8595      3.7919      3.7487      3.7340      3.7488      3.7919      3.8594      3.9427    
  4.6019      4.8422      5.0163      5.1183      5.1511      5.1183      5.0163      4.8422      4.6019      4.3158    
  4.0181      3.7476      3.5368      3.4054      3.3611      3.4055      3.5369      3.7476      4.0181      4.3158    
  4.8422      5.0971      5.2667      5.3473      5.3473      5.2666      5.0971      4.8422      4.5211      4.1681    
  3.8277      3.5420      3.3405      3.2377      3.2377      3.3406      3.5420      3.8277      4.1681      4.5211    
  5.0163      5.2667      5.4128      5.4593      5.4127      5.2666      5.0163      4.6801      4.2919      3.8974    
  3.5452      3.2738      3.1055      3.0488      3.1055      3.2738      3.5452      3.8974      4.2919      4.6801    
  5.1183      5.3473      5.4593      5.4593      5.3473      5.1183      4.7843      4.3800      3.9500      3.5456    
  3.2116      2.9783      2.8596      2.8596      2.9783      3.2116      3.5456      3.9500      4.3799      4.7843    
  5.1511      5.3473      5.4127      5.3473      5.1511      4.8347      4.4310      3.9837      3.5438      3.1597    
  2.8678      2.6880      2.6277      2.6880      2.8678      3.1597      3.5437      3.9837      4.4310      4.8347    
  5.1183      5.2666      5.2666      5.1183      4.8347      4.4475      3.9997      3.5415      3.1226      2.7830    
  2.5481      2.4291      2.4291      2.5481      2.7830      3.1226      3.5415      3.9997      4.4475      4.8347    
  5.0163      5.0971      5.0163      4.7843      4.4310      3.9997      3.5405      3.1033      2.7300      2.4497    
  2.2779      2.2203      2.2779      2.4497      2.7300      3.1033      3.5405      3.9997      4.4310      4.7843    
  4.8422      4.8422      4.6801      4.3800      3.9837      3.5415      3.1033      2.7120      2.3990      2.1837    
  2.0746      2.0746      2.1837      2.3990      2.7120      3.1033      3.5415      3.9837      4.3800      4.6801    
  4.6019      4.5211      4.2919      3.9500      3.5438      3.1226      2.7300      2.3990      2.1516      1.9999    
  1.9489      1.9999      2.1516      2.3990      2.7300      3.1226      3.5438      3.9500      4.2918      4.5211    
  4.3158      4.1681      3.8974      3.5456      3.1597      2.7830      2.4497      2.1837      1.9999      1.9063    
  1.9063      1.9999      2.1837      2.4497      2.7830      3.1597      3.5456      3.8974      4.1681      4.3158    
  4.0181      3.8277      3.5452      3.2116      2.8678      2.5481      2.2779      2.0746      1.9489      1.9063    
  1.9489      2.0746      2.2780      2.5481      2.8678      3.2116      3.5452      3.8277      4.0181      4.0854    
  3.7476      3.5420      3.2738      2.9783      2.6880      2.4291      2.2203      2.0746      1.9999      1.9999    
  2.0746      2.2203      2.4291      2.6880      2.9783      3.2738      3.5420      3.7476      3.8595      3.8595    
  3.5368      3.3405      3.1055      2.8596      2.6277      2.4291      2.2779      2.1837      2.1516      2.1837    
  2.2780      2.4291      2.6277      2.8596      3.1055      3.3405      3.5369      3.6678      3.7138      3.6678    
  3.4054      3.2377      3.0488      2.8596      2.6880      2.5481      2.4497      2.3990      2.3990      2.4497    
  2.5481      2.6880      2.8596      3.0488      3.2376      3.4054      3.5317      3.5995      3.5995      3.5317    
  3.3611      3.2377      3.1055      2.9783      2.8678      2.7830      2.7300      2.7120      2.7300      2.7830    
  2.8678      2.9783      3.1055      3.2376      3.3611      3.4619      3.5280      3.5510      3.5280      3.4619    
  3.4055      3.3406      3.2738      3.2116      3.1597      3.1226      3.1033      3.1033      3.1226      3.1597    
  3.2116      3.2738      3.3405      3.4054      3.4619      3.5038      3.5262      3.5262      3.5038      3.4619    
  3.5369      3.5420      3.5452      3.5456      3.5437      3.5415      3.5405      3.5415      3.5438      3.5456    
  3.5452      3.5420      3.5369      3.5317      3.5280      3.5262      3.5257      3.5262      3.5280      3.5317    
  3.7476      3.8277      3.8974      3.9500      3.9837      3.9997      3.9997      3.9837      3.9500      3.8974    
  3.8277      3.7476      3.6678      3.5995      3.5510      3.5262      3.5262      3.5510      3.5996      3.6678    
  4.0181      4.1681      4.2919      4.3799      4.4310      4.4475      4.4310      4.3800      4.2918      4.1681    
  4.0181      3.8595      3.7138      3.5995      3.5280      3.5038      3.5280      3.5996      3.7139      3.8595    
  4.3158      4.5211      4.6801      4.7843      4.8347      4.8347      4.7843      4.6801      4.5211      4.3158    
  4.0854      3.8595      3.6678      3.5317      3.4619      3.4619      3.5317      3.6678      3.8595      4.0854    
  5.2168      5.4903      5.6407      5.6979      5.6980      5.6409      5.4906      5.2170      4.8422      4.4189    
  4.0042      3.6535      3.4054      3.2786      3.2786      3.4054      3.6536      4.0044      4.4190      4.8422    
  5.4903      5.7084      5.8025      5.8250      5.8024      5.7084      5.4905      5.1305      4.6801      4.2085    
  3.7795      3.4457      3.2376      3.1675      3.2376      3.4457      3.7797      4.2086      4.6801      5.1303    
  5.6407      5.8025      5.8593      5.8592      5.8023      5.6407      5.3283      4.8819      4.3800      3.8936    
  3.4848      3.1963      3.0488      3.0488      3.1962      3.4848      3.8937      4.3800      4.8817      5.3281    
  5.6979      5.8250      5.8592      5.8248      5.6978      5.4310      5.0128      4.5040      3.9837      3.5177    
  3.1580      2.9348      2.8596      2.9348      3.1581      3.5177      3.9837      4.5039      5.0127      5.4310    
  5.6980      5.8024      5.8023      5.6978      5.4607      5.0742      4.5767      4.0439      3.5415      3.1262    
  2.8358      2.6880      2.6881      2.8358      3.1262      3.5415      4.0438      4.5766      5.0742      5.4609    
  5.6409      5.7084      5.6407      5.4310      5.0742      4.6003      4.0735      3.5555      3.1033      2.7597    
  2.5481      2.4770      2.5481      2.7597      3.1033      3.5554      4.0735      4.6003      5.0743      5.4312    
  5.4906      5.4905      5.3283      5.0128      4.5767      4.0735      3.5600      3.0913      2.7120      2.4497    
  2.3169      2.3169      2.4497      2.7119      3.0913      3.5600      4.0735      4.5767      5.0129      5.3285    
  5.2170      5.1305      4.8819      4.5040      4.0439      3.5555      3.0913      2.6957      2.3990      2.2174    
  2.1565      2.2174      2.3990      2.6957      3.0913      3.5555      4.0439      4.5040      4.8819      5.1305    
  4.8422      4.6801      4.3800      3.9837      3.5415      3.1033      2.7120      2.3990      2.1837      2.0746    
  2.0746      2.1837      2.3990      2.7120      3.1033      3.5415      3.9837      4.3800      4.6801      4.8422    
  4.4189      4.2085      3.8936      3.5177      3.1262      2.7597      2.4497      2.2174      2.0746      2.0266    
  2.0746      2.2174      2.4497      2.7597      3.1262      3.5177      3.8937      4.2085      4.4189      4.4929    
  4.0042      3.7795      3.4848      3.1580      2.8358      2.5481      2.3169      2.1565      2.0746      2.0746    
  2.1565      2.3170      2.5481      2.8358      3.1580      3.4848      3.7796      4.0042      4.1261      4.1261    
  3.6535      3.4457      3.1963      2.9348      2.6880      2.4770      2.3169      2.2174      2.1837      2.2174    
  2.3170      2.4771      2.6880      2.9348      3.1962      3.4457      3.6536      3.7919      3.8405      3.7919    
  3.4054      3.2376      3.0488      2.8596      2.6881      2.5481      2.4497      2.3990      2.3990      2.4497    
  2.5481      2.6880      2.8596      3.0488      3.2376      3.4054      3.5317      3.5995      3.5995      3.5317    
  3.2786      3.1675      3.0488      2.9348      2.8358      2.7597      2.7119      2.6957      2.7120      2.7597    
  2.8358      2.9348      3.0488      3.1675      3.2786      3.3696      3.4293      3.4502      3.4293      3.3696    
  3.2786      3.2376      3.1962      3.1581      3.1262      3.1033      3.0913      3.0913      3.1033      3.1262    
  3.1580      3.1962      3.2376      3.2786      3.3150      3.3424      3.3572      3.3572      3.3425      3.3150    
  3.4054      3.4457      3.4848      3.5177      3.5415      3.5554      3.5600      3.5555      3.5415      3.5177    
  3.4848      3.4457      3.4054      3.3696      3.3424      3.3259      3.3205      3.3259      3.3424      3.3696    
  3.6536      3.7797      3.8937      3.9837      4.0438      4.0735      4.0735      4.0439      3.9837      3.8937    
  3.7796      3.6536      3.5317      3.4293      3.3572      3.3205      3.3205      3.3572      3.4293      3.5316    
  4.0044      4.2086      4.3800      4.5039      4.5766      4.6003      4.5767      4.5040      4.3800      4.2085    
  4.0042      3.7919      3.5995      3.4502      3.3572      3.3259      3.3572      3.4501      3.5995      3.7920    
  4.4190      4.6801      4.8817      5.0127      5.0742      5.0743      5.0129      4.8819      4.6801      4.4189    
  4.1261      3.8405      3.5995      3.4293      3.3425      3.3424      3.4293      3.5995      3.8406      4.1263    
  4.8422      5.1303      5.3281      5.4310      5.4609      5.4312      5.3285      5.1305      4.8422      4.4929    
  4.1261      3.7919      3.5317      3.3696      3.3150      3.3696      3.5316      3.7920      4.1263      4.4931    
  5.7890      5.8840      5.8595      5.8334      5.8595      5.8840      5.7891      5.4905      5.0163      4.4864    
  3.9936      3.6050      3.3611      3.2786      3.3611      3.6049      3.9935      4.4864      5.0163      5.4905    
  5.8840      5.8623      5.7954      5.7953      5.8621      5.8839      5.7235      5.3284      4.7843      4.2306    
  3.7540      3.4131      3.2377      3.2376      3.4130      3.7540      4.2306      4.7844      5.3284      5.7234    
  5.8595      5.7954      5.7530      5.7954      5.8594      5.8032      5.5164      5.0129      4.4310      3.8905    
  3.4642      3.1963      3.1055      3.1963      3.4641      3.8905      4.4310      5.0129      5.5164      5.8033    
  5.8334      5.7953      5.7954      5.8335      5.8079      5.5954      5.1549      4.5767      3.9997      3.5080    
  3.1580      2.9783      2.9783      3.1581      3.5080      3.9996      4.5767      5.1550      5.5955      5.8078    
  5.8595      5.8621      5.8594      5.8079      5.6136      5.2173      4.6624      4.0735      3.5405      3.1262    
  2.8678      2.7806      2.8678      3.1262      3.5405      4.0735      4.6625      5.2173      5.6137      5.8079    
  5.8840      5.8839      5.8032      5.5954      5.2173      4.6904      4.1102      3.5600      3.1033      2.7831    
  2.6199      2.6198      2.7830      3.1033      3.5600      4.1102      4.6904      5.2173      5.5955      5.8034    
  5.7891      5.7235      5.5164      5.1549      4.6624      4.1102      3.5665      3.0913      2.7300      2.5074    
  2.4326      2.5074      2.7300      3.0913      3.5665      4.1102      4.6625      5.1549      5.5164      5.7235    
  5.4905      5.3284      5.0129      4.5767      4.0735      3.5600      3.0913      2.7120      2.4497      2.3169    
  2.3169      2.4497      2.7120      3.0913      3.5600      4.0735      4.5767      5.0128      5.3284      5.4905    
  5.0163      4.7843      4.4310      3.9997      3.5405      3.1033      2.7300      2.4497      2.2779      2.2203    
  2.2779      2.4497      2.7300      3.1033      3.5405      3.9997      4.4310      4.7843      5.0163      5.0971    
  4.4864      4.2306      3.8905      3.5080      3.1262      2.7831      2.5074      2.3169      2.2203      2.2203    
  2.3169      2.5074      2.7830      3.1262      3.5081      3.8906      4.2307      4.4864      4.6239      4.6239    
  3.9936      3.7540      3.4642      3.1580      2.8678      2.6199      2.4326      2.3169      2.2779      2.3169    
  2.4326      2.6198      2.8678      3.1580      3.4642      3.7541      3.9936      4.1519      4.2073      4.1519    
  3.6050      3.4131      3.1963      2.9783      2.7806      2.6198      2.5074      2.4497      2.4497      2.5074    
  2.6198      2.7806      2.9783      3.1962      3.4131      3.6049      3.7487      3.8257      3.8257      3.7487    
  3.3611      3.2377      3.1055      2.9783      2.8678      2.7830      2.7300      2.7120      2.7300      2.7830    
  2.8678      2.9783      3.1055      3.2376      3.3611      3.4619      3.5280      3.5510      3.5280      3.4619    
  3.2786      3.2376      3.1963      3.1581      3.1262      3.1033      3.0913      3.0913      3.1033      3.1262    
  3.1580      3.1962      3.2376      3.2786      3.3150      3.3424      3.3572      3.3572      3.3424      3.3150    
  3.3611      3.4130      3.4641      3.5080      3.5405      3.5600      3.5665      3.5600      3.5405      3.5081    
  3.4642      3.4131      3.3611      3.3150      3.2799      3.2584      3.2512      3.2584      3.2799      3.3150    
  3.6049      3.7540      3.8905      3.9996      4.0735      4.1102      4.1102      4.0735      3.9997      3.8906    
  3.7541      3.6049      3.4619      3.3424      3.2584      3.2156      3.2156      3.2584      3.3424      3.4619    
  3.9935      4.2306      4.4310      4.5767      4.6625      4.6904      4.6625      4.5767      4.4310      4.2307    
  3.9936      3.7487      3.5280      3.3572      3.2512      3.2156      3.2513      3.3572      3.5280      3.7486    
  4.4864      4.7844      5.0129      5.1550      5.2173      5.2173      5.1549      5.0128      4.7843      4.4864    
  4.1519      3.8257      3.5510      3.3572      3.2584      3.2584      3.3572      3.5510      3.8257      4.1519    
  5.0163      5.3284      5.5164      5.5955      5.6137      5.5955      5.5164      5.3284      5.0163      4.6239    
  4.2073      3.8257      3.5280      3.3424      3.2799      3.3424      3.5280      3.8257      4.2073      4.6239    
  5.4905      5.7234      5.8033      5.8078      5.8079      5.8034      5.7235      5.4905      5.0971      4.6239    
  4.1519      3.7487      3.4619      3.3150      3.3150      3.4619      3.7486      4.1519      4.6239      5.0972    
  5.7918      5.5049      5.2686      5.2684      5.5046      5.7917      5.8840      5.6409      5.1183      4.5191    
  3.9896      3.6050      3.4054      3.4054      3.6049      3.9895      4.5190      5.1182      5.6407      5.8840    
  5.5049      5.1438      4.9858      5.1436      5.5047      5.8055      5.8034      5.4312      4.8347      4.2375    
  3.7540      3.4457      3.3406      3.4457      3.7540      4.2373      4.8345      5.4311      5.8035      5.8057    
  5.2686      4.9858      4.9859      5.2687      5.6301      5.7951      5.5955      5.0743      4.4475      3.8906    
  3.4848      3.2738      3.2738      3.4848      3.8905      4.4473      5.0743      5.5957      5.7954      5.6302    
  5.2684      5.1436      5.2687      5.5445      5.7397      5.6462      5.2173      4.6003      3.9997      3.5178    
  3.2116      3.1074      3.2117      3.5177      3.9996      4.6003      5.2175      5.6464      5.7398      5.5442    
  5.5046      5.5047      5.6301      5.7397      5.6520      5.2773      4.6904      4.0735      3.5415      3.1598    
  2.9628      2.9627      3.1597      3.5415      4.0735      4.6905      5.2774      5.6520      5.7396      5.6300    
  5.7917      5.8055      5.7951      5.6462      5.2773      4.7199      4.1102      3.5554      3.1226      2.8521    
  2.7606      2.8521      3.1226      3.5554      4.1102      4.7199      5.2773      5.6462      5.7951      5.8055    
  5.8840      5.8034      5.5955      5.2173      4.6904      4.1102      3.5600      3.1033      2.7830      2.6198    
  2.6199      2.7831      3.1033      3.5600      4.1102      4.6905      5.2173      5.5954      5.8032      5.8839    
  5.6409      5.4312      5.0743      4.6003      4.0735      3.5554      3.1033      2.7597      2.5481      2.4770    
  2.5481      2.7597      3.1033      3.5555      4.0735      4.6003      5.0742      5.4310      5.6407      5.7084    
  5.1183      4.8347      4.4475      3.9997      3.5415      3.1226      2.7830      2.5481      2.4291      2.4291    
  2.5481      2.7831      3.1226      3.5415      3.9997      4.4475      4.8347      5.1183      5.2666      5.2666    
  4.5191      4.2375      3.8906      3.5178      3.1598      2.8521      2.6198      2.4770      2.4291      2.4771    
  2.6198      2.8520      3.1597      3.5177      3.8906      4.2376      4.5192      4.7026      4.7663      4.7026    
  3.9896      3.7540      3.4848      3.2116      2.9628      2.7606      2.6199      2.5481      2.5481      2.6198    
  2.7606      2.9628      3.2116      3.4848      3.7541      3.9896      4.1642      4.2570      4.2570      4.1642    
  3.6050      3.4457      3.2738      3.1074      2.9627      2.8521      2.7831      2.7597      2.7831      2.8520    
  2.9628      3.1075      3.2738      3.4457      3.6049      3.7339      3.8179      3.8470      3.8179      3.7340    
  3.4054      3.3406      3.2738      3.2117      3.1597      3.1226      3.1033      3.1033      3.1226      3.1597    
  3.2116      3.2738      3.3405      3.4054      3.4619      3.5038      3.5262      3.5262      3.5038      3.4619    
  3.4054      3.4457      3.4848      3.5177      3.5415      3.5554      3.5600      3.5555      3.5415      3.5177    
  3.4848      3.4457      3.4054      3.3696      3.3424      3.3259      3.3205      3.3259      3.3424      3.3696    
  3.6049      3.7540      3.8905      3.9996      4.0735      4.1102      4.1102      4.0735      3.9997      3.8906    
  3.7541      3.6049      3.4619      3.3424      3.2584      3.2156      3.2156      3.2584      3.3424      3.4619    
  3.9895      4.2373      4.4473      4.6003      4.6905      4.7199      4.6905      4.6003      4.4475      4.2376    
  3.9896      3.7339      3.5038      3.3259      3.2156      3.1784      3.2155      3.3260      3.5039      3.7340    
  4.5190      4.8345      5.0743      5.2175      5.2774      5.2773      5.2173      5.0742      4.8347      4.5192    
  4.1642      3.8179      3.5262      3.3205      3.2156      3.2155      3.3205      3.5262      3.8179      4.1641    
  5.1182      5.4311      5.5957      5.6464      5.6520      5.6462      5.5954      5.4310      5.1183      4.7026    
  4.2570      3.8470      3.5262      3.3259      3.2584      3.3260      3.5262      3.8470      4.2570      4.7025    
  5.6407      5.8035      5.7954      5.7398      5.7396      5.7951      5.8032      5.6407      5.2666      4.7663    
  4.2570      3.8179      3.5038      3.3424      3.3424      3.5039      3.8179      4.2570      4.7661      5.2665    
  5.8840      5.8057      5.6302      5.5442      5.6300      5.8055      5.8839      5.7084      5.2666      4.7026    
  4.1642      3.7340      3.4619      3.3696      3.4619      3.7340      4.1641      4.7025      5.2665      5.7082    
  4.7911      4.0987      3.8139      4.0987      4.7912      5.5046      5.8595      5.6980      5.1511      4.5191    
  3.9935      3.6536      3.5369      3.6536      3.9935      4.5190      5.1511      5.6980      5.8595      5.5046    
  4.0987      3.5119      3.5120      4.0988      4.9539      5.6300      5.8079      5.4609      4.8347      4.2306    
  3.7796      3.5419      3.5420      3.7797      4.2306      4.8345      5.4608      5.8080      5.6301      4.9539    
  3.8139      3.5120      3.8140      4.5529      5.3279      5.7397      5.6137      5.0742      4.4310      3.8937    
  3.5452      3.4253      3.5452      3.8937      4.4310      5.0742      5.6136      5.7397      5.3278      4.5529    
  4.0987      4.0988      4.5529      5.1927      5.6444      5.6521      5.2173      4.5766      3.9837      3.5457    
  3.3160      3.3160      3.5456      3.9837      4.5767      5.2174      5.6521      5.6444      5.1926      4.5529    
  4.7912      4.9539      5.3279      5.6444      5.6526      5.2774      4.6625      4.0438      3.5437      3.2247    
  3.1158      3.2247      3.5437      4.0438      4.6625      5.2774      5.6526      5.6444      5.3278      4.9539    
  5.5046      5.6300      5.7397      5.6521      5.2774      4.6905      4.0735      3.5415      3.1597      2.9627    
  2.9628      3.1598      3.5415      4.0734      4.6904      5.2773      5.6520      5.7397      5.6301      5.5047    
  5.8595      5.8079      5.6137      5.2173      4.6625      4.0735      3.5405      3.1262      2.8678      2.7806    
  2.8678      3.1262      3.5405      4.0735      4.6624      5.2173      5.6136      5.8079      5.8595      5.8621    
  5.6980      5.4609      5.0742      4.5766      4.0438      3.5415      3.1262      2.8358      2.6881      2.6880    
  2.8358      3.1262      3.5415      4.0439      4.5767      5.0742      5.4607      5.6977      5.8023      5.8024    
  5.1511      4.8347      4.4310      3.9837      3.5437      3.1597      2.8678      2.6881      2.6277      2.6880    
  2.8678      3.1597      3.5438      3.9837      4.4310      4.8347      5.1511      5.3473      5.4127      5.3473    
  4.5191      4.2306      3.8937      3.5457      3.2247      2.9627      2.7806      2.6880      2.6880      2.7806    
  2.9627      3.2247      3.5456      3.8936      4.2306      4.5192      4.7287      4.8385      4.8385      4.7286    
  3.9935      3.7796      3.5452      3.3160      3.1158      2.9628      2.8678      2.8358      2.8678      2.9627    
  3.1158      3.3160      3.5452      3.7796      3.9936      4.1642      4.2738      4.3115      4.2737      4.1641    
  3.6536      3.5419      3.4253      3.3160      3.2247      3.1598      3.1262      3.1262      3.1597      3.2247    
  3.3160      3.4255      3.5420      3.6536      3.7487      3.8179      3.8543      3.8543      3.8179      3.7488    
  3.5369      3.5420      3.5452      3.5456      3.5437      3.5415      3.5405      3.5415      3.5438      3.5456    
  3.5452      3.5420      3.5369      3.5317      3.5280      3.5262      3.5257      3.5262      3.5280      3.5317    
  3.6536      3.7797      3.8937      3.9837      4.0438      4.0734      4.0735      4.0439      3.9837      3.8936    
  3.7796      3.6536      3.5317      3.4293      3.3572      3.3205      3.3205      3.3572      3.4293      3.5316    
  3.9935      4.2306      4.4310      4.5767      4.6625      4.6904      4.6624      4.5767      4.4310      4.2306    
  3.9936      3.7487      3.5280      3.3572      3.2512      3.2156      3.2513      3.3572      3.5280      3.7487    
  4.5190      4.8345      5.0742      5.2174      5.2774      5.2773      5.2173      5.0742      4.8347      4.5192    
  4.1642      3.8179      3.5262      3.3205      3.2156      3.2156      3.3205      3.5262      3.8179      4.1641    
  5.1511      5.4608      5.6136      5.6521      5.6526      5.6520      5.6136      5.4607      5.1511      4.7287    
  4.2738      3.8543      3.5257      3.3205      3.2513      3.3205      3.5256      3.8542      4.2737      4.7287    
  5.6980      5.8080      5.7397      5.6444      5.6444      5.7397      5.8079      5.6977      5.3473      4.8385    
  4.3115      3.8543      3.5262      3.3572      3.3572      3.5262      3.8542      4.3114      4.8385      5.3474    
  5.8595      5.6301      5.3278      5.1926      5.3278      5.6301      5.8595      5.8023      5.4127      4.8385    
  4.2737      3.8179      3.5280      3.4293      3.5280      3.8179      4.2737      4.8385      5.4127      5.8024    
  5.5046      4.9539      4.5529      4.5529      4.9539      5.5047      5.8621      5.8024      5.3473      4.7286    
  4.1641      3.7488      3.5317      3.5316      3.7487      4.1641      4.7287      5.3474      5.8024      5.8619    
  2.7790      1.9103      1.9105      2.7796      4.0987      5.2684      5.8334      5.6979      5.1183      4.4864    
  4.0042      3.7475      3.7476      4.0044      4.4864      5.1182      5.6980      5.8336      5.2685      4.0984    
  1.9103      1.4211      1.9105      3.1444      4.5529      5.5442      5.8079      5.4310      4.7843      4.2086    
  3.8277      3.6955      3.8277      4.2086      4.7844      5.4311      5.8079      5.5442      4.5527      3.1441    
  1.9105      1.9105      2.7598      4.0497      5.1926      5.7398      5.5955      5.0127      4.3799      3.8976    
  3.6406      3.6404      3.8974      4.3800      5.0129      5.5956      5.7396      5.1923      4.0496      2.7598    
  2.7796      3.1444      4.0497      5.0379      5.6443      5.6464      5.1550      4.5039      3.9500      3.5884    
  3.4637      3.5884      3.9500      4.5039      5.1550      5.6464      5.6443      5.0380      4.0497      3.1444    
  4.0987      4.5529      5.1926      5.6443      5.6521      5.2175      4.5767      3.9837      3.5456      3.3160    
  3.3160      3.5457      3.9837      4.5766      5.2173      5.6520      5.6444      5.1927      4.5529      4.0987    
  5.2684      5.5442      5.7398      5.6464      5.2175      4.6003      3.9996      3.5177      3.2116      3.1074    
  3.2116      3.5177      3.9997      4.6003      5.2173      5.6461      5.7397      5.5445      5.2687      5.1436    
  5.8334      5.8079      5.5955      5.1550      4.5767      3.9996      3.5080      3.1581      2.9783      2.9783    
  3.1580      3.5080      3.9997      4.5767      5.1549      5.5954      5.8079      5.8335      5.7954      5.7953    
  5.6979      5.4310      5.0127      4.5039      3.9837      3.5177      3.1581      2.9348      2.8596      2.9348    
  3.1580      3.5177      3.9837      4.5040      5.0128      5.4310      5.6978      5.8248      5.8592      5.8250    
  5.1183      4.7843      4.3799      3.9500      3.5456      3.2116      2.9783      2.8596      2.8596      2.9783    
  3.2116      3.5456      3.9500      4.3800      4.7843      5.1183      5.3473      5.4593      5.4593      5.3473    
  4.4864      4.2086      3.8976      3.5884      3.3160      3.1074      2.9783      2.9348      2.9783      3.1074    
  3.3160      3.5883      3.8974      4.2085      4.4864      4.7026      4.8386      4.8847      4.8384      4.7025    
  4.0042      3.8277      3.6406      3.4637      3.3160      3.2116      3.1580      3.1580      3.2116      3.3160    
  3.4636      3.6406      3.8277      4.0042      4.1519      4.2571      4.3115      4.3115      4.2570      4.1518    
  3.7475      3.6955      3.6404      3.5884      3.5457      3.5177      3.5080      3.5177      3.5456      3.5883    
  3.6406      3.6956      3.7476      3.7919      3.8257      3.8470      3.8543      3.8471      3.8258      3.7919    
  3.7476      3.8277      3.8974      3.9500      3.9837      3.9997      3.9997      3.9837      3.9500      3.8974    
  3.8277      3.7476      3.6678      3.5995      3.5510      3.5262      3.5262      3.5510      3.5996      3.6678    
  4.0044      4.2086      4.3800      4.5039      4.5766      4.6003      4.5767      4.5040      4.3800      4.2085    
  4.0042      3.7919      3.5995      3.4501      3.3572      3.3259      3.3572      3.4501      3.5995      3.7920    
  4.4864      4.7844      5.0129      5.1550      5.2173      5.2173      5.1549      5.0128      4.7843      4.4864    
  4.1519      3.8257      3.5510      3.3572      3.2584      3.2584      3.3572      3.5510      3.8257      4.1519    
  5.1182      5.4311      5.5956      5.6464      5.6520      5.6461      5.5954      5.4310      5.1183      4.7026    
  4.2571      3.8470      3.5262      3.3259      3.2584      3.3260      3.5262      3.8470      4.2570      4.7025    
  5.6980      5.8079      5.7396      5.6443      5.6444      5.7397      5.8079      5.6978      5.3473      4.8386    
  4.3115      3.8543      3.5262      3.3572      3.3572      3.5262      3.8542      4.3114      4.8385      5.3474    
  5.8336      5.5442      5.1923      5.0380      5.1927      5.5445      5.8335      5.8248      5.4593      4.8847    
  4.3115      3.8471      3.5510      3.4501      3.5510      3.8470      4.3114      4.8847      5.4595      5.8252    
  5.2685      4.5527      4.0496      4.0497      4.5529      5.2687      5.7954      5.8592      5.4593      4.8384    
  4.2570      3.8258      3.5996      3.5995      3.8257      4.2570      4.8385      5.4595      5.8593      5.7954    
  4.0984      3.1441      2.7598      3.1444      4.0987      5.1436      5.7953      5.8250      5.3473      4.7025    
  4.1518      3.7919      3.6678      3.7920      4.1519      4.7025      5.3474      5.8252      5.7954      5.1434    
 0.29461     -.33869     0.29452      1.9105      3.8139      5.2686      5.8595      5.6407      5.0163      4.4190    
  4.0181      3.8780      4.0181      4.4190      5.0163      5.6407      5.8595      5.2685      3.8139      1.9106    
 -.33869     -.33872     0.87103      2.7598      4.5529      5.6302      5.8033      5.3281      4.6801      4.1683    
  3.8919      3.8918      4.1681      4.6801      5.3284      5.8034      5.6301      4.5527      2.7597     0.87105    
 0.29452     0.87103      2.3374      4.0495      5.3278      5.7954      5.5164      4.8817      4.2919      3.8981    
  3.7609      3.8980      4.2919      4.8817      5.5164      5.7954      5.3278      4.0496      2.3375     0.87100    
  1.9105      2.7598      4.0495      5.1923      5.7396      5.5957      5.0129      4.3800      3.8974      3.6405    
  3.6406      3.8975      4.3799      5.0127      5.5955      5.7398      5.1926      4.0497      2.7598      1.9105    
  3.8139      4.5529      5.3278      5.7396      5.6137      5.0743      4.4310      3.8937      3.5452      3.4254    
  3.5452      3.8937      4.4310      5.0743      5.6137      5.7396      5.3279      4.5530      3.8140      3.5119    
  5.2686      5.6302      5.7954      5.5957      5.0743      4.4473      3.8905      3.4848      3.2738      3.2738    
  3.4847      3.8905      4.4475      5.0744      5.5955      5.7951      5.6301      5.2687      4.9859      4.9858    
  5.8595      5.8033      5.5164      5.0129      4.4310      3.8905      3.4641      3.1962      3.1055      3.1963    
  3.4641      3.8905      4.4310      5.0129      5.5164      5.8032      5.8595      5.7954      5.7530      5.7954    
  5.6407      5.3281      4.8817      4.3800      3.8937      3.4848      3.1962      3.0488      3.0488      3.1963    
  3.4847      3.8936      4.3800      4.8819      5.3284      5.6407      5.8023      5.8592      5.8593      5.8025    
  5.0163      4.6801      4.2919      3.8974      3.5452      3.2738      3.1055      3.0488      3.1055      3.2738    
  3.5452      3.8974      4.2919      4.6801      5.0163      5.2666      5.4127      5.4593      5.4127      5.2667    
  4.4190      4.1683      3.8981      3.6405      3.4254      3.2738      3.1963      3.1963      3.2738      3.4255    
  3.6406      3.8980      4.1681      4.4188      4.6238      4.7663      4.8385      4.8384      4.7661      4.6238    
  4.0181      3.8919      3.7609      3.6406      3.5452      3.4847      3.4641      3.4847      3.5452      3.6406    
  3.7609      3.8919      4.0181      4.1261      4.2073      4.2570      4.2737      4.2570      4.2072      4.1261    
  3.8780      3.8918      3.8980      3.8975      3.8937      3.8905      3.8905      3.8936      3.8974      3.8980    
  3.8919      3.8783      3.8595      3.8405      3.8257      3.8179      3.8180      3.8258      3.8405      3.8594    
  4.0181      4.1681      4.2919      4.3799      4.4310      4.4475      4.4310      4.3800      4.2919      4.1681    
  4.0181      3.8595      3.7138      3.5995      3.5280      3.5038      3.5280      3.5996      3.7139      3.8595    
  4.4190      4.6801      4.8817      5.0127      5.0743      5.0744      5.0129      4.8819      4.6801      4.4188    
  4.1261      3.8405      3.5995      3.4293      3.3424      3.3424      3.4293      3.5995      3.8406      4.1263    
  5.0163      5.3284      5.5164      5.5955      5.6137      5.5955      5.5164      5.3284      5.0163      4.6238    
  4.2073      3.8257      3.5280      3.3424      3.2799      3.3424      3.5280      3.8257      4.2073      4.6239    
  5.6407      5.8034      5.7954      5.7398      5.7396      5.7951      5.8032      5.6407      5.2666      4.7663    
  4.2570      3.8179      3.5038      3.3424      3.3424      3.5039      3.8179      4.2570      4.7661      5.2665    
  5.8595      5.6301      5.3278      5.1926      5.3279      5.6301      5.8595      5.8023      5.4127      4.8385    
  4.2737      3.8180      3.5280      3.4293      3.5280      3.8179      4.2737      4.8385      5.4127      5.8023    
  5.2685      4.5527      4.0496      4.0497      4.5530      5.2687      5.7954      5.8592      5.4593      4.8384    
  4.2570      3.8258      3.5996      3.5995      3.8257      4.2570      4.8385      5.4595      5.8593      5.7954    
  3.8139      2.7597      2.3375      2.7598      3.8140      4.9859      5.7530      5.8593      5.4127      4.7661    
  4.2072      3.8405      3.7139      3.8406      4.2073      4.7661      5.4127      5.8593      5.7530      4.9859    
  1.9106     0.87105     0.87100      1.9105      3.5119      4.9858      5.7954      5.8025      5.2667      4.6238    
  4.1261      3.8594      3.8595      4.1263      4.6239      5.2665      5.8023      5.7954      4.9859      3.5121    
 -1.7633     -1.7637     -.33867      1.9103      4.0986      5.5049      5.8840      5.4903      4.8422      4.3161    
  4.0298      4.0297      4.3158      4.8422      5.4905      5.8840      5.5046      4.0984      1.9107     -.33790    
 -1.7637     -1.0256     0.87111      3.1441      4.9539      5.8057      5.7234      5.1303      4.5211      4.1078    
  3.9627      4.1077      4.5211      5.1303      5.7234      5.8057      4.9539      3.1441     0.87108     -1.0256    
 -.33867     0.87111      2.7598      4.5527      5.6301      5.8035      5.3284      4.6801      4.1681      3.8918    
  3.8919      4.1683      4.6801      5.3282      5.8033      5.6301      4.5529      2.7599     0.87102     -.33875    
  1.9103      3.1441      4.5527      5.5442      5.8079      5.4311      4.7843      4.2086      3.8277      3.6955    
  3.8277      4.2086      4.7843      5.4310      5.8079      5.5442      4.5529      3.1444      1.9105      1.4210    
  4.0986      4.9539      5.6301      5.8079      5.4608      4.8346      4.2306      3.7797      3.5420      3.5420    
  3.7796      4.2306      4.8347      5.4609      5.8079      5.6300      4.9539      4.0988      3.5119      3.5118    
  5.5049      5.8057      5.8035      5.4311      4.8346      4.2374      3.7540      3.4457      3.3406      3.4457    
  3.7540      4.2375      4.8347      5.4312      5.8034      5.8055      5.5047      5.1436      4.9858      5.1437    
  5.8840      5.7234      5.3284      4.7843      4.2306      3.7540      3.4130      3.2376      3.2377      3.4131    
  3.7540      4.2306      4.7843      5.3284      5.7235      5.8839      5.8621      5.7953      5.7954      5.8623    
  5.4903      5.1303      4.6801      4.2086      3.7797      3.4457      3.2376      3.1675      3.2377      3.4457    
  3.7795      4.2085      4.6801      5.1305      5.4905      5.7084      5.8025      5.8251      5.8025      5.7083    
  4.8422      4.5211      4.1681      3.8277      3.5420      3.3406      3.2377      3.2377      3.3405      3.5420    
  3.8277      4.1681      4.5211      4.8422      5.0971      5.2666      5.3473      5.3473      5.2666      5.0971    
  4.3161      4.1078      3.8918      3.6955      3.5420      3.4457      3.4131      3.4457      3.5420      3.6957    
  3.8920      4.1077      4.3158      4.4929      4.6238      4.7025      4.7285      4.7024      4.6238      4.4931    
  4.0298      3.9627      3.8919      3.8277      3.7796      3.7540      3.7540      3.7795      3.8277      3.8920    
  3.9628      4.0298      4.0854      4.1261      4.1519      4.1641      4.1641      4.1518      4.1261      4.0855    
  4.0297      4.1077      4.1683      4.2086      4.2306      4.2375      4.2306      4.2085      4.1681      4.1077    
  4.0298      3.9430      3.8595      3.7919      3.7487      3.7340      3.7488      3.7919      3.8594      3.9427    
  4.3158      4.5211      4.6801      4.7843      4.8347      4.8347      4.7843      4.6801      4.5211      4.3158    
  4.0854      3.8595      3.6678      3.5317      3.4619      3.4619      3.5317      3.6678      3.8595      4.0854    
  4.8422      5.1303      5.3282      5.4310      5.4609      5.4312      5.3284      5.1305      4.8422      4.4929    
  4.1261      3.7919      3.5317      3.3696      3.3150      3.3696      3.5316      3.7920      4.1263      4.4931    
  5.4905      5.7234      5.8033      5.8079      5.8079      5.8034      5.7235      5.4905      5.0971      4.6238    
  4.1519      3.7487      3.4619      3.3150      3.3150      3.4619      3.7487      4.1518      4.6239      5.0972    
  5.8840      5.8057      5.6301      5.5442      5.6300      5.8055      5.8839      5.7084      5.2666      4.7025    
  4.1641      3.7340      3.4619      3.3696      3.4619      3.7340      4.1642      4.7025      5.2665      5.7083    
  5.5046      4.9539      4.5529      4.5529      4.9539      5.5047      5.8621      5.8025      5.3473      4.7285    
  4.1641      3.7488      3.5317      3.5316      3.7487      4.1642      4.7287      5.3474      5.8023      5.8619    
  4.0984      3.1441      2.7599      3.1444      4.0988      5.1436      5.7953      5.8251      5.3473      4.7024    
  4.1518      3.7919      3.6678      3.7920      4.1518      4.7025      5.3474      5.8251      5.7954      5.1435    
  1.9107     0.87108     0.87102      1.9105      3.5119      4.9858      5.7954      5.8025      5.2666      4.6238    
  4.1261      3.8594      3.8595      4.1263      4.6239      5.2665      5.8023      5.7954      4.9859      3.5121    
 -.33790     -1.0256     -.33875      1.4210      3.5118      5.1437      5.8623      5.7083      5.0971      4.4931    
  4.0855      3.9427      4.0854      4.4931      5.0972      5.7083      5.8619      5.1435      3.5121      1.4220    
