fcc Si                                  
   3.90000000000000     
     0.500000    0.500000    0.000000
     0.000000    0.500000    0.500000
     0.500000    0.000000    0.500000
   Si
     1
Direct
  0.000000  0.000000  0.000000
 
   20   20   20
 -.25617042415E+01 -.17632555237E+01 0.29466071354E+00 0.27790628252E+01 0.47911053709E+01
 0.57918471673E+01 0.57890900164E+01 0.52168674647E+01 0.46019281586E+01 0.41820742331E+01
 0.40344502458E+01 0.41820742331E+01 0.46019281586E+01 0.52168674647E+01 0.57890900164E+01
 0.57918471673E+01 0.47911053709E+01 0.27790628252E+01 0.29466071354E+00 -.17632555237E+01
 -.17632555237E+01 -.33784933119E+00 0.19106857938E+01 0.40984459956E+01 0.55046007770E+01
 0.58839959547E+01 0.54905381144E+01 0.48422123592E+01 0.43158357774E+01 0.40296823074E+01
 0.40298289200E+01 0.43160610697E+01 0.48421884393E+01 0.54903217166E+01 0.58839783099E+01
 0.55049070110E+01 0.40986277737E+01 0.19102556145E+01 -.33868068134E+00 -.17636849973E+01
 0.29466071354E+00 0.19106857938E+01 0.38139372662E+01 0.52685210041E+01 0.58594638192E+01
 0.56407468387E+01 0.50162803590E+01 0.44190111151E+01 0.40180629146E+01 0.38780582894E+01
 0.40180636842E+01 0.44189932423E+01 0.50162402766E+01 0.56407182255E+01 0.58594791491E+01
 0.52685473727E+01 0.38138914213E+01 0.19105465269E+01 0.29452843868E+00 -.33868068134E+00
 0.27790628252E+01 0.40984459956E+01 0.52685210041E+01 0.58335878220E+01 0.56979608835E+01
 0.51182042681E+01 0.44863808342E+01 0.40043704361E+01 0.37475850401E+01 0.37474830400E+01
 0.40041944408E+01 0.44863411179E+01 0.51182928573E+01 0.56979517160E+01 0.58333929890E+01
 0.52684131381E+01 0.40987418321E+01 0.27796260847E+01 0.19105465269E+01 0.19102556145E+01
 0.47911053709E+01 0.55046007770E+01 0.58594638192E+01 0.56979608835E+01 0.51511074727E+01
 0.45190592909E+01 0.39935379745E+01 0.36535894849E+01 0.35368915587E+01 0.36535948859E+01
 0.39935247529E+01 0.45190488473E+01 0.51511359783E+01 0.56979969087E+01 0.58594609751E+01
 0.55046098722E+01 0.47911988145E+01 0.40987418321E+01 0.38138914213E+01 0.40986277737E+01
 0.57918471673E+01 0.58839959547E+01 0.56407468387E+01 0.51182042681E+01 0.45190592909E+01
 0.39895461841E+01 0.36049306787E+01 0.34054110873E+01 0.34054676441E+01 0.36050259291E+01
 0.39895844146E+01 0.45190827264E+01 0.51183031807E+01 0.56408699205E+01 0.58839734583E+01
 0.57916136987E+01 0.55046098722E+01 0.52684131381E+01 0.52685473727E+01 0.55049070110E+01
 0.57890900164E+01 0.54905381144E+01 0.50162803590E+01 0.44863808342E+01 0.39935379745E+01
 0.36049306787E+01 0.33610681927E+01 0.32785802790E+01 0.33611071222E+01 0.36049657883E+01
 0.39935328692E+01 0.44863493371E+01 0.50162639276E+01 0.54905547662E+01 0.57891121553E+01
 0.58839734583E+01 0.58594609751E+01 0.58333929890E+01 0.58594791491E+01 0.58839783099E+01
 0.52168674647E+01 0.48422123592E+01 0.44190111151E+01 0.40043704361E+01 0.36535894849E+01
 0.34054110873E+01 0.32785802790E+01 0.32786064913E+01 0.34054395983E+01 0.36535272557E+01
 0.40041984113E+01 0.44188489554E+01 0.48422139785E+01 0.52170502941E+01 0.54905547662E+01
 0.56408699205E+01 0.56979969087E+01 0.56979517160E+01 0.56407182255E+01 0.54903217166E+01
 0.46019281586E+01 0.43158357774E+01 0.40180629146E+01 0.37475850401E+01 0.35368915587E+01
 0.34054676441E+01 0.33611071222E+01 0.34054395983E+01 0.35368693767E+01 0.37475842993E+01
 0.40180665620E+01 0.43158345759E+01 0.46019384282E+01 0.48422139785E+01 0.50162639276E+01
 0.51183031807E+01 0.51511359783E+01 0.51182928573E+01 0.50162402766E+01 0.48421884393E+01
 0.41820742331E+01 0.40296823074E+01 0.38780582894E+01 0.37474830400E+01 0.36535948859E+01
 0.36050259291E+01 0.36049657883E+01 0.36535272557E+01 0.37475842993E+01 0.38783053941E+01
 0.40298458742E+01 0.41819915769E+01 0.43158345759E+01 0.44188489554E+01 0.44863493371E+01
 0.45190827264E+01 0.45190488473E+01 0.44863411179E+01 0.44189932423E+01 0.43160610697E+01
 0.40344502458E+01 0.40298289200E+01 0.40180636842E+01 0.40041944408E+01 0.39935247529E+01
 0.39895844146E+01 0.39935328692E+01 0.40041984113E+01 0.40180665620E+01 0.40298458742E+01
 0.40344781392E+01 0.40298458742E+01 0.40180665620E+01 0.40041984113E+01 0.39935328692E+01
 0.39895844146E+01 0.39935247529E+01 0.40041944408E+01 0.40180636842E+01 0.40298289200E+01
 0.41820742331E+01 0.43160610697E+01 0.44189932423E+01 0.44863411179E+01 0.45190488473E+01
 0.45190827264E+01 0.44863493371E+01 0.44188489554E+01 0.43158345759E+01 0.41819915769E+01
 0.40298458742E+01 0.38783053941E+01 0.37475842993E+01 0.36535272557E+01 0.36049657883E+01
 0.36050259291E+01 0.36535948859E+01 0.37474830400E+01 0.38780582894E+01 0.40296823074E+01
 0.46019281586E+01 0.48421884393E+01 0.50162402766E+01 0.51182928573E+01 0.51511359783E+01
 0.51183031807E+01 0.50162639276E+01 0.48422139785E+01 0.46019384282E+01 0.43158345759E+01
 0.40180665620E+01 0.37475842993E+01 0.35368693767E+01 0.34054395983E+01 0.33611071222E+01
 0.34054676441E+01 0.35368915587E+01 0.37475850401E+01 0.40180629146E+01 0.43158357774E+01
 0.52168674647E+01 0.54903217166E+01 0.56407182255E+01 0.56979517160E+01 0.56979969087E+01
 0.56408699205E+01 0.54905547662E+01 0.52170502941E+01 0.48422139785E+01 0.44188489554E+01
 0.40041984113E+01 0.36535272557E+01 0.34054395983E+01 0.32786064913E+01 0.32785802790E+01
 0.34054110873E+01 0.36535894849E+01 0.40043704361E+01 0.44190111151E+01 0.48422123592E+01
 0.57890900164E+01 0.58839783099E+01 0.58594791491E+01 0.58333929890E+01 0.58594609751E+01
 0.58839734583E+01 0.57891121553E+01 0.54905547662E+01 0.50162639276E+01 0.44863493371E+01
 0.39935328692E+01 0.36049657883E+01 0.33611071222E+01 0.32785802790E+01 0.33610681927E+01
 0.36049306787E+01 0.39935379745E+01 0.44863808342E+01 0.50162803590E+01 0.54905381144E+01
 0.57918471673E+01 0.55049070110E+01 0.52685473727E+01 0.52684131381E+01 0.55046098722E+01
 0.57916136987E+01 0.58839734583E+01 0.56408699205E+01 0.51183031807E+01 0.45190827264E+01
 0.39895844146E+01 0.36050259291E+01 0.34054676441E+01 0.34054110873E+01 0.36049306787E+01
 0.39895461841E+01 0.45190592909E+01 0.51182042681E+01 0.56407468387E+01 0.58839959547E+01
 0.47911053709E+01 0.40986277737E+01 0.38138914213E+01 0.40987418321E+01 0.47911988145E+01
 0.55046098722E+01 0.58594609751E+01 0.56979969087E+01 0.51511359783E+01 0.45190488473E+01
 0.39935247529E+01 0.36535948859E+01 0.35368915587E+01 0.36535894849E+01 0.39935379745E+01
 0.45190592909E+01 0.51511074727E+01 0.56979608835E+01 0.58594638192E+01 0.55046007770E+01
 0.27790628252E+01 0.19102556145E+01 0.19105465269E+01 0.27796260847E+01 0.40987418321E+01
 0.52684131381E+01 0.58333929890E+01 0.56979517160E+01 0.51182928573E+01 0.44863411179E+01
 0.40041944408E+01 0.37474830400E+01 0.37475850401E+01 0.40043704361E+01 0.44863808342E+01
 0.51182042681E+01 0.56979608835E+01 0.58335878220E+01 0.52685210041E+01 0.40984459956E+01
 0.29466071354E+00 -.33868068134E+00 0.29452843868E+00 0.19105465269E+01 0.38138914213E+01
 0.52685473727E+01 0.58594791491E+01 0.56407182255E+01 0.50162402766E+01 0.44189932423E+01
 0.40180636842E+01 0.38780582894E+01 0.40180629146E+01 0.44190111151E+01 0.50162803590E+01
 0.56407468387E+01 0.58594638192E+01 0.52685210041E+01 0.38139372662E+01 0.19106857938E+01
 -.17632555237E+01 -.17636849973E+01 -.33868068134E+00 0.19102556145E+01 0.40986277737E+01
 0.55049070110E+01 0.58839783099E+01 0.54903217166E+01 0.48421884393E+01 0.43160610697E+01
 0.40298289200E+01 0.40296823074E+01 0.43158357774E+01 0.48422123592E+01 0.54905381144E+01
 0.58839959547E+01 0.55046007770E+01 0.40984459956E+01 0.19106857938E+01 -.33784933119E+00
 -.17632798566E+01 -.33789508207E+00 0.19106566071E+01 0.40984358225E+01 0.55045826015E+01
 0.58839726929E+01 0.54905366107E+01 0.48422267403E+01 0.43158363308E+01 0.40296733885E+01
 0.40298397460E+01 0.43160869843E+01 0.48421997421E+01 0.54903226655E+01 0.58839986628E+01
 0.55049426610E+01 0.40986477039E+01 0.19102593649E+01 -.33867044778E+00 -.17636775375E+01
 -.33789508207E+00 0.14219664597E+01 0.35121477009E+01 0.51434525937E+01 0.58619146502E+01
 0.57082575573E+01 0.50971881692E+01 0.44931098106E+01 0.40853901458E+01 0.39427237949E+01
 0.40854501856E+01 0.44930899187E+01 0.50971028869E+01 0.57083491533E+01 0.58622845562E+01
 0.51437382318E+01 0.35118221049E+01 0.14210218781E+01 -.33874968574E+00 -.10256314195E+01
 0.19106566071E+01 0.35121477009E+01 0.49859182537E+01 0.57953645076E+01 0.58023262060E+01
 0.52665060482E+01 0.46238784650E+01 0.41262894922E+01 0.38595127439E+01 0.38594080612E+01
 0.41260884150E+01 0.46238015233E+01 0.52666458531E+01 0.58025397600E+01 0.57954278274E+01
 0.49857654666E+01 0.35119106831E+01 0.19104901512E+01 0.87102399947E+00 0.87107634255E+00
 0.40984358225E+01 0.51434525937E+01 0.57953645076E+01 0.58251241056E+01 0.53473947141E+01
 0.47024894659E+01 0.41518458177E+01 0.37919568936E+01 0.36678219778E+01 0.37919497374E+01
 0.41518102532E+01 0.47024308684E+01 0.53473294692E+01 0.58250500459E+01 0.57953320592E+01
 0.51435936101E+01 0.40987791764E+01 0.31444466793E+01 0.27598730379E+01 0.31441298294E+01
 0.55045826015E+01 0.58619146502E+01 0.58023262060E+01 0.53473947141E+01 0.47287220518E+01
 0.41641628277E+01 0.37486551691E+01 0.35316159600E+01 0.35317116167E+01 0.37487898248E+01
 0.41641195240E+01 0.47285491107E+01 0.53473264478E+01 0.58024518536E+01 0.58620994883E+01
 0.55046838238E+01 0.49538934888E+01 0.45528834985E+01 0.45528930114E+01 0.49538833419E+01
 0.58839726929E+01 0.57082575573E+01 0.52665060482E+01 0.47024894659E+01 0.41641628277E+01
 0.37339976781E+01 0.34619368494E+01 0.33695530300E+01 0.34619481540E+01 0.37339855185E+01
 0.41641481656E+01 0.47025487913E+01 0.52666447574E+01 0.57083577210E+01 0.58839089561E+01
 0.58054847650E+01 0.56299649429E+01 0.55442049284E+01 0.56301414061E+01 0.58056871612E+01
 0.54905366107E+01 0.50971881692E+01 0.46238784650E+01 0.41518458177E+01 0.37486551691E+01
 0.34619368494E+01 0.33149970411E+01 0.33149805547E+01 0.34619179304E+01 0.37486664219E+01
 0.41518517707E+01 0.46238292336E+01 0.50971083737E+01 0.54905127801E+01 0.57234984283E+01
 0.58033769840E+01 0.58079085752E+01 0.58078595074E+01 0.58032722683E+01 0.57234283144E+01
 0.48422267403E+01 0.44931098106E+01 0.41262894922E+01 0.37919568936E+01 0.35316159600E+01
 0.33695530300E+01 0.33149805547E+01 0.33696131783E+01 0.35316603515E+01 0.37918835011E+01
 0.41260805810E+01 0.44929023519E+01 0.48422013926E+01 0.51304825767E+01 0.53284417908E+01
 0.54312226854E+01 0.54609321106E+01 0.54310320237E+01 0.53281600839E+01 0.51302875327E+01
 0.43158363308E+01 0.40853901458E+01 0.38595127439E+01 0.36678219778E+01 0.35317116167E+01
 0.34619481540E+01 0.34619179304E+01 0.35316603515E+01 0.36678092799E+01 0.38595381443E+01
 0.40854067705E+01 0.43158275308E+01 0.45210874866E+01 0.46801014615E+01 0.47843255621E+01
 0.48347451506E+01 0.48347264075E+01 0.47842857442E+01 0.46800749519E+01 0.45210904199E+01
 0.40296733885E+01 0.39427237949E+01 0.38594080612E+01 0.37919497374E+01 0.37487898248E+01
 0.37339855185E+01 0.37486664219E+01 0.37918835011E+01 0.38595381443E+01 0.39429725781E+01
 0.40298263394E+01 0.41076652489E+01 0.41680809552E+01 0.42084554174E+01 0.42305763987E+01
 0.42374906596E+01 0.42306250882E+01 0.42085910529E+01 0.41682540975E+01 0.41077212108E+01
 0.40298397460E+01 0.40854501856E+01 0.41260884150E+01 0.41518102532E+01 0.41641195240E+01
 0.41641481656E+01 0.41518517707E+01 0.41260805810E+01 0.40854067705E+01 0.40298263394E+01
 0.39627847666E+01 0.38919692773E+01 0.38276695958E+01 0.37795275445E+01 0.37540193020E+01
 0.37540356798E+01 0.37795557468E+01 0.38276691678E+01 0.38919298356E+01 0.39627482789E+01
 0.43160869843E+01 0.44930899187E+01 0.46238015233E+01 0.47024308684E+01 0.47285491107E+01
 0.47025487913E+01 0.46238292336E+01 0.44929023519E+01 0.43158275308E+01 0.41076652489E+01
 0.38919692773E+01 0.36956798779E+01 0.35420118277E+01 0.34456916258E+01 0.34131219343E+01
 0.34457216668E+01 0.35419527910E+01 0.36955015469E+01 0.38918345404E+01 0.41077528568E+01
 0.48421997421E+01 0.50971028869E+01 0.52666458531E+01 0.53473294692E+01 0.53473264478E+01
 0.52666447574E+01 0.50971083737E+01 0.48422013926E+01 0.45210874866E+01 0.41680809552E+01
 0.38276695958E+01 0.35420118277E+01 0.33405460296E+01 0.32376559044E+01 0.32376702512E+01
 0.33405710833E+01 0.35420231776E+01 0.38276721705E+01 0.41680911280E+01 0.45210976381E+01
 0.54903226655E+01 0.57083491533E+01 0.58025397600E+01 0.58250500459E+01 0.58024518536E+01
 0.57083577210E+01 0.54905127801E+01 0.51304825767E+01 0.46801014615E+01 0.42084554174E+01
 0.37795275445E+01 0.34456916258E+01 0.32376559044E+01 0.31674559511E+01 0.32376044056E+01
 0.34457113691E+01 0.37796783285E+01 0.42086098270E+01 0.46800720923E+01 0.51302702730E+01
 0.58839986628E+01 0.58622845562E+01 0.57954278274E+01 0.57953320592E+01 0.58620994883E+01
 0.58839089561E+01 0.57234984283E+01 0.53284417908E+01 0.47843255621E+01 0.42305763987E+01
 0.37540193020E+01 0.34131219343E+01 0.32376702512E+01 0.32376044056E+01 0.34130090181E+01
 0.37539944623E+01 0.42306338538E+01 0.47843416427E+01 0.53283671385E+01 0.57234433266E+01
 0.55049426610E+01 0.51437382318E+01 0.49857654666E+01 0.51435936101E+01 0.55046838238E+01
 0.58054847650E+01 0.58033769840E+01 0.54312226854E+01 0.48347451506E+01 0.42374906596E+01
 0.37540356798E+01 0.34457216668E+01 0.33405710833E+01 0.34457113691E+01 0.37539944623E+01
 0.42373804833E+01 0.48345819423E+01 0.54311249882E+01 0.58034670516E+01 0.58057364718E+01
 0.40986477039E+01 0.35118221049E+01 0.35119106831E+01 0.40987791764E+01 0.49538934888E+01
 0.56299649429E+01 0.58079085752E+01 0.54609321106E+01 0.48347264075E+01 0.42306250882E+01
 0.37795557468E+01 0.35419527910E+01 0.35420231776E+01 0.37796783285E+01 0.42306338538E+01
 0.48345819423E+01 0.54607912439E+01 0.58079335615E+01 0.56300916767E+01 0.49539125108E+01
 0.19102593649E+01 0.14210218781E+01 0.19104901512E+01 0.31444466793E+01 0.45528834985E+01
 0.55442049284E+01 0.58078595074E+01 0.54310320237E+01 0.47842857442E+01 0.42085910529E+01
 0.38276691678E+01 0.36955015469E+01 0.38276721705E+01 0.42086098270E+01 0.47843416427E+01
 0.54311249882E+01 0.58079335615E+01 0.55441612389E+01 0.45526697551E+01 0.31441365398E+01
 -.33867044778E+00 -.33874968574E+00 0.87102399947E+00 0.27598730379E+01 0.45528930114E+01
 0.56301414061E+01 0.58032722683E+01 0.53281600839E+01 0.46800749519E+01 0.41682540975E+01
 0.38919298356E+01 0.38918345404E+01 0.41680911280E+01 0.46800720923E+01 0.53283671385E+01
 0.58034670516E+01 0.56300916767E+01 0.45526697551E+01 0.27597576629E+01 0.87110884618E+00
 -.17636775375E+01 -.10256314195E+01 0.87107634255E+00 0.31441298294E+01 0.49538833419E+01
 0.58056871612E+01 0.57234283144E+01 0.51302875327E+01 0.45210904199E+01 0.41077212108E+01
 0.39627482789E+01 0.41077528568E+01 0.45210976381E+01 0.51302702730E+01 0.57234433266E+01
 0.58057364718E+01 0.49539125108E+01 0.31441365398E+01 0.87110884618E+00 -.10255834886E+01
 0.29461074074E+00 0.19106216594E+01 0.38139173591E+01 0.52685335196E+01 0.58594564457E+01
 0.56407287729E+01 0.50162969103E+01 0.44190466020E+01 0.40180684674E+01 0.38780484880E+01
 0.40180871059E+01 0.44190347379E+01 0.50162504502E+01 0.56407116946E+01 0.58595050342E+01
 0.52685897518E+01 0.38138968173E+01 0.19105225837E+01 0.29451871159E+00 -.33869008292E+00
 0.19106216594E+01 0.35121179114E+01 0.49859183035E+01 0.57953812743E+01 0.58023322965E+01
 0.52665077939E+01 0.46238966499E+01 0.41263138584E+01 0.38595211880E+01 0.38594106524E+01
 0.41261069330E+01 0.46238251249E+01 0.52666518615E+01 0.58025382021E+01 0.57954401634E+01
 0.49857790317E+01 0.35118994045E+01 0.19104612896E+01 0.87100059406E+00 0.87105391505E+00
 0.38139173591E+01 0.49859183035E+01 0.57529962198E+01 0.58592849417E+01 0.54127039340E+01
 0.47661087397E+01 0.42072864164E+01 0.38405950679E+01 0.37138533668E+01 0.38405498352E+01
 0.42072306465E+01 0.47660932009E+01 0.54127375889E+01 0.58593077487E+01 0.57529668505E+01
 0.49858887820E+01 0.38139537114E+01 0.27598107641E+01 0.23374542435E+01 0.27597445768E+01
 0.52685335196E+01 0.57953812743E+01 0.58592849417E+01 0.54594947571E+01 0.48384901544E+01
 0.42569716345E+01 0.38257129445E+01 0.35994862128E+01 0.35995655202E+01 0.38258491683E+01
 0.42570000779E+01 0.48383803741E+01 0.54593427503E+01 0.58591917012E+01 0.57954226076E+01
 0.52687425712E+01 0.45529697988E+01 0.40497312573E+01 0.40495996312E+01 0.45526929953E+01
 0.58594564457E+01 0.58023322965E+01 0.54127039340E+01 0.48384901544E+01 0.42737487433E+01
 0.38179269181E+01 0.35279731030E+01 0.34292537240E+01 0.35280205130E+01 0.38179545675E+01
 0.42737337373E+01 0.48384771183E+01 0.54127181203E+01 0.58023491077E+01 0.58594669528E+01
 0.56301092656E+01 0.53278724937E+01 0.51925860912E+01 0.53278380446E+01 0.56300814240E+01
 0.56407287729E+01 0.52665077939E+01 0.47661087397E+01 0.42569716345E+01 0.38179269181E+01
 0.35039123545E+01 0.33424423049E+01 0.33424033135E+01 0.35038321877E+01 0.38178861302E+01
 0.42570337544E+01 0.47662581342E+01 0.52666391534E+01 0.56407166758E+01 0.58032399817E+01
 0.57951011172E+01 0.57396444940E+01 0.57397586972E+01 0.57953508085E+01 0.58034312644E+01
 0.50162969103E+01 0.46238966499E+01 0.42072864164E+01 0.38257129445E+01 0.35279731030E+01
 0.33424423049E+01 0.32799039610E+01 0.33424397599E+01 0.35279826026E+01 0.38257165237E+01
 0.42072502509E+01 0.46238371162E+01 0.50162563356E+01 0.53283517920E+01 0.55163636148E+01
 0.55954844095E+01 0.56136715792E+01 0.55955271417E+01 0.55164007874E+01 0.53283737196E+01
 0.44190466020E+01 0.41263138584E+01 0.38405950679E+01 0.35994862128E+01 0.34292537240E+01
 0.33424033135E+01 0.33424397599E+01 0.34293367142E+01 0.35995308969E+01 0.38405036520E+01
 0.41260917976E+01 0.44188456095E+01 0.46800869185E+01 0.48818907254E+01 0.50129015659E+01
 0.50743549601E+01 0.50742698322E+01 0.50127048350E+01 0.48817332014E+01 0.46801094856E+01
 0.40180684674E+01 0.38595211880E+01 0.37138533668E+01 0.35995655202E+01 0.35280205130E+01
 0.35038321877E+01 0.35279826026E+01 0.35995308969E+01 0.37138488213E+01 0.38595309195E+01
 0.40180651019E+01 0.41680749917E+01 0.42918633034E+01 0.43799678469E+01 0.44310008414E+01
 0.44474850980E+01 0.44309757055E+01 0.43799436440E+01 0.42918621928E+01 0.41680886233E+01
 0.38780484880E+01 0.38594106524E+01 0.38405498352E+01 0.38258491683E+01 0.38179545675E+01
 0.38178861302E+01 0.38257165237E+01 0.38405036520E+01 0.38595309195E+01 0.38782564662E+01
 0.38919333294E+01 0.38980166727E+01 0.38974096342E+01 0.38935914445E+01 0.38904834958E+01
 0.38905301052E+01 0.38937169871E+01 0.38975458853E+01 0.38980489116E+01 0.38918025152E+01
 0.40180871059E+01 0.41261069330E+01 0.42072306465E+01 0.42570000779E+01 0.42737337373E+01
 0.42570337544E+01 0.42072502509E+01 0.41260917976E+01 0.40180651019E+01 0.38919333294E+01
 0.37609035772E+01 0.36405682084E+01 0.35452134260E+01 0.34847496448E+01 0.34641401259E+01
 0.34847494990E+01 0.35452198372E+01 0.36405758130E+01 0.37609041351E+01 0.38919388864E+01
 0.44190347379E+01 0.46238251249E+01 0.47660932009E+01 0.48383803741E+01 0.48384771183E+01
 0.47662581342E+01 0.46238371162E+01 0.44188456095E+01 0.41680749917E+01 0.38980166727E+01
 0.36405682084E+01 0.34254804220E+01 0.32738158189E+01 0.31962623136E+01 0.31962603179E+01
 0.32737771611E+01 0.34253811689E+01 0.36404890678E+01 0.38980861218E+01 0.41682939212E+01
 0.50162504502E+01 0.52666518615E+01 0.54127375889E+01 0.54593427503E+01 0.54127181203E+01
 0.52666391534E+01 0.50162563356E+01 0.46800869185E+01 0.42918633034E+01 0.38974096342E+01
 0.35452134260E+01 0.32738158189E+01 0.31055016098E+01 0.30488450459E+01 0.31055251122E+01
 0.32738376748E+01 0.35452192315E+01 0.38974075253E+01 0.42918575719E+01 0.46800748829E+01
 0.56407116946E+01 0.58025382021E+01 0.58593077487E+01 0.58591917012E+01 0.58023491077E+01
 0.56407166758E+01 0.53283517920E+01 0.48818907254E+01 0.43799678469E+01 0.38935914445E+01
 0.34847496448E+01 0.31962623136E+01 0.30488450459E+01 0.30488088924E+01 0.31962305562E+01
 0.34848278802E+01 0.38937249120E+01 0.43799666834E+01 0.48816867119E+01 0.53281305421E+01
 0.58595050342E+01 0.57954401634E+01 0.57529668505E+01 0.57954226076E+01 0.58594669528E+01
 0.58032399817E+01 0.55163636148E+01 0.50129015659E+01 0.44310008414E+01 0.38904834958E+01
 0.34641401259E+01 0.31962603179E+01 0.31055251122E+01 0.31962305562E+01 0.34641048444E+01
 0.38904602793E+01 0.44309892724E+01 0.50129065522E+01 0.55163914536E+01 0.58032846983E+01
 0.52685897518E+01 0.49857790317E+01 0.49858887820E+01 0.52687425712E+01 0.56301092656E+01
 0.57951011172E+01 0.55954844095E+01 0.50743549601E+01 0.44474850980E+01 0.38905301052E+01
 0.34847494990E+01 0.32737771611E+01 0.32738376748E+01 0.34848278802E+01 0.38904602793E+01
 0.44472932029E+01 0.50742752154E+01 0.55956661581E+01 0.57953788710E+01 0.56301866588E+01
 0.38138968173E+01 0.35118994045E+01 0.38139537114E+01 0.45529697988E+01 0.53278724937E+01
 0.57396444940E+01 0.56136715792E+01 0.50742698322E+01 0.44309757055E+01 0.38937169871E+01
 0.35452198372E+01 0.34253811689E+01 0.35452192315E+01 0.38937249120E+01 0.44309892724E+01
 0.50742752154E+01 0.56136625060E+01 0.57396215458E+01 0.53278252752E+01 0.45529001280E+01
 0.19105225837E+01 0.19104612896E+01 0.27598107641E+01 0.40497312573E+01 0.51925860912E+01
 0.57397586972E+01 0.55955271417E+01 0.50127048350E+01 0.43799436440E+01 0.38975458853E+01
 0.36405758130E+01 0.36404890678E+01 0.38974075253E+01 0.43799666834E+01 0.50129065522E+01
 0.55956661581E+01 0.57396215458E+01 0.51922763228E+01 0.40495475826E+01 0.27598490471E+01
 0.29451871159E+00 0.87100059406E+00 0.23374542435E+01 0.40495996312E+01 0.53278380446E+01
 0.57953508085E+01 0.55164007874E+01 0.48817332014E+01 0.42918621928E+01 0.38980489116E+01
 0.37609041351E+01 0.38980861218E+01 0.42918575719E+01 0.48816867119E+01 0.55163914536E+01
 0.57953788710E+01 0.53278252752E+01 0.40495475826E+01 0.23374440636E+01 0.87103436857E+00
 -.33869008292E+00 0.87105391505E+00 0.27597445768E+01 0.45526929953E+01 0.56300814240E+01
 0.58034312644E+01 0.53283737196E+01 0.46801094856E+01 0.41680886233E+01 0.38918025152E+01
 0.38919388864E+01 0.41682939212E+01 0.46800748829E+01 0.53281305421E+01 0.58032846983E+01
 0.56301866588E+01 0.45529001280E+01 0.27598490471E+01 0.87103436857E+00 -.33871911969E+00
 0.27790343931E+01 0.40984117360E+01 0.52685366396E+01 0.58336250585E+01 0.56979599054E+01
 0.51181867318E+01 0.44864011020E+01 0.40044044023E+01 0.37475783430E+01 0.37474606196E+01
 0.40042111722E+01 0.44863721122E+01 0.51182832798E+01 0.56979267658E+01 0.58334076647E+01
 0.52684412563E+01 0.40987255480E+01 0.27795876231E+01 0.19105411853E+01 0.19102629275E+01
 0.40984117360E+01 0.51434414963E+01 0.57953941450E+01 0.58251651541E+01 0.53474075280E+01
 0.47024922678E+01 0.41518721144E+01 0.37919872763E+01 0.36678240788E+01 0.37919439190E+01
 0.41518287806E+01 0.47024526915E+01 0.53473216815E+01 0.58250329676E+01 0.57953368378E+01
 0.51435963673E+01 0.40987442821E+01 0.31443957621E+01 0.27598456515E+01 0.31441159272E+01
 0.52685366396E+01 0.57953941450E+01 0.58593132400E+01 0.54595218107E+01 0.48385007011E+01
 0.42569768281E+01 0.38257270628E+01 0.35994995820E+01 0.35995654106E+01 0.38258457486E+01
 0.42570057360E+01 0.48383844172E+01 0.54593323359E+01 0.58591767944E+01 0.57954146124E+01
 0.52687297183E+01 0.45529401765E+01 0.40496997567E+01 0.40495860313E+01 0.45526931452E+01
 0.58336250585E+01 0.58251651541E+01 0.54595218107E+01 0.48846828118E+01 0.43113536739E+01
 0.38469862774E+01 0.35509879031E+01 0.34500780247E+01 0.35510084156E+01 0.38470772693E+01
 0.43114889399E+01 0.48847020114E+01 0.54593007257E+01 0.58248441392E+01 0.58335376281E+01
 0.55444826675E+01 0.51926772920E+01 0.50379858449E+01 0.51923392408E+01 0.55442065418E+01
 0.56979599054E+01 0.53474075280E+01 0.48385007011E+01 0.43113536739E+01 0.38542038140E+01
 0.35262051697E+01 0.33572440514E+01 0.33572058637E+01 0.35261696645E+01 0.38542846524E+01
 0.43115116670E+01 0.48385564870E+01 0.53472714504E+01 0.56977647319E+01 0.58078711822E+01
 0.57397262345E+01 0.56444162564E+01 0.56443482461E+01 0.57396332875E+01 0.58079293927E+01
 0.51181867318E+01 0.47024922678E+01 0.42569768281E+01 0.38469862774E+01 0.35262051697E+01
 0.33259778992E+01 0.32584160807E+01 0.33259439305E+01 0.35261709456E+01 0.38469922485E+01
 0.42570516013E+01 0.47026258027E+01 0.51182846195E+01 0.54310235732E+01 0.55953898602E+01
 0.56461476001E+01 0.56520294672E+01 0.56463837485E+01 0.55956382368E+01 0.54310918559E+01
 0.44864011020E+01 0.41518721144E+01 0.38257270628E+01 0.35509879031E+01 0.33572440514E+01
 0.32584160807E+01 0.32584064683E+01 0.33572366251E+01 0.35510026385E+01 0.38257408854E+01
 0.41518641586E+01 0.44863865266E+01 0.47843233508E+01 0.50128328071E+01 0.51548909964E+01
 0.52172749231E+01 0.52173364249E+01 0.51550122529E+01 0.50129147466E+01 0.47843508820E+01
 0.40044044023E+01 0.37919872763E+01 0.35994995820E+01 0.34500780247E+01 0.33572058637E+01
 0.33259439305E+01 0.33572366251E+01 0.34501423620E+01 0.35995425376E+01 0.37919217021E+01
 0.40042291743E+01 0.42084809641E+01 0.43799816924E+01 0.45039972232E+01 0.45766941184E+01
 0.46002971908E+01 0.45765808314E+01 0.45038870944E+01 0.43800027664E+01 0.42086418256E+01
 0.37475783430E+01 0.36678240788E+01 0.35995654106E+01 0.35510084156E+01 0.35261696645E+01
 0.35261709456E+01 0.35510026385E+01 0.35995425376E+01 0.36677978147E+01 0.37475724958E+01
 0.38276743167E+01 0.38974223435E+01 0.39500484208E+01 0.39836888279E+01 0.39996718081E+01
 0.39996692826E+01 0.39836809875E+01 0.39500327848E+01 0.38973990716E+01 0.38276567639E+01
 0.37474606196E+01 0.37919439190E+01 0.38258457486E+01 0.38470772693E+01 0.38542846524E+01
 0.38469922485E+01 0.38257408854E+01 0.37919217021E+01 0.37475724958E+01 0.36956347670E+01
 0.36405517770E+01 0.35883422434E+01 0.35455545708E+01 0.35176659503E+01 0.35080364417E+01
 0.35177408646E+01 0.35456513249E+01 0.35883664401E+01 0.36404462587E+01 0.36954593704E+01
 0.40042111722E+01 0.41518287806E+01 0.42570057360E+01 0.43114889399E+01 0.43115116670E+01
 0.42570516013E+01 0.41518641586E+01 0.40042291743E+01 0.38276743167E+01 0.36405517770E+01
 0.34636170790E+01 0.33160123399E+01 0.32116337242E+01 0.31580376125E+01 0.31580264507E+01
 0.32116232468E+01 0.33160318759E+01 0.34636533785E+01 0.36405718347E+01 0.38276711642E+01
 0.44863721122E+01 0.47024526915E+01 0.48383844172E+01 0.48847020114E+01 0.48385564870E+01
 0.47026258027E+01 0.44863865266E+01 0.42084809641E+01 0.38974223435E+01 0.35883422434E+01
 0.33160123399E+01 0.31074434283E+01 0.29783122208E+01 0.29348308222E+01 0.29782887447E+01
 0.31073963348E+01 0.33159814923E+01 0.35883960844E+01 0.38975709234E+01 0.42086172247E+01
 0.51182832798E+01 0.53473216815E+01 0.54593323359E+01 0.54593007257E+01 0.53472714504E+01
 0.51182846195E+01 0.47843233508E+01 0.43799816924E+01 0.39500484208E+01 0.35455545708E+01
 0.32116337242E+01 0.29783122208E+01 0.28596406281E+01 0.28596442499E+01 0.29783219182E+01
 0.32116474404E+01 0.35455631115E+01 0.39500301144E+01 0.43799248855E+01 0.47842657898E+01
 0.56979267658E+01 0.58250329676E+01 0.58591767944E+01 0.58248441392E+01 0.56977647319E+01
 0.54310235732E+01 0.50128328071E+01 0.45039972232E+01 0.39836888279E+01 0.35176659503E+01
 0.31580376125E+01 0.29348308222E+01 0.28596442499E+01 0.29348313762E+01 0.31580719879E+01
 0.35177197602E+01 0.39836728518E+01 0.45038520169E+01 0.50126522575E+01 0.54309867207E+01
 0.58334076647E+01 0.57953368378E+01 0.57954146124E+01 0.58335376281E+01 0.58078711822E+01
 0.55953898602E+01 0.51548909964E+01 0.45766941184E+01 0.39996718081E+01 0.35080364417E+01
 0.31580264507E+01 0.29782887447E+01 0.29783219182E+01 0.31580719879E+01 0.35080143633E+01
 0.39996018502E+01 0.45766912377E+01 0.51550057469E+01 0.55955132225E+01 0.58078602405E+01
 0.52684412563E+01 0.51435963673E+01 0.52687297183E+01 0.55444826675E+01 0.57397262345E+01
 0.56461476001E+01 0.52172749231E+01 0.46002971908E+01 0.39996692826E+01 0.35177408646E+01
 0.32116232468E+01 0.31073963348E+01 0.32116474404E+01 0.35177197602E+01 0.39996018502E+01
 0.46003117474E+01 0.52174712853E+01 0.56464033710E+01 0.57397731140E+01 0.55442325016E+01
 0.40987255480E+01 0.40987442821E+01 0.45529401765E+01 0.51926772920E+01 0.56444162564E+01
 0.56520294672E+01 0.52173364249E+01 0.45765808314E+01 0.39836809875E+01 0.35456513249E+01
 0.33160318759E+01 0.33159814923E+01 0.35455631115E+01 0.39836728518E+01 0.45766912377E+01
 0.52174712853E+01 0.56520639516E+01 0.56443297068E+01 0.51925576640E+01 0.45528687000E+01
 0.27795876231E+01 0.31443957621E+01 0.40496997567E+01 0.50379858449E+01 0.56443482461E+01
 0.56463837485E+01 0.51550122529E+01 0.45038870944E+01 0.39500327848E+01 0.35883664401E+01
 0.34636533785E+01 0.35883960844E+01 0.39500301144E+01 0.45038520169E+01 0.51550057469E+01
 0.56464033710E+01 0.56443297068E+01 0.50379302330E+01 0.40496752366E+01 0.31444112450E+01
 0.19105411853E+01 0.27598456515E+01 0.40495860313E+01 0.51923392408E+01 0.57396332875E+01
 0.55956382368E+01 0.50129147466E+01 0.43800027664E+01 0.38973990716E+01 0.36404462587E+01
 0.36405718347E+01 0.38975709234E+01 0.43799248855E+01 0.50126522575E+01 0.55955132225E+01
 0.57397731140E+01 0.51925576640E+01 0.40496752366E+01 0.27598073145E+01 0.19105055578E+01
 0.19102629275E+01 0.31441159272E+01 0.45526931452E+01 0.55442065418E+01 0.58079293927E+01
 0.54310918559E+01 0.47843508820E+01 0.42086418256E+01 0.38276567639E+01 0.36954593704E+01
 0.38276711642E+01 0.42086172247E+01 0.47842657898E+01 0.54309867207E+01 0.58078602405E+01
 0.55442325016E+01 0.45528687000E+01 0.31444112450E+01 0.19105055578E+01 0.14210674903E+01
 0.47911007432E+01 0.55045817184E+01 0.58594800087E+01 0.56979823603E+01 0.51510854632E+01
 0.45190259029E+01 0.39935444251E+01 0.36536056793E+01 0.35368676104E+01 0.36535616984E+01
 0.39935328162E+01 0.45190679058E+01 0.51511163531E+01 0.56979698728E+01 0.58594774255E+01
 0.55046398245E+01 0.47911923639E+01 0.40987290734E+01 0.38139209287E+01 0.40986665203E+01
 0.55045817184E+01 0.58619166127E+01 0.58023577162E+01 0.53474242574E+01 0.47287155514E+01
 0.41641488182E+01 0.37486688654E+01 0.35316317022E+01 0.35316965286E+01 0.37487705792E+01
 0.41641291851E+01 0.47285611393E+01 0.53473080926E+01 0.58024297282E+01 0.58621056176E+01
 0.55046901740E+01 0.49538672112E+01 0.45528543537E+01 0.45528991188E+01 0.49539022403E+01
 0.58594800087E+01 0.58023577162E+01 0.54127386890E+01 0.48385139352E+01 0.42737470889E+01
 0.38179205987E+01 0.35279811385E+01 0.34292598158E+01 0.35280078710E+01 0.38179397833E+01
 0.42737332897E+01 0.48384743373E+01 0.54126965343E+01 0.58023249014E+01 0.58594556548E+01
 0.56300947073E+01 0.53278425110E+01 0.51925650199E+01 0.53278493018E+01 0.56301098522E+01
 0.56979823603E+01 0.53474242574E+01 0.48385139352E+01 0.43113583857E+01 0.38541982747E+01
 0.35261986588E+01 0.33572427844E+01 0.33572030927E+01 0.35261597030E+01 0.38542739188E+01
 0.43115056417E+01 0.48385488680E+01 0.53472568871E+01 0.56977495401E+01 0.58078612176E+01
 0.57397174345E+01 0.56444076945E+01 0.56443507836E+01 0.57396534815E+01 0.58079570400E+01
 0.51510854632E+01 0.47287155514E+01 0.42737470889E+01 0.38541982747E+01 0.35256286830E+01
 0.33204744164E+01 0.32512584525E+01 0.33204831198E+01 0.35256637469E+01 0.38542512742E+01
 0.42737850581E+01 0.47287257550E+01 0.51510771395E+01 0.54607385448E+01 0.56135952958E+01
 0.56520048242E+01 0.56525767261E+01 0.56520558690E+01 0.56136486306E+01 0.54607652569E+01
 0.45190259029E+01 0.41641488182E+01 0.38179205987E+01 0.35261986588E+01 0.33204744164E+01
 0.32155545504E+01 0.32155646128E+01 0.33204818821E+01 0.35261675185E+01 0.38178736747E+01
 0.41641845911E+01 0.45191962986E+01 0.48347169508E+01 0.50742391739E+01 0.52172787766E+01
 0.52772591514E+01 0.52773617007E+01 0.52174426508E+01 0.50742367549E+01 0.48345369645E+01
 0.39935444251E+01 0.37486688654E+01 0.35279811385E+01 0.33572427844E+01 0.32512584525E+01
 0.32155646128E+01 0.32512207025E+01 0.33572230912E+01 0.35280016421E+01 0.37486966135E+01
 0.39935591453E+01 0.42306490905E+01 0.44310053419E+01 0.45766822583E+01 0.46624402894E+01
 0.46904103147E+01 0.46624613929E+01 0.45766884453E+01 0.44309874257E+01 0.42306320409E+01
 0.36536056793E+01 0.35316317022E+01 0.34292598158E+01 0.33572030927E+01 0.33204831198E+01
 0.33204818821E+01 0.33572230912E+01 0.34293191633E+01 0.35316765646E+01 0.36535571470E+01
 0.37795614864E+01 0.38936440865E+01 0.39837188594E+01 0.40439362410E+01 0.40735109397E+01
 0.40734479305E+01 0.40438219972E+01 0.39836911703E+01 0.38937447178E+01 0.37796938554E+01
 0.35368676104E+01 0.35316965286E+01 0.35280078710E+01 0.35261597030E+01 0.35256637469E+01
 0.35261675185E+01 0.35280016421E+01 0.35316765646E+01 0.35368590216E+01 0.35420067296E+01
 0.35452175171E+01 0.35455734996E+01 0.35437606170E+01 0.35415232429E+01 0.35405397353E+01
 0.35414969895E+01 0.35437346381E+01 0.35455584636E+01 0.35452025172E+01 0.35419956768E+01
 0.36535616984E+01 0.37487705792E+01 0.38179397833E+01 0.38542739188E+01 0.38542512742E+01
 0.38178736747E+01 0.37486966135E+01 0.36535571470E+01 0.35420067296E+01 0.34254733661E+01
 0.33160195188E+01 0.32246529404E+01 0.31597138514E+01 0.31261989713E+01 0.31262266451E+01
 0.31597748340E+01 0.32246834561E+01 0.33159590886E+01 0.34253433914E+01 0.35419084418E+01
 0.39935328162E+01 0.41641291851E+01 0.42737332897E+01 0.43115056417E+01 0.42737850581E+01
 0.41641845911E+01 0.39935591453E+01 0.37795614864E+01 0.35452175171E+01 0.33160195188E+01
 0.31157856139E+01 0.29627464455E+01 0.28678207538E+01 0.28357913171E+01 0.28678343635E+01
 0.29627749195E+01 0.31158161950E+01 0.33160353223E+01 0.35452188411E+01 0.37795551663E+01
 0.45190679058E+01 0.47285611393E+01 0.48384743373E+01 0.48385488680E+01 0.47287257550E+01
 0.45191962986E+01 0.42306490905E+01 0.38936440865E+01 0.35455734996E+01 0.32246529404E+01
 0.29627464455E+01 0.27806047805E+01 0.26880461775E+01 0.26880370637E+01 0.27805832582E+01
 0.29627388602E+01 0.32246979649E+01 0.35456749334E+01 0.38937371994E+01 0.42306426630E+01
 0.51511163531E+01 0.53473080926E+01 0.54126965343E+01 0.53472568871E+01 0.51510771395E+01
 0.48347169508E+01 0.44310053419E+01 0.39837188594E+01 0.35437606170E+01 0.31597138514E+01
 0.28678207538E+01 0.26880461775E+01 0.26276811322E+01 0.26880580226E+01 0.28678272439E+01
 0.31597058050E+01 0.35437389612E+01 0.39836809414E+01 0.44309592889E+01 0.48347021739E+01
 0.56979698728E+01 0.58024297282E+01 0.58023249014E+01 0.56977495401E+01 0.54607385448E+01
 0.50742391739E+01 0.45766822583E+01 0.40439362410E+01 0.35415232429E+01 0.31261989713E+01
 0.28357913171E+01 0.26880370637E+01 0.26880580226E+01 0.28358350923E+01 0.31262177750E+01
 0.35414737899E+01 0.40438165041E+01 0.45765624437E+01 0.50742319120E+01 0.54608923070E+01
 0.58594774255E+01 0.58621056176E+01 0.58594556548E+01 0.58078612176E+01 0.56135952958E+01
 0.52172787766E+01 0.46624402894E+01 0.40735109397E+01 0.35405397353E+01 0.31262266451E+01
 0.28678343635E+01 0.27805832582E+01 0.28678272439E+01 0.31262177750E+01 0.35405338355E+01
 0.40735152275E+01 0.46624713927E+01 0.52173423300E+01 0.56136690665E+01 0.58079143294E+01
 0.55046398245E+01 0.55046901740E+01 0.56300947073E+01 0.57397174345E+01 0.56520048242E+01
 0.52772591514E+01 0.46904103147E+01 0.40734479305E+01 0.35414969895E+01 0.31597748340E+01
 0.29627749195E+01 0.29627388602E+01 0.31597058050E+01 0.35414737899E+01 0.40735152275E+01
 0.46905447657E+01 0.52773873037E+01 0.56520522487E+01 0.57396620768E+01 0.56299928037E+01
 0.47911923639E+01 0.49538672112E+01 0.53278425110E+01 0.56444076945E+01 0.56525767261E+01
 0.52773617007E+01 0.46624613929E+01 0.40438219972E+01 0.35437346381E+01 0.32246834561E+01
 0.31158161950E+01 0.32246979649E+01 0.35437389612E+01 0.40438165041E+01 0.46624713927E+01
 0.52773873037E+01 0.56525922849E+01 0.56444111963E+01 0.53278558289E+01 0.49538872790E+01
 0.40987290734E+01 0.45528543537E+01 0.51925650199E+01 0.56443507836E+01 0.56520558690E+01
 0.52174426508E+01 0.45766884453E+01 0.39836911703E+01 0.35455584636E+01 0.33159590886E+01
 0.33160353223E+01 0.35456749334E+01 0.39836809414E+01 0.45765624437E+01 0.52173423300E+01
 0.56520522487E+01 0.56444111963E+01 0.51926514162E+01 0.45529405726E+01 0.40987681449E+01
 0.38139209287E+01 0.45528991188E+01 0.53278493018E+01 0.57396534815E+01 0.56136486306E+01
 0.50742367549E+01 0.44309874257E+01 0.38937447178E+01 0.35452025172E+01 0.34253433914E+01
 0.35452188411E+01 0.38937371994E+01 0.44309592889E+01 0.50742319120E+01 0.56136690665E+01
 0.57396620768E+01 0.53278558289E+01 0.45529405726E+01 0.38139746000E+01 0.35119542615E+01
 0.40986665203E+01 0.49539022403E+01 0.56301098522E+01 0.58079570400E+01 0.54607652569E+01
 0.48345369645E+01 0.42306320409E+01 0.37796938554E+01 0.35419956768E+01 0.35419084418E+01
 0.37795551663E+01 0.42306426630E+01 0.48347021739E+01 0.54608923070E+01 0.58079143294E+01
 0.56299928037E+01 0.49538872790E+01 0.40987681449E+01 0.35119542615E+01 0.35118880967E+01
 0.57918219182E+01 0.58839543639E+01 0.56407367269E+01 0.51182007882E+01 0.45190252405E+01
 0.39895129018E+01 0.36049369789E+01 0.34054243333E+01 0.34054472900E+01 0.36050037435E+01
 0.39896008855E+01 0.45191062873E+01 0.51182936023E+01 0.56408594474E+01 0.58840038409E+01
 0.57916546403E+01 0.55046201921E+01 0.52684198298E+01 0.52685832427E+01 0.55049335827E+01
 0.58839543639E+01 0.57082350213E+01 0.52665091657E+01 0.47024923401E+01 0.41641390184E+01
 0.37339757824E+01 0.34619448173E+01 0.33695627256E+01 0.34619315439E+01 0.37339706068E+01
 0.41641630588E+01 0.47025657681E+01 0.52666360809E+01 0.57083514111E+01 0.58839327655E+01
 0.58055100965E+01 0.56299625342E+01 0.55442007919E+01 0.56301614518E+01 0.58057020730E+01
 0.56407367269E+01 0.52665091657E+01 0.47661175248E+01 0.42569724324E+01 0.38179087928E+01
 0.35038963714E+01 0.33424442258E+01 0.33424043402E+01 0.35038167414E+01 0.38178725478E+01
 0.42570375011E+01 0.47662611441E+01 0.52666261165E+01 0.56407053979E+01 0.58032455258E+01
 0.57951065183E+01 0.57396374732E+01 0.57397603596E+01 0.57953764873E+01 0.58034588379E+01
 0.51182007882E+01 0.47024923401E+01 0.42569724324E+01 0.38469759158E+01 0.35261878060E+01
 0.33259634319E+01 0.32584101752E+01 0.33259374132E+01 0.35261570955E+01 0.38469794176E+01
 0.42570465398E+01 0.47026205637E+01 0.51182727246E+01 0.54310134003E+01 0.55953896314E+01
 0.56461530725E+01 0.56520384112E+01 0.56464052410E+01 0.55956739365E+01 0.54311244074E+01
 0.45190252405E+01 0.41641390184E+01 0.38179087928E+01 0.35261878060E+01 0.33204644125E+01
 0.32155465421E+01 0.32155593498E+01 0.33204770021E+01 0.35261610696E+01 0.38178676563E+01
 0.41641812043E+01 0.45191939136E+01 0.48347137955E+01 0.50742378799E+01 0.52172833064E+01
 0.52772700901E+01 0.52773777387E+01 0.52174627396E+01 0.50742569134E+01 0.48345491753E+01
 0.39895129018E+01 0.37339757824E+01 0.35038963714E+01 0.33259634319E+01 0.32155465421E+01
 0.31783932085E+01 0.32155505275E+01 0.33259319269E+01 0.35038172255E+01 0.37339292144E+01
 0.39896139333E+01 0.42375821662E+01 0.44474654263E+01 0.46003165175E+01 0.46904590117E+01
 0.47198776241E+01 0.46905384468E+01 0.46002987170E+01 0.44472674897E+01 0.42373440646E+01
 0.36049369789E+01 0.34619448173E+01 0.33424442258E+01 0.32584101752E+01 0.32155593498E+01
 0.32155505275E+01 0.32583877441E+01 0.33424148370E+01 0.34619192930E+01 0.36049403484E+01
 0.37540529701E+01 0.38905534639E+01 0.39996755383E+01 0.40735387244E+01 0.41102150870E+01
 0.41102150668E+01 0.40735171772E+01 0.39996086198E+01 0.38904671057E+01 0.37539988895E+01
 0.34054243333E+01 0.33695627256E+01 0.33424043402E+01 0.33259374132E+01 0.33204770021E+01
 0.33259319269E+01 0.33424148370E+01 0.33695931133E+01 0.34054351307E+01 0.34456769968E+01
 0.34847612559E+01 0.35177005913E+01 0.35415362238E+01 0.35554924307E+01 0.35599921845E+01
 0.35554137865E+01 0.35414808962E+01 0.35177383202E+01 0.34848490380E+01 0.34457279371E+01
 0.34054472900E+01 0.34619315439E+01 0.35038167414E+01 0.35261570955E+01 0.35261610696E+01
 0.35038172255E+01 0.34619192930E+01 0.34054351307E+01 0.33405451886E+01 0.32738117204E+01
 0.32116261264E+01 0.31597182593E+01 0.31226227331E+01 0.31033321839E+01 0.31033031000E+01
 0.31225748872E+01 0.31597092312E+01 0.32116512499E+01 0.32738315909E+01 0.33405530678E+01
 0.36050037435E+01 0.37339706068E+01 0.38178725478E+01 0.38469794176E+01 0.38178676563E+01
 0.37339292144E+01 0.36049403484E+01 0.34456769968E+01 0.32738117204E+01 0.31074587046E+01
 0.29627577847E+01 0.28520240215E+01 0.27830524232E+01 0.27597106430E+01 0.27830860678E+01
 0.28520547732E+01 0.29627395810E+01 0.31073916898E+01 0.32737601232E+01 0.34456959286E+01
 0.39896008855E+01 0.41641630588E+01 0.42570375011E+01 0.42570465398E+01 0.41641812043E+01
 0.39896139333E+01 0.37540529701E+01 0.34847612559E+01 0.32116261264E+01 0.29627577847E+01
 0.27605892612E+01 0.26198399443E+01 0.25480857094E+01 0.25480955216E+01 0.26198661849E+01
 0.27606208408E+01 0.29627810448E+01 0.32116356784E+01 0.34847618637E+01 0.37540481938E+01
 0.45191062873E+01 0.47025657681E+01 0.47662611441E+01 0.47026205637E+01 0.45191939136E+01
 0.42375821662E+01 0.38905534639E+01 0.35177005913E+01 0.31597182593E+01 0.28520240215E+01
 0.26198399443E+01 0.24770525303E+01 0.24290693818E+01 0.24770420226E+01 0.26198346487E+01
 0.28520516990E+01 0.31597852672E+01 0.35177635795E+01 0.38905549650E+01 0.42375143327E+01
 0.51182936023E+01 0.52666360809E+01 0.52666261165E+01 0.51182727246E+01 0.48347137955E+01
 0.44474654263E+01 0.39996755383E+01 0.35415362238E+01 0.31226227331E+01 0.27830524232E+01
 0.25480857094E+01 0.24290693818E+01 0.24290907548E+01 0.25481137467E+01 0.27830369124E+01
 0.31225741719E+01 0.35415037092E+01 0.39996764779E+01 0.44474814235E+01 0.48347336380E+01
 0.56408594474E+01 0.57083514111E+01 0.56407053979E+01 0.54310134003E+01 0.50742378799E+01
 0.46003165175E+01 0.40735387244E+01 0.35554924307E+01 0.31033321839E+01 0.27597106430E+01
 0.25480955216E+01 0.24770420226E+01 0.25481137467E+01 0.27597201230E+01 0.31033014669E+01
 0.35554153639E+01 0.40734525438E+01 0.46002953209E+01 0.50743385079E+01 0.54312027318E+01
 0.58840038409E+01 0.58839327655E+01 0.58032455258E+01 0.55953896314E+01 0.52172833064E+01
 0.46904590117E+01 0.41102150870E+01 0.35599921845E+01 0.31033031000E+01 0.27830860678E+01
 0.26198661849E+01 0.26198346487E+01 0.27830369124E+01 0.31033014669E+01 0.35600237628E+01
 0.41102142376E+01 0.46904220571E+01 0.52172890280E+01 0.55954948591E+01 0.58033955943E+01
 0.57916546403E+01 0.58055100965E+01 0.57951065183E+01 0.56461530725E+01 0.52772700901E+01
 0.47198776241E+01 0.41102150668E+01 0.35554137865E+01 0.31225748872E+01 0.28520547732E+01
 0.27606208408E+01 0.28520516990E+01 0.31225741719E+01 0.35554153639E+01 0.41102142376E+01
 0.47198768759E+01 0.52772778585E+01 0.56461696253E+01 0.57951220936E+01 0.58055177480E+01
 0.55046201921E+01 0.56299625342E+01 0.57396374732E+01 0.56520384112E+01 0.52773777387E+01
 0.46905384468E+01 0.40735171772E+01 0.35414808962E+01 0.31597092312E+01 0.29627395810E+01
 0.29627810448E+01 0.31597852672E+01 0.35415037092E+01 0.40734525438E+01 0.46904220571E+01
 0.52772778585E+01 0.56520213011E+01 0.57397284597E+01 0.56301020681E+01 0.55046879942E+01
 0.52684198298E+01 0.55442007919E+01 0.57397603596E+01 0.56464052410E+01 0.52174627396E+01
 0.46002987170E+01 0.39996086198E+01 0.35177383202E+01 0.32116512499E+01 0.31073916898E+01
 0.32116356784E+01 0.35177635795E+01 0.39996764779E+01 0.46002953209E+01 0.52172890280E+01
 0.56461696253E+01 0.57397284597E+01 0.55444696666E+01 0.52687259087E+01 0.51435954532E+01
 0.52685832427E+01 0.56301614518E+01 0.57953764873E+01 0.55956739365E+01 0.50742569134E+01
 0.44472674897E+01 0.38904671057E+01 0.34848490380E+01 0.32738315909E+01 0.32737601232E+01
 0.34847618637E+01 0.38905549650E+01 0.44474814235E+01 0.50743385079E+01 0.55954948591E+01
 0.57951220936E+01 0.56301020681E+01 0.52687259087E+01 0.49859032921E+01 0.49858053318E+01
 0.55049335827E+01 0.58057020730E+01 0.58034588379E+01 0.54311244074E+01 0.48345491753E+01
 0.42373440646E+01 0.37539988895E+01 0.34457279371E+01 0.33405530678E+01 0.34456959286E+01
 0.37540481938E+01 0.42375143327E+01 0.48347336380E+01 0.54312027318E+01 0.58033955943E+01
 0.58055177480E+01 0.55046879942E+01 0.51435954532E+01 0.49858053318E+01 0.51437802548E+01
 0.57890445340E+01 0.54904942547E+01 0.50162762217E+01 0.44863885579E+01 0.39935242388E+01
 0.36049209764E+01 0.33610899877E+01 0.32786028663E+01 0.33611003589E+01 0.36049596703E+01
 0.39935573596E+01 0.44863739938E+01 0.50162583314E+01 0.54905495915E+01 0.57891388435E+01
 0.58840019149E+01 0.58594576917E+01 0.58333819455E+01 0.58594851738E+01 0.58839707840E+01
 0.54904942547E+01 0.50971546819E+01 0.46238793707E+01 0.41518536556E+01 0.37486445822E+01
 0.34619311428E+01 0.33150166819E+01 0.33149990335E+01 0.34619135653E+01 0.37486655193E+01
 0.41518758908E+01 0.46238518041E+01 0.50971076808E+01 0.54905154221E+01 0.57235256355E+01
 0.58033998077E+01 0.58079005695E+01 0.58078423785E+01 0.58032664010E+01 0.57234111869E+01
 0.50162762217E+01 0.46238793707E+01 0.42072868449E+01 0.38257147409E+01 0.35279632670E+01
 0.33424369369E+01 0.32799149156E+01 0.33424496641E+01 0.35279787205E+01 0.38257158357E+01
 0.42072653804E+01 0.46238509597E+01 0.50162559072E+01 0.53283534313E+01 0.55163790098E+01
 0.55954953366E+01 0.56136640603E+01 0.55955172375E+01 0.55164012338E+01 0.53283688485E+01
 0.44863885579E+01 0.41518536556E+01 0.38257147409E+01 0.35509790641E+01 0.33572333498E+01
 0.32584090535E+01 0.32584077265E+01 0.33572384293E+01 0.35509987250E+01 0.38257385130E+01
 0.41518697309E+01 0.44863928006E+01 0.47843236340E+01 0.50128342282E+01 0.51549009529E+01
 0.52172878034E+01 0.52173459417E+01 0.51550227349E+01 0.50129276408E+01 0.47843547179E+01
 0.39935242388E+01 0.37486445822E+01 0.35279632670E+01 0.33572333498E+01 0.32512526309E+01
 0.32155601575E+01 0.32512190244E+01 0.33572232378E+01 0.35280008542E+01 0.37486959430E+01
 0.39935617755E+01 0.42306541707E+01 0.44310100442E+01 0.45766886826E+01 0.46624535043E+01
 0.46904300886E+01 0.46624815826E+01 0.45767032781E+01 0.44309930341E+01 0.42306246266E+01
 0.36049209764E+01 0.34619311428E+01 0.33424369369E+01 0.32584090535E+01 0.32155601575E+01
 0.32155504533E+01 0.32583879193E+01 0.33424165277E+01 0.34619212898E+01 0.36049418320E+01
 0.37540554657E+01 0.38905580278E+01 0.39996812337E+01 0.40735455972E+01 0.41102250544E+01
 0.41102275292E+01 0.40735268308E+01 0.39996100851E+01 0.38904596053E+01 0.37539852211E+01
 0.33610899877E+01 0.33150166819E+01 0.32799149156E+01 0.32584077265E+01 0.32512190244E+01
 0.32583879193E+01 0.32798767885E+01 0.33149784235E+01 0.33610794411E+01 0.34130551594E+01
 0.34641636509E+01 0.35080560467E+01 0.35405497244E+01 0.35600270411E+01 0.35664564007E+01
 0.35600277008E+01 0.35405417044E+01 0.35080294476E+01 0.34641243044E+01 0.34130297953E+01
 0.32786028663E+01 0.33149990335E+01 0.33424496641E+01 0.33572384293E+01 0.33572232378E+01
 0.33424165277E+01 0.33149784235E+01 0.32786114578E+01 0.32376368588E+01 0.31962185551E+01
 0.31580236574E+01 0.31261929604E+01 0.31033236451E+01 0.30913417404E+01 0.30913183419E+01
 0.31032969908E+01 0.31262219731E+01 0.31580885739E+01 0.31962541935E+01 0.32376285927E+01
 0.33611003589E+01 0.34619135653E+01 0.35279787205E+01 0.35509987250E+01 0.35280008542E+01
 0.34619212898E+01 0.33610794411E+01 0.32376368588E+01 0.31055037299E+01 0.29783036532E+01
 0.28678142076E+01 0.27830465051E+01 0.27299990432E+01 0.27119605425E+01 0.27299774878E+01
 0.27830375526E+01 0.28678312317E+01 0.29783281581E+01 0.31055266792E+01 0.32376649037E+01
 0.36049596703E+01 0.37486655193E+01 0.38257158357E+01 0.38257385130E+01 0.37486959430E+01
 0.36049418320E+01 0.34130551594E+01 0.31962185551E+01 0.29783036532E+01 0.27806186466E+01
 0.26198475921E+01 0.25073584031E+01 0.24497026638E+01 0.24497140620E+01 0.25073751973E+01
 0.26198400985E+01 0.27805875520E+01 0.29782903167E+01 0.31962551761E+01 0.34131124967E+01
 0.39935573596E+01 0.41518758908E+01 0.42072653804E+01 0.41518697309E+01 0.39935617755E+01
 0.37540554657E+01 0.34641636509E+01 0.31580236574E+01 0.28678142076E+01 0.26198475921E+01
 0.24326047794E+01 0.23169423313E+01 0.22779275187E+01 0.23169449558E+01 0.24326121883E+01
 0.26198640616E+01 0.28678365410E+01 0.31580357404E+01 0.34641544271E+01 0.37540384026E+01
 0.44863739938E+01 0.46238518041E+01 0.46238509597E+01 0.44863928006E+01 0.42306541707E+01
 0.38905580278E+01 0.35080560467E+01 0.31261929604E+01 0.27830465051E+01 0.25073584031E+01
 0.23169423313E+01 0.22203238086E+01 0.22203230808E+01 0.23169410013E+01 0.25073667601E+01
 0.27830773210E+01 0.31262267611E+01 0.35080481157E+01 0.38905017932E+01 0.42305981598E+01
 0.50162583314E+01 0.50971076808E+01 0.50162559072E+01 0.47843236340E+01 0.44310100442E+01
 0.39996812337E+01 0.35405497244E+01 0.31033236451E+01 0.27299990432E+01 0.24497026638E+01
 0.22779275187E+01 0.22203230808E+01 0.22779462401E+01 0.24497061048E+01 0.27299763207E+01
 0.31033000415E+01 0.35405405672E+01 0.39996738513E+01 0.44309966204E+01 0.47843165423E+01
 0.54905495915E+01 0.54905154221E+01 0.53283534313E+01 0.50128342282E+01 0.45766886826E+01
 0.40735455972E+01 0.35600270411E+01 0.30913417404E+01 0.27119605425E+01 0.24497140620E+01
 0.23169449558E+01 0.23169410013E+01 0.24497061048E+01 0.27119517249E+01 0.30913237665E+01
 0.35599936426E+01 0.40735133126E+01 0.45766923393E+01 0.50128894720E+01 0.53284271428E+01
 0.57891388435E+01 0.57235256355E+01 0.55163790098E+01 0.51549009529E+01 0.46624535043E+01
 0.41102250544E+01 0.35664564007E+01 0.30913183419E+01 0.27299774878E+01 0.25073751973E+01
 0.24326121883E+01 0.25073667601E+01 0.27299763207E+01 0.30913237665E+01 0.35664515075E+01
 0.41102092329E+01 0.46624430519E+01 0.51548973826E+01 0.55163688478E+01 0.57235116391E+01
 0.58840019149E+01 0.58033998077E+01 0.55954953366E+01 0.52172878034E+01 0.46904300886E+01
 0.41102275292E+01 0.35600277008E+01 0.31032969908E+01 0.27830375526E+01 0.26198400985E+01
 0.26198640616E+01 0.27830773210E+01 0.31033000415E+01 0.35599936426E+01 0.41102092329E+01
 0.46904486506E+01 0.52172824919E+01 0.55953969360E+01 0.58032462148E+01 0.58839258566E+01
 0.58594576917E+01 0.58079005695E+01 0.56136640603E+01 0.52173459417E+01 0.46624815826E+01
 0.40735268308E+01 0.35405417044E+01 0.31262219731E+01 0.28678312317E+01 0.27805875520E+01
 0.28678365410E+01 0.31262267611E+01 0.35405405672E+01 0.40735133126E+01 0.46624430519E+01
 0.52172824919E+01 0.56136003792E+01 0.58078630041E+01 0.58594474927E+01 0.58620876799E+01
 0.58333819455E+01 0.58078423785E+01 0.55955172375E+01 0.51550227349E+01 0.45767032781E+01
 0.39996100851E+01 0.35080294476E+01 0.31580885739E+01 0.29783281581E+01 0.29782903167E+01
 0.31580357404E+01 0.35080481157E+01 0.39996738513E+01 0.45766923393E+01 0.51548973826E+01
 0.55953969360E+01 0.58078630041E+01 0.58335165467E+01 0.57953934112E+01 0.57953154295E+01
 0.58594851738E+01 0.58032664010E+01 0.55164012338E+01 0.50129276408E+01 0.44309930341E+01
 0.38904596053E+01 0.34641243044E+01 0.31962541935E+01 0.31055266792E+01 0.31962551761E+01
 0.34641544271E+01 0.38905017932E+01 0.44309966204E+01 0.50128894720E+01 0.55163688478E+01
 0.58032462148E+01 0.58594474927E+01 0.57953934112E+01 0.57529562887E+01 0.57954363104E+01
 0.58839707840E+01 0.57234111869E+01 0.53283688485E+01 0.47843547179E+01 0.42306246266E+01
 0.37539852211E+01 0.34130297953E+01 0.32376285927E+01 0.32376649037E+01 0.34131124967E+01
 0.37540384026E+01 0.42305981598E+01 0.47843165423E+01 0.53284271428E+01 0.57235116391E+01
 0.58839258566E+01 0.58620876799E+01 0.57953154295E+01 0.57954363104E+01 0.58622907285E+01
 0.52168471895E+01 0.48422049282E+01 0.44190372682E+01 0.40043972084E+01 0.36535901412E+01
 0.34054115326E+01 0.32786024459E+01 0.32786230232E+01 0.34054292964E+01 0.36535185408E+01
 0.40042128309E+01 0.44188578499E+01 0.48421956899E+01 0.52170340017E+01 0.54905630787E+01
 0.56408742120E+01 0.56979739966E+01 0.56979288825E+01 0.56407182949E+01 0.54903200529E+01
 0.48422049282E+01 0.44931069451E+01 0.41263176233E+01 0.37919839984E+01 0.35316202774E+01
 0.33695578533E+01 0.33150032449E+01 0.33696300701E+01 0.35316553382E+01 0.37918810879E+01
 0.41260968340E+01 0.44929125074E+01 0.48421895520E+01 0.51304738829E+01 0.53284516302E+01
 0.54312234212E+01 0.54609042586E+01 0.54310001567E+01 0.53281453709E+01 0.51302736610E+01
 0.44190372682E+01 0.41263176233E+01 0.38406171456E+01 0.35995060077E+01 0.34292583393E+01
 0.33424082484E+01 0.33424562761E+01 0.34293497948E+01 0.35995300951E+01 0.38405042496E+01
 0.41261040644E+01 0.44188540293E+01 0.46800809185E+01 0.48818848836E+01 0.50129042308E+01
 0.50743482110E+01 0.50742425411E+01 0.50126754292E+01 0.48817184873E+01 0.46801008894E+01
 0.40043972084E+01 0.37919839984E+01 0.35995060077E+01 0.34500870144E+01 0.33572094407E+01
 0.33259468631E+01 0.33572451513E+01 0.34501508990E+01 0.35995447323E+01 0.37919232509E+01
 0.40042363683E+01 0.42084876778E+01 0.43799808258E+01 0.45039937926E+01 0.45766939772E+01
 0.46002942582E+01 0.45765688695E+01 0.45038729983E+01 0.43799950126E+01 0.42086368411E+01
 0.36535901412E+01 0.35316202774E+01 0.34292583393E+01 0.33572094407E+01 0.33204890534E+01
 0.33204848505E+01 0.33572274975E+01 0.34293260240E+01 0.35316816813E+01 0.36535600622E+01
 0.37795664401E+01 0.38936511297E+01 0.39837234714E+01 0.40439385667E+01 0.40735157811E+01
 0.40734544277E+01 0.40438226908E+01 0.39836827369E+01 0.38937311750E+01 0.37796787554E+01
 0.34054115326E+01 0.33695578533E+01 0.33424082484E+01 0.33259468631E+01 0.33204848505E+01
 0.33259353836E+01 0.33424181546E+01 0.33695991715E+01 0.34054408477E+01 0.34456802010E+01
 0.34847650618E+01 0.35177071946E+01 0.35415430470E+01 0.35554979561E+01 0.35599984928E+01
 0.35554193246E+01 0.35414779758E+01 0.35177228458E+01 0.34848270304E+01 0.34457084480E+01
 0.32786024459E+01 0.33150032449E+01 0.33424562761E+01 0.33572451513E+01 0.33572274975E+01
 0.33424181546E+01 0.33149800738E+01 0.32786145068E+01 0.32376395696E+01 0.31962198031E+01
 0.31580252044E+01 0.31261962050E+01 0.31033272656E+01 0.30913442426E+01 0.30913195564E+01
 0.31032953561E+01 0.31262142767E+01 0.31580750450E+01 0.31962406957E+01 0.32376211523E+01
 0.32786230232E+01 0.33696300701E+01 0.34293497948E+01 0.34501508990E+01 0.34293260240E+01
 0.33695991715E+01 0.32786145068E+01 0.31674906588E+01 0.30488307194E+01 0.29348022065E+01
 0.28357781365E+01 0.27596894760E+01 0.27119518939E+01 0.26956881034E+01 0.27119410308E+01
 0.27597074768E+01 0.28358270598E+01 0.29348322757E+01 0.30488173567E+01 0.31674692081E+01
 0.34054292964E+01 0.35316553382E+01 0.35995300951E+01 0.35995447323E+01 0.35316816813E+01
 0.34054408477E+01 0.32376395696E+01 0.30488307194E+01 0.28596348468E+01 0.26880448841E+01
 0.25481004636E+01 0.24497019611E+01 0.23990264039E+01 0.23990251362E+01 0.24497035913E+01
 0.25481092784E+01 0.26880539562E+01 0.28596396483E+01 0.30488363527E+01 0.32376437113E+01
 0.36535185408E+01 0.37918810879E+01 0.38405042496E+01 0.37919232509E+01 0.36535600622E+01
 0.34456802010E+01 0.31962198031E+01 0.29348022065E+01 0.26880448841E+01 0.24770660081E+01
 0.23169524184E+01 0.22173921180E+01 0.21836586608E+01 0.22173988180E+01 0.23169455293E+01
 0.24770439098E+01 0.26880361465E+01 0.29348252700E+01 0.31962508520E+01 0.34456782767E+01
 0.40042128309E+01 0.41260968340E+01 0.41261040644E+01 0.40042363683E+01 0.37795664401E+01
 0.34847650618E+01 0.31580252044E+01 0.28357781365E+01 0.25481004636E+01 0.23169524184E+01
 0.21565022859E+01 0.20746171848E+01 0.20746248215E+01 0.21565090854E+01 0.23169420530E+01
 0.25480897518E+01 0.28357860666E+01 0.31580354958E+01 0.34847518226E+01 0.37795357162E+01
 0.44188578499E+01 0.44929125074E+01 0.44188540293E+01 0.42084876778E+01 0.38936511297E+01
 0.35177071946E+01 0.31261962050E+01 0.27596894760E+01 0.24497019611E+01 0.22173921180E+01
 0.20746171848E+01 0.20265833578E+01 0.20746220305E+01 0.22173933469E+01 0.24497046821E+01
 0.27596989483E+01 0.31261902894E+01 0.35176632401E+01 0.38935935293E+01 0.42084610243E+01
 0.48421956899E+01 0.48421895520E+01 0.46800809185E+01 0.43799808258E+01 0.39837234714E+01
 0.35415430470E+01 0.31033272656E+01 0.27119518939E+01 0.23990264039E+01 0.21836586608E+01
 0.20746248215E+01 0.20746220305E+01 0.21836530463E+01 0.23990255271E+01 0.27119589387E+01
 0.31033280399E+01 0.35415186719E+01 0.39836819469E+01 0.43799539554E+01 0.46800816592E+01
 0.52170340017E+01 0.51304738829E+01 0.48818848836E+01 0.45039937926E+01 0.40439385667E+01
 0.35554979561E+01 0.30913442426E+01 0.26956881034E+01 0.23990251362E+01 0.22173988180E+01
 0.21565090854E+01 0.22173933469E+01 0.23990255271E+01 0.26956949442E+01 0.30913464041E+01
 0.35554934934E+01 0.40439355663E+01 0.45039912172E+01 0.48818745430E+01 0.51304611217E+01
 0.54905630787E+01 0.53284516302E+01 0.50129042308E+01 0.45766939772E+01 0.40735157811E+01
 0.35599984928E+01 0.30913195564E+01 0.27119410308E+01 0.24497035913E+01 0.23169455293E+01
 0.23169420530E+01 0.24497046821E+01 0.27119589387E+01 0.30913464041E+01 0.35600223952E+01
 0.40735312814E+01 0.45766791951E+01 0.50128315197E+01 0.53283480804E+01 0.54905123531E+01
 0.56408742120E+01 0.54312234212E+01 0.50743482110E+01 0.46002942582E+01 0.40734544277E+01
 0.35554193246E+01 0.31032953561E+01 0.27597074768E+01 0.25481092784E+01 0.24770439098E+01
 0.25480897518E+01 0.27596989483E+01 0.31033280399E+01 0.35554934934E+01 0.40735312814E+01
 0.46003035619E+01 0.50742349959E+01 0.54310204875E+01 0.56407098663E+01 0.57083550830E+01
 0.56979739966E+01 0.54609042586E+01 0.50742425411E+01 0.45765688695E+01 0.40438226908E+01
 0.35414779758E+01 0.31262142767E+01 0.28358270598E+01 0.26880539562E+01 0.26880361465E+01
 0.28357860666E+01 0.31261902894E+01 0.35415186719E+01 0.40439355663E+01 0.45766791951E+01
 0.50742349959E+01 0.54607394917E+01 0.56977530772E+01 0.58023234643E+01 0.58024261120E+01
 0.56979288825E+01 0.54310001567E+01 0.50126754292E+01 0.45038729983E+01 0.39836827369E+01
 0.35177228458E+01 0.31580750450E+01 0.29348322757E+01 0.28596396483E+01 0.29348252700E+01
 0.31580354958E+01 0.35176632401E+01 0.39836819469E+01 0.45039912172E+01 0.50128315197E+01
 0.54310204875E+01 0.56977530772E+01 0.58248282643E+01 0.58591651055E+01 0.58250277941E+01
 0.56407182949E+01 0.53281453709E+01 0.48817184873E+01 0.43799950126E+01 0.38937311750E+01
 0.34848270304E+01 0.31962406957E+01 0.30488173567E+01 0.30488363527E+01 0.31962508520E+01
 0.34847518226E+01 0.38935935293E+01 0.43799539554E+01 0.48818745430E+01 0.53283480804E+01
 0.56407098663E+01 0.58023234643E+01 0.58591651055E+01 0.58593027323E+01 0.58025463940E+01
 0.54903200529E+01 0.51302736610E+01 0.46801008894E+01 0.42086368411E+01 0.37796787554E+01
 0.34457084480E+01 0.32376211523E+01 0.31674692081E+01 0.32376437113E+01 0.34456782767E+01
 0.37795357162E+01 0.42084610243E+01 0.46800816592E+01 0.51304611217E+01 0.54905123531E+01
 0.57083550830E+01 0.58024261120E+01 0.58250277941E+01 0.58025463940E+01 0.57083625025E+01
 0.46019319310E+01 0.43158430340E+01 0.40180858398E+01 0.37475949771E+01 0.35368749924E+01
 0.34054544860E+01 0.33611136224E+01 0.34054387125E+01 0.35368469371E+01 0.37475684253E+01
 0.40180717845E+01 0.43158328785E+01 0.46019155030E+01 0.48421984824E+01 0.50162714990E+01
 0.51183073439E+01 0.51511239190E+01 0.51182937431E+01 0.50162682753E+01 0.48422133081E+01
 0.43158430340E+01 0.40854056783E+01 0.38595422543E+01 0.36678374433E+01 0.35317020211E+01
 0.34619406000E+01 0.34619262908E+01 0.35316612862E+01 0.36677913578E+01 0.38595254310E+01
 0.40854106518E+01 0.43158241831E+01 0.45210664023E+01 0.46800875688E+01 0.47843300577E+01
 0.48347432390E+01 0.48347072721E+01 0.47842761358E+01 0.46800897385E+01 0.45211075148E+01
 0.40180858398E+01 0.38595422543E+01 0.37138791766E+01 0.35995788791E+01 0.35280156248E+01
 0.35038276000E+01 0.35279883792E+01 0.35995321073E+01 0.37138368801E+01 0.38595207834E+01
 0.40180652857E+01 0.41680710050E+01 0.42918472270E+01 0.43799540625E+01 0.44309962129E+01
 0.44474743670E+01 0.44309535408E+01 0.43799308899E+01 0.42918727491E+01 0.41681089676E+01
 0.37475949771E+01 0.36678374433E+01 0.35995788791E+01 0.35510170003E+01 0.35261689859E+01
 0.35261681842E+01 0.35510049420E+01 0.35995443690E+01 0.36677924527E+01 0.37475654349E+01
 0.38276723059E+01 0.38974198958E+01 0.39500383518E+01 0.39836756085E+01 0.39996617118E+01
 0.39996585395E+01 0.39836670488E+01 0.39500259910E+01 0.38974088209E+01 0.38276760096E+01
 0.35368749924E+01 0.35317020211E+01 0.35280156248E+01 0.35261689859E+01 0.35256681721E+01
 0.35261669258E+01 0.35280027096E+01 0.35316803070E+01 0.35368595123E+01 0.35420032205E+01
 0.35452156942E+01 0.35455735663E+01 0.35437562990E+01 0.35415139601E+01 0.35405318744E+01
 0.35414920231E+01 0.35437280115E+01 0.35455512855E+01 0.35452020265E+01 0.35420026216E+01
 0.34054544860E+01 0.34619406000E+01 0.35038276000E+01 0.35261681842E+01 0.35261669258E+01
 0.35038173756E+01 0.34619202725E+01 0.34054395169E+01 0.33405477508E+01 0.32738099574E+01
 0.32116247859E+01 0.31597195817E+01 0.31226221069E+01 0.31033273968E+01 0.31032979890E+01
 0.31225700004E+01 0.31596992829E+01 0.32116363837E+01 0.32738211643E+01 0.33405533673E+01
 0.33611136224E+01 0.34619262908E+01 0.35279883792E+01 0.35510049420E+01 0.35280027096E+01
 0.34619202725E+01 0.33610795926E+01 0.32376390351E+01 0.31055044862E+01 0.29783017675E+01
 0.28678129413E+01 0.27830474235E+01 0.27299991179E+01 0.27119573357E+01 0.27299716748E+01
 0.27830288104E+01 0.28678181277E+01 0.29783144381E+01 0.31055211024E+01 0.32376714385E+01
 0.34054387125E+01 0.35316612862E+01 0.35995321073E+01 0.35995443690E+01 0.35316803070E+01
 0.34054395169E+01 0.32376390351E+01 0.30488305731E+01 0.28596340284E+01 0.26880435298E+01
 0.25480998257E+01 0.24497022011E+01 0.23990259851E+01 0.23990226710E+01 0.24496989194E+01
 0.25481029499E+01 0.26880475844E+01 0.28596366385E+01 0.30488397521E+01 0.32376525216E+01
 0.35368469371E+01 0.36677913578E+01 0.37138368801E+01 0.36677924527E+01 0.35368595123E+01
 0.33405477508E+01 0.31055044862E+01 0.28596340284E+01 0.26276685980E+01 0.24290848211E+01
 0.22779519870E+01 0.21836619706E+01 0.21516341377E+01 0.21836541134E+01 0.22779457334E+01
 0.24290885647E+01 0.26276774837E+01 0.28596324978E+01 0.31054855004E+01 0.33405236986E+01
 0.37475684253E+01 0.38595254310E+01 0.38595207834E+01 0.37475654349E+01 0.35420032205E+01
 0.32738099574E+01 0.29783017675E+01 0.26880435298E+01 0.24290848211E+01 0.22203428698E+01
 0.20746295752E+01 0.19998725463E+01 0.19998744017E+01 0.20746259680E+01 0.22203275440E+01
 0.24290734074E+01 0.26880478333E+01 0.29783074717E+01 0.32738029078E+01 0.35419946635E+01
 0.40180717845E+01 0.40854106518E+01 0.40180652857E+01 0.38276723059E+01 0.35452156942E+01
 0.32116247859E+01 0.28678129413E+01 0.25480998257E+01 0.22779519870E+01 0.20746295752E+01
 0.19488523316E+01 0.19063430183E+01 0.19488650149E+01 0.20746249619E+01 0.22779263483E+01
 0.25480836685E+01 0.28678187470E+01 0.32116320391E+01 0.35452131572E+01 0.38276724594E+01
 0.43158328785E+01 0.43158241831E+01 0.41680710050E+01 0.38974198958E+01 0.35455735663E+01
 0.31597195817E+01 0.27830474235E+01 0.24497022011E+01 0.21836619706E+01 0.19998725463E+01
 0.19063430183E+01 0.19063453088E+01 0.19998728814E+01 0.21836554783E+01 0.24496972333E+01
 0.27830460876E+01 0.31597087532E+01 0.35455516808E+01 0.38974084225E+01 0.41680801890E+01
 0.46019155030E+01 0.45210664023E+01 0.42918472270E+01 0.39500383518E+01 0.35437562990E+01
 0.31226221069E+01 0.27299991179E+01 0.23990259851E+01 0.21516341377E+01 0.19998744017E+01
 0.19488650149E+01 0.19998728814E+01 0.21516336521E+01 0.23990270715E+01 0.27300001892E+01
 0.31226237315E+01 0.35437608060E+01 0.39500449974E+01 0.42918523005E+01 0.45210683178E+01
 0.48421984824E+01 0.46800875688E+01 0.43799540625E+01 0.39836756085E+01 0.35415139601E+01
 0.31033273968E+01 0.27119573357E+01 0.23990226710E+01 0.21836541134E+01 0.20746259680E+01
 0.20746249619E+01 0.21836554783E+01 0.23990270715E+01 0.27119568824E+01 0.31033298000E+01
 0.35415418759E+01 0.39837237571E+01 0.43799826597E+01 0.46800796384E+01 0.48421870736E+01
 0.50162714990E+01 0.47843300577E+01 0.44309962129E+01 0.39996617118E+01 0.35405318744E+01
 0.31032979890E+01 0.27299716748E+01 0.24496989194E+01 0.22779457334E+01 0.22203275440E+01
 0.22779263483E+01 0.24496972333E+01 0.27300001892E+01 0.31033298000E+01 0.35405489005E+01
 0.39996735268E+01 0.44310072968E+01 0.47843282705E+01 0.50162605882E+01 0.50971134258E+01
 0.51183073439E+01 0.48347432390E+01 0.44474743670E+01 0.39996585395E+01 0.35414920231E+01
 0.31225700004E+01 0.27830288104E+01 0.25481029499E+01 0.24290885647E+01 0.24290734074E+01
 0.25480836685E+01 0.27830460876E+01 0.31226237315E+01 0.35415418759E+01 0.39996735268E+01
 0.44474590159E+01 0.48347179138E+01 0.51182880168E+01 0.52666403453E+01 0.52666471627E+01
 0.51511239190E+01 0.48347072721E+01 0.44309535408E+01 0.39836670488E+01 0.35437280115E+01
 0.31596992829E+01 0.28678181277E+01 0.26880475844E+01 0.26276774837E+01 0.26880478333E+01
 0.28678187470E+01 0.31597087532E+01 0.35437608060E+01 0.39837237571E+01 0.44310072968E+01
 0.48347179138E+01 0.51510862557E+01 0.53472728844E+01 0.54127091777E+01 0.53473154316E+01
 0.51182937431E+01 0.47842761358E+01 0.43799308899E+01 0.39500259910E+01 0.35455512855E+01
 0.32116363837E+01 0.29783144381E+01 0.28596366385E+01 0.28596324978E+01 0.29783074717E+01
 0.32116320391E+01 0.35455516808E+01 0.39500449974E+01 0.43799826597E+01 0.47843282705E+01
 0.51182880168E+01 0.53472728844E+01 0.54593055086E+01 0.54593420595E+01 0.53473326185E+01
 0.50162682753E+01 0.46800897385E+01 0.42918727491E+01 0.38974088209E+01 0.35452020265E+01
 0.32738211643E+01 0.31055211024E+01 0.30488397521E+01 0.31054855004E+01 0.32738029078E+01
 0.35452131572E+01 0.38974084225E+01 0.42918523005E+01 0.46800796384E+01 0.50162605882E+01
 0.52666403453E+01 0.54127091777E+01 0.54593420595E+01 0.54127578726E+01 0.52666784165E+01
 0.48422133081E+01 0.45211075148E+01 0.41681089676E+01 0.38276760096E+01 0.35420026216E+01
 0.33405533673E+01 0.32376714385E+01 0.32376525216E+01 0.33405236986E+01 0.35419946635E+01
 0.38276724594E+01 0.41680801890E+01 0.45210683178E+01 0.48421870736E+01 0.50971134258E+01
 0.52666471627E+01 0.53473154316E+01 0.53473326185E+01 0.52666784165E+01 0.50971369647E+01
 0.41820550192E+01 0.40296637701E+01 0.38780534939E+01 0.37474688467E+01 0.36535664389E+01
 0.36050115931E+01 0.36049720111E+01 0.36535251379E+01 0.37475665400E+01 0.38783005125E+01
 0.40298610388E+01 0.41819979294E+01 0.43158244100E+01 0.44188510018E+01 0.44863723100E+01
 0.45190999929E+01 0.45190533996E+01 0.44863584445E+01 0.44190247111E+01 0.43160721437E+01
 0.40296637701E+01 0.39427164859E+01 0.38594104643E+01 0.37919399782E+01 0.37487648088E+01
 0.37339715861E+01 0.37486699119E+01 0.37918795808E+01 0.38595205923E+01 0.39429657218E+01
 0.40298359578E+01 0.41076669988E+01 0.41680695573E+01 0.42084561818E+01 0.42305958556E+01
 0.42375045921E+01 0.42306271573E+01 0.42086039681E+01 0.41682806443E+01 0.41077336262E+01
 0.38780534939E+01 0.38594104643E+01 0.38405502168E+01 0.38258391859E+01 0.38179339260E+01
 0.38178726946E+01 0.38257154348E+01 0.38404985487E+01 0.38595159655E+01 0.38782470736E+01
 0.38919352953E+01 0.38980153972E+01 0.38974002719E+01 0.38935891407E+01 0.38904933624E+01
 0.38905376878E+01 0.38937188212E+01 0.38975584065E+01 0.38980759043E+01 0.38918240926E+01
 0.37474688467E+01 0.37919399782E+01 0.38258391859E+01 0.38470683272E+01 0.38542713767E+01
 0.38469810319E+01 0.38257365764E+01 0.37919175869E+01 0.37475624690E+01 0.36956250946E+01
 0.36405491090E+01 0.35883410176E+01 0.35455482787E+01 0.35176599171E+01 0.35080376839E+01
 0.35177465222E+01 0.35456586724E+01 0.35883820949E+01 0.36404725760E+01 0.36954832043E+01
 0.36535664389E+01 0.37487648088E+01 0.38179339260E+01 0.38542713767E+01 0.38542462414E+01
 0.38178655886E+01 0.37486919053E+01 0.36535559274E+01 0.35420022433E+01 0.34254656276E+01
 0.33160154579E+01 0.32246523712E+01 0.31597094763E+01 0.31261911727E+01 0.31262243976E+01
 0.31597811217E+01 0.32246930941E+01 0.33159707881E+01 0.34253597810E+01 0.35419241790E+01
 0.36050115931E+01 0.37339715861E+01 0.38178726946E+01 0.38469810319E+01 0.38178655886E+01
 0.37339229300E+01 0.36049367315E+01 0.34456776286E+01 0.32738099175E+01 0.31074525123E+01
 0.29627533709E+01 0.28520230422E+01 0.27830488407E+01 0.27597034696E+01 0.27830825763E+01
 0.28520576219E+01 0.29627431978E+01 0.31073944937E+01 0.32737674853E+01 0.34457076800E+01
 0.36049720111E+01 0.37486699119E+01 0.38257154348E+01 0.38257365764E+01 0.37486919053E+01
 0.36049367315E+01 0.34130526883E+01 0.31962184564E+01 0.29783014349E+01 0.27806136308E+01
 0.26198440295E+01 0.25073572759E+01 0.24496999292E+01 0.24497084413E+01 0.25073702662E+01
 0.26198375396E+01 0.27805860395E+01 0.29782919882E+01 0.31962647042E+01 0.34131278911E+01
 0.36535251379E+01 0.37918795808E+01 0.38404985487E+01 0.37919175869E+01 0.36535559274E+01
 0.34456776286E+01 0.31962184564E+01 0.29348009167E+01 0.26880426159E+01 0.24770635960E+01
 0.23169513804E+01 0.22173918942E+01 0.21836570660E+01 0.22173950658E+01 0.23169410665E+01
 0.24770409231E+01 0.26880370960E+01 0.29348325402E+01 0.31962638516E+01 0.34456914145E+01
 0.37475665400E+01 0.38595205923E+01 0.38595159655E+01 0.37475624690E+01 0.35420022433E+01
 0.32738099175E+01 0.29783014349E+01 0.26880426159E+01 0.24290841293E+01 0.22203431008E+01
 0.20746303338E+01 0.19998728516E+01 0.19998737161E+01 0.20746244385E+01 0.22203259698E+01
 0.24290734551E+01 0.26880512895E+01 0.29783141367E+01 0.32738096577E+01 0.35419977024E+01
 0.38783005125E+01 0.39429657218E+01 0.38782470736E+01 0.36956250946E+01 0.34254656276E+01
 0.31074525123E+01 0.27806136308E+01 0.24770635960E+01 0.22203431008E+01 0.20266002201E+01
 0.19063507773E+01 0.18656106519E+01 0.19063463449E+01 0.20265867103E+01 0.22203290918E+01
 0.24770606870E+01 0.27806145155E+01 0.31074500648E+01 0.34254810637E+01 0.36956764794E+01
 0.40298610388E+01 0.40298359578E+01 0.38919352953E+01 0.36405491090E+01 0.33160154579E+01
 0.29627533709E+01 0.26198440295E+01 0.23169513804E+01 0.20746303338E+01 0.19063507773E+01
 0.18202771649E+01 0.18202762675E+01 0.19063445149E+01 0.20746184738E+01 0.23169433355E+01
 0.26198428029E+01 0.29627521736E+01 0.33160204484E+01 0.36405793618E+01 0.38919841179E+01
 0.41819979294E+01 0.41076669988E+01 0.38980153972E+01 0.35883410176E+01 0.32246523712E+01
 0.28520230422E+01 0.25073572759E+01 0.22173918942E+01 0.19998728516E+01 0.18656106519E+01
 0.18202762675E+01 0.18656122404E+01 0.19998739159E+01 0.22173914014E+01 0.25073563212E+01
 0.28520230364E+01 0.32246544550E+01 0.35883465052E+01 0.38980237572E+01 0.41076737539E+01
 0.43158244100E+01 0.41680695573E+01 0.38974002719E+01 0.35455482787E+01 0.31597094763E+01
 0.27830488407E+01 0.24496999292E+01 0.21836570660E+01 0.19998737161E+01 0.19063463449E+01
 0.19063445149E+01 0.19998739159E+01 0.21836628113E+01 0.24497029140E+01 0.27830488778E+01
 0.31597226816E+01 0.35455787228E+01 0.38974258655E+01 0.41680744222E+01 0.43158216880E+01
 0.44188510018E+01 0.42084561818E+01 0.38935891407E+01 0.35176599171E+01 0.31261911727E+01
 0.27597034696E+01 0.24497084413E+01 0.22173950658E+01 0.20746244385E+01 0.20265867103E+01
 0.20746184738E+01 0.22173914014E+01 0.24497029140E+01 0.27596927991E+01 0.31261987574E+01
 0.35177082324E+01 0.38936529296E+01 0.42084893945E+01 0.44188516213E+01 0.44929057192E+01
 0.44863723100E+01 0.42305958556E+01 0.38904933624E+01 0.35080376839E+01 0.31262243976E+01
 0.27830825763E+01 0.25073702662E+01 0.23169410665E+01 0.22203259698E+01 0.22203290918E+01
 0.23169433355E+01 0.25073563212E+01 0.27830488778E+01 0.31261987574E+01 0.35080570929E+01
 0.38905545709E+01 0.42306543324E+01 0.44863972308E+01 0.46238524579E+01 0.46238492480E+01
 0.45190999929E+01 0.42375045921E+01 0.38905376878E+01 0.35177465222E+01 0.31597811217E+01
 0.28520576219E+01 0.26198375396E+01 0.24770409231E+01 0.24290734551E+01 0.24770606870E+01
 0.26198428029E+01 0.28520230364E+01 0.31597226816E+01 0.35177082324E+01 0.38905545709E+01
 0.42375796790E+01 0.45191996203E+01 0.47026332028E+01 0.47662678022E+01 0.47025627781E+01
 0.45190533996E+01 0.42306271573E+01 0.38937188212E+01 0.35456586724E+01 0.32246930941E+01
 0.29627431978E+01 0.27805860395E+01 0.26880370960E+01 0.26880512895E+01 0.27806145155E+01
 0.29627521736E+01 0.32246544550E+01 0.35455787228E+01 0.38936529296E+01 0.42306543324E+01
 0.45191996203E+01 0.47287355550E+01 0.48385622382E+01 0.48384782060E+01 0.47285517515E+01
 0.44863584445E+01 0.42086039681E+01 0.38975584065E+01 0.35883820949E+01 0.33159707881E+01
 0.31073944937E+01 0.29782919882E+01 0.29348325402E+01 0.29783141367E+01 0.31074500648E+01
 0.33160204484E+01 0.35883465052E+01 0.38974258655E+01 0.42084893945E+01 0.44863972308E+01
 0.47026332028E+01 0.48385622382E+01 0.48847092882E+01 0.48383880604E+01 0.47024460550E+01
 0.44190247111E+01 0.41682806443E+01 0.38980759043E+01 0.36404725760E+01 0.34253597810E+01
 0.32737674853E+01 0.31962647042E+01 0.31962638516E+01 0.32738096577E+01 0.34254810637E+01
 0.36405793618E+01 0.38980237572E+01 0.41680744222E+01 0.44188516213E+01 0.46238524579E+01
 0.47662678022E+01 0.48384782060E+01 0.48383880604E+01 0.47661095946E+01 0.46238319392E+01
 0.43160721437E+01 0.41077336262E+01 0.38918240926E+01 0.36954832043E+01 0.35419241790E+01
 0.34457076800E+01 0.34131278911E+01 0.34456914145E+01 0.35419977024E+01 0.36956764794E+01
 0.38919841179E+01 0.41076737539E+01 0.43158216880E+01 0.44929057192E+01 0.46238492480E+01
 0.47025627781E+01 0.47285517515E+01 0.47024460550E+01 0.46238319392E+01 0.44931040429E+01
 0.40344078601E+01 0.40298052132E+01 0.40180648052E+01 0.40041922833E+01 0.39935154468E+01
 0.39895920739E+01 0.39935551277E+01 0.40042065533E+01 0.40180612667E+01 0.40298559370E+01
 0.40345029686E+01 0.40298559370E+01 0.40180612667E+01 0.40042065533E+01 0.39935551277E+01
 0.39895920739E+01 0.39935154468E+01 0.40041922833E+01 0.40180648052E+01 0.40298052132E+01
 0.40298052132E+01 0.40854326403E+01 0.41260903726E+01 0.41518062917E+01 0.41641076047E+01
 0.41641510215E+01 0.41518683251E+01 0.41260861984E+01 0.40854017781E+01 0.40298349004E+01
 0.39628057924E+01 0.38919777120E+01 0.38276660448E+01 0.37795372570E+01 0.37540419963E+01
 0.37540452121E+01 0.37795490212E+01 0.38276667065E+01 0.38919293244E+01 0.39627275331E+01
 0.40180648052E+01 0.41260903726E+01 0.42072243322E+01 0.42569908838E+01 0.42737209562E+01
 0.42570318965E+01 0.42072592574E+01 0.41260952754E+01 0.40180612363E+01 0.38919373322E+01
 0.37609168832E+01 0.36405757740E+01 0.35452141812E+01 0.34847588390E+01 0.34641584661E+01
 0.34847603518E+01 0.35452198255E+01 0.36405778944E+01 0.37609080007E+01 0.38919293244E+01
 0.40041922833E+01 0.41518062917E+01 0.42569908838E+01 0.43114799884E+01 0.43115037762E+01
 0.42570479237E+01 0.41518670247E+01 0.40042319279E+01 0.38276725090E+01 0.36405518531E+01
 0.34636242671E+01 0.33160208376E+01 0.32116383440E+01 0.31580438750E+01 0.31580394415E+01
 0.32116375064E+01 0.33160415911E+01 0.34636611049E+01 0.36405778944E+01 0.38276667065E+01
 0.39935154468E+01 0.41641076047E+01 0.42737209562E+01 0.43115037762E+01 0.42737833865E+01
 0.41641800473E+01 0.39935582106E+01 0.37795646380E+01 0.35452179174E+01 0.33160175790E+01
 0.31157888628E+01 0.29627543820E+01 0.28678254773E+01 0.28357936080E+01 0.28678434285E+01
 0.29627913462E+01 0.31158300822E+01 0.33160415911E+01 0.35452198255E+01 0.37795490212E+01
 0.39895920739E+01 0.41641510215E+01 0.42570318965E+01 0.42570479237E+01 0.41641800473E+01
 0.39896081166E+01 0.37540506913E+01 0.34847643903E+01 0.32116268637E+01 0.29627544269E+01
 0.27605892947E+01 0.26198446774E+01 0.25480879145E+01 0.25480951599E+01 0.26198722717E+01
 0.27606343168E+01 0.29627913462E+01 0.32116375064E+01 0.34847603518E+01 0.37540452121E+01
 0.39935551277E+01 0.41518683251E+01 0.42072592574E+01 0.41518670247E+01 0.39935582106E+01
 0.37540506913E+01 0.34641623226E+01 0.31580255154E+01 0.28678136044E+01 0.26198439985E+01
 0.24326035756E+01 0.23169443379E+01 0.22779280826E+01 0.23169442263E+01 0.24326157532E+01
 0.26198722717E+01 0.28678434285E+01 0.31580394415E+01 0.34641584661E+01 0.37540419963E+01
 0.40042065533E+01 0.41260861984E+01 0.41260952754E+01 0.40042319279E+01 0.37795646380E+01
 0.34847643903E+01 0.31580255154E+01 0.28357784310E+01 0.25480995053E+01 0.23169512247E+01
 0.21565027081E+01 0.20746185582E+01 0.20746251843E+01 0.21565090304E+01 0.23169442263E+01
 0.25480951599E+01 0.28357936080E+01 0.31580438750E+01 0.34847588390E+01 0.37795372570E+01
 0.40180612667E+01 0.40854017781E+01 0.40180612363E+01 0.38276725090E+01 0.35452179174E+01
 0.32116268637E+01 0.28678136044E+01 0.25480995053E+01 0.22779523478E+01 0.20746313407E+01
 0.19488542879E+01 0.19063438072E+01 0.19488648900E+01 0.20746251843E+01 0.22779280826E+01
 0.25480879145E+01 0.28678254773E+01 0.32116383440E+01 0.35452141812E+01 0.38276660448E+01
 0.40298559370E+01 0.40298349004E+01 0.38919373322E+01 0.36405518531E+01 0.33160175790E+01
 0.29627544269E+01 0.26198439985E+01 0.23169512247E+01 0.20746313407E+01 0.19063526498E+01
 0.18202782174E+01 0.18202758659E+01 0.19063438072E+01 0.20746185582E+01 0.23169443379E+01
 0.26198446774E+01 0.29627543820E+01 0.33160208376E+01 0.36405757740E+01 0.38919777120E+01
 0.40345029686E+01 0.39628057924E+01 0.37609168832E+01 0.34636242671E+01 0.31157888628E+01
 0.27605892947E+01 0.24326035756E+01 0.21565027081E+01 0.19488542879E+01 0.18202782174E+01
 0.17767703720E+01 0.18202782174E+01 0.19488542879E+01 0.21565027081E+01 0.24326035756E+01
 0.27605892947E+01 0.31157888628E+01 0.34636242671E+01 0.37609168832E+01 0.39628057924E+01
 0.40298559370E+01 0.38919777120E+01 0.36405757740E+01 0.33160208376E+01 0.29627543820E+01
 0.26198446774E+01 0.23169443379E+01 0.20746185582E+01 0.19063438072E+01 0.18202758659E+01
 0.18202782174E+01 0.19063526498E+01 0.20746313407E+01 0.23169512247E+01 0.26198439985E+01
 0.29627544269E+01 0.33160175790E+01 0.36405518531E+01 0.38919373322E+01 0.40298349004E+01
 0.40180612667E+01 0.38276660448E+01 0.35452141812E+01 0.32116383440E+01 0.28678254773E+01
 0.25480879145E+01 0.22779280826E+01 0.20746251843E+01 0.19488648900E+01 0.19063438072E+01
 0.19488542879E+01 0.20746313407E+01 0.22779523478E+01 0.25480995053E+01 0.28678136044E+01
 0.32116268637E+01 0.35452179174E+01 0.38276725090E+01 0.40180612363E+01 0.40854017781E+01
 0.40042065533E+01 0.37795372570E+01 0.34847588390E+01 0.31580438750E+01 0.28357936080E+01
 0.25480951599E+01 0.23169442263E+01 0.21565090304E+01 0.20746251843E+01 0.20746185582E+01
 0.21565027081E+01 0.23169512247E+01 0.25480995053E+01 0.28357784310E+01 0.31580255154E+01
 0.34847643903E+01 0.37795646380E+01 0.40042319279E+01 0.41260952754E+01 0.41260861984E+01
 0.39935551277E+01 0.37540419963E+01 0.34641584661E+01 0.31580394415E+01 0.28678434285E+01
 0.26198722717E+01 0.24326157532E+01 0.23169442263E+01 0.22779280826E+01 0.23169443379E+01
 0.24326035756E+01 0.26198439985E+01 0.28678136044E+01 0.31580255154E+01 0.34641623226E+01
 0.37540506913E+01 0.39935582106E+01 0.41518670247E+01 0.42072592574E+01 0.41518683251E+01
 0.39895920739E+01 0.37540452121E+01 0.34847603518E+01 0.32116375064E+01 0.29627913462E+01
 0.27606343168E+01 0.26198722717E+01 0.25480951599E+01 0.25480879145E+01 0.26198446774E+01
 0.27605892947E+01 0.29627544269E+01 0.32116268637E+01 0.34847643903E+01 0.37540506913E+01
 0.39896081166E+01 0.41641800473E+01 0.42570479237E+01 0.42570318965E+01 0.41641510215E+01
 0.39935154468E+01 0.37795490212E+01 0.35452198255E+01 0.33160415911E+01 0.31158300822E+01
 0.29627913462E+01 0.28678434285E+01 0.28357936080E+01 0.28678254773E+01 0.29627543820E+01
 0.31157888628E+01 0.33160175790E+01 0.35452179174E+01 0.37795646380E+01 0.39935582106E+01
 0.41641800473E+01 0.42737833865E+01 0.43115037762E+01 0.42737209562E+01 0.41641076047E+01
 0.40041922833E+01 0.38276667065E+01 0.36405778944E+01 0.34636611049E+01 0.33160415911E+01
 0.32116375064E+01 0.31580394415E+01 0.31580438750E+01 0.32116383440E+01 0.33160208376E+01
 0.34636242671E+01 0.36405518531E+01 0.38276725090E+01 0.40042319279E+01 0.41518670247E+01
 0.42570479237E+01 0.43115037762E+01 0.43114799884E+01 0.42569908838E+01 0.41518062917E+01
 0.40180648052E+01 0.38919293244E+01 0.37609080007E+01 0.36405778944E+01 0.35452198255E+01
 0.34847603518E+01 0.34641584661E+01 0.34847588390E+01 0.35452141812E+01 0.36405757740E+01
 0.37609168832E+01 0.38919373322E+01 0.40180612363E+01 0.41260952754E+01 0.42072592574E+01
 0.42570318965E+01 0.42737209562E+01 0.42569908838E+01 0.42072243322E+01 0.41260903726E+01
 0.40298052132E+01 0.39627275331E+01 0.38919293244E+01 0.38276667065E+01 0.37795490212E+01
 0.37540452121E+01 0.37540419963E+01 0.37795372570E+01 0.38276660448E+01 0.38919777120E+01
 0.39628057924E+01 0.40298349004E+01 0.40854017781E+01 0.41260861984E+01 0.41518683251E+01
 0.41641510215E+01 0.41641076047E+01 0.41518062917E+01 0.41260903726E+01 0.40854326403E+01
 0.41820550192E+01 0.43160721437E+01 0.44190247111E+01 0.44863584445E+01 0.45190533996E+01
 0.45190999929E+01 0.44863723100E+01 0.44188510018E+01 0.43158244100E+01 0.41819979294E+01
 0.40298610388E+01 0.38783005125E+01 0.37475665400E+01 0.36535251379E+01 0.36049720111E+01
 0.36050115931E+01 0.36535664389E+01 0.37474688467E+01 0.38780534939E+01 0.40296637701E+01
 0.43160721437E+01 0.44931040429E+01 0.46238319392E+01 0.47024460550E+01 0.47285517515E+01
 0.47025627781E+01 0.46238492480E+01 0.44929057192E+01 0.43158216880E+01 0.41076737539E+01
 0.38919841179E+01 0.36956764794E+01 0.35419977024E+01 0.34456914145E+01 0.34131278911E+01
 0.34457076800E+01 0.35419241790E+01 0.36954832043E+01 0.38918240926E+01 0.41077336262E+01
 0.44190247111E+01 0.46238319392E+01 0.47661095946E+01 0.48383880604E+01 0.48384782060E+01
 0.47662678022E+01 0.46238524579E+01 0.44188516213E+01 0.41680744222E+01 0.38980237572E+01
 0.36405793618E+01 0.34254810637E+01 0.32738096577E+01 0.31962638516E+01 0.31962647042E+01
 0.32737674853E+01 0.34253597810E+01 0.36404725760E+01 0.38980759043E+01 0.41682806443E+01
 0.44863584445E+01 0.47024460550E+01 0.48383880604E+01 0.48847092882E+01 0.48385622382E+01
 0.47026332028E+01 0.44863972308E+01 0.42084893945E+01 0.38974258655E+01 0.35883465052E+01
 0.33160204484E+01 0.31074500648E+01 0.29783141367E+01 0.29348325402E+01 0.29782919882E+01
 0.31073944937E+01 0.33159707881E+01 0.35883820949E+01 0.38975584065E+01 0.42086039681E+01
 0.45190533996E+01 0.47285517515E+01 0.48384782060E+01 0.48385622382E+01 0.47287355550E+01
 0.45191996203E+01 0.42306543324E+01 0.38936529296E+01 0.35455787228E+01 0.32246544550E+01
 0.29627521736E+01 0.27806145155E+01 0.26880512895E+01 0.26880370960E+01 0.27805860395E+01
 0.29627431978E+01 0.32246930941E+01 0.35456586724E+01 0.38937188212E+01 0.42306271573E+01
 0.45190999929E+01 0.47025627781E+01 0.47662678022E+01 0.47026332028E+01 0.45191996203E+01
 0.42375796790E+01 0.38905545709E+01 0.35177082324E+01 0.31597226816E+01 0.28520230364E+01
 0.26198428029E+01 0.24770606870E+01 0.24290734551E+01 0.24770409231E+01 0.26198375396E+01
 0.28520576219E+01 0.31597811217E+01 0.35177465222E+01 0.38905376878E+01 0.42375045921E+01
 0.44863723100E+01 0.46238492480E+01 0.46238524579E+01 0.44863972308E+01 0.42306543324E+01
 0.38905545709E+01 0.35080570929E+01 0.31261987574E+01 0.27830488778E+01 0.25073563212E+01
 0.23169433355E+01 0.22203290918E+01 0.22203259698E+01 0.23169410665E+01 0.25073702662E+01
 0.27830825763E+01 0.31262243976E+01 0.35080376839E+01 0.38904933624E+01 0.42305958556E+01
 0.44188510018E+01 0.44929057192E+01 0.44188516213E+01 0.42084893945E+01 0.38936529296E+01
 0.35177082324E+01 0.31261987574E+01 0.27596927991E+01 0.24497029140E+01 0.22173914014E+01
 0.20746184738E+01 0.20265867103E+01 0.20746244385E+01 0.22173950658E+01 0.24497084413E+01
 0.27597034696E+01 0.31261911727E+01 0.35176599171E+01 0.38935891407E+01 0.42084561818E+01
 0.43158244100E+01 0.43158216880E+01 0.41680744222E+01 0.38974258655E+01 0.35455787228E+01
 0.31597226816E+01 0.27830488778E+01 0.24497029140E+01 0.21836628113E+01 0.19998739159E+01
 0.19063445149E+01 0.19063463449E+01 0.19998737161E+01 0.21836570660E+01 0.24496999292E+01
 0.27830488407E+01 0.31597094763E+01 0.35455482787E+01 0.38974002719E+01 0.41680695573E+01
 0.41819979294E+01 0.41076737539E+01 0.38980237572E+01 0.35883465052E+01 0.32246544550E+01
 0.28520230364E+01 0.25073563212E+01 0.22173914014E+01 0.19998739159E+01 0.18656122404E+01
 0.18202762675E+01 0.18656106519E+01 0.19998728516E+01 0.22173918942E+01 0.25073572759E+01
 0.28520230422E+01 0.32246523712E+01 0.35883410176E+01 0.38980153972E+01 0.41076669988E+01
 0.40298610388E+01 0.38919841179E+01 0.36405793618E+01 0.33160204484E+01 0.29627521736E+01
 0.26198428029E+01 0.23169433355E+01 0.20746184738E+01 0.19063445149E+01 0.18202762675E+01
 0.18202771649E+01 0.19063507773E+01 0.20746303338E+01 0.23169513804E+01 0.26198440295E+01
 0.29627533709E+01 0.33160154579E+01 0.36405491090E+01 0.38919352953E+01 0.40298359578E+01
 0.38783005125E+01 0.36956764794E+01 0.34254810637E+01 0.31074500648E+01 0.27806145155E+01
 0.24770606870E+01 0.22203290918E+01 0.20265867103E+01 0.19063463449E+01 0.18656106519E+01
 0.19063507773E+01 0.20266002201E+01 0.22203431008E+01 0.24770635960E+01 0.27806136308E+01
 0.31074525123E+01 0.34254656276E+01 0.36956250946E+01 0.38782470736E+01 0.39429657218E+01
 0.37475665400E+01 0.35419977024E+01 0.32738096577E+01 0.29783141367E+01 0.26880512895E+01
 0.24290734551E+01 0.22203259698E+01 0.20746244385E+01 0.19998737161E+01 0.19998728516E+01
 0.20746303338E+01 0.22203431008E+01 0.24290841293E+01 0.26880426159E+01 0.29783014349E+01
 0.32738099175E+01 0.35420022433E+01 0.37475624690E+01 0.38595159655E+01 0.38595205923E+01
 0.36535251379E+01 0.34456914145E+01 0.31962638516E+01 0.29348325402E+01 0.26880370960E+01
 0.24770409231E+01 0.23169410665E+01 0.22173950658E+01 0.21836570660E+01 0.22173918942E+01
 0.23169513804E+01 0.24770635960E+01 0.26880426159E+01 0.29348009167E+01 0.31962184564E+01
 0.34456776286E+01 0.36535559274E+01 0.37919175869E+01 0.38404985487E+01 0.37918795808E+01
 0.36049720111E+01 0.34131278911E+01 0.31962647042E+01 0.29782919882E+01 0.27805860395E+01
 0.26198375396E+01 0.25073702662E+01 0.24497084413E+01 0.24496999292E+01 0.25073572759E+01
 0.26198440295E+01 0.27806136308E+01 0.29783014349E+01 0.31962184564E+01 0.34130526883E+01
 0.36049367315E+01 0.37486919053E+01 0.38257365764E+01 0.38257154348E+01 0.37486699119E+01
 0.36050115931E+01 0.34457076800E+01 0.32737674853E+01 0.31073944937E+01 0.29627431978E+01
 0.28520576219E+01 0.27830825763E+01 0.27597034696E+01 0.27830488407E+01 0.28520230422E+01
 0.29627533709E+01 0.31074525123E+01 0.32738099175E+01 0.34456776286E+01 0.36049367315E+01
 0.37339229300E+01 0.38178655886E+01 0.38469810319E+01 0.38178726946E+01 0.37339715861E+01
 0.36535664389E+01 0.35419241790E+01 0.34253597810E+01 0.33159707881E+01 0.32246930941E+01
 0.31597811217E+01 0.31262243976E+01 0.31261911727E+01 0.31597094763E+01 0.32246523712E+01
 0.33160154579E+01 0.34254656276E+01 0.35420022433E+01 0.36535559274E+01 0.37486919053E+01
 0.38178655886E+01 0.38542462414E+01 0.38542713767E+01 0.38179339260E+01 0.37487648088E+01
 0.37474688467E+01 0.36954832043E+01 0.36404725760E+01 0.35883820949E+01 0.35456586724E+01
 0.35177465222E+01 0.35080376839E+01 0.35176599171E+01 0.35455482787E+01 0.35883410176E+01
 0.36405491090E+01 0.36956250946E+01 0.37475624690E+01 0.37919175869E+01 0.38257365764E+01
 0.38469810319E+01 0.38542713767E+01 0.38470683272E+01 0.38258391859E+01 0.37919399782E+01
 0.38780534939E+01 0.38918240926E+01 0.38980759043E+01 0.38975584065E+01 0.38937188212E+01
 0.38905376878E+01 0.38904933624E+01 0.38935891407E+01 0.38974002719E+01 0.38980153972E+01
 0.38919352953E+01 0.38782470736E+01 0.38595159655E+01 0.38404985487E+01 0.38257154348E+01
 0.38178726946E+01 0.38179339260E+01 0.38258391859E+01 0.38405502168E+01 0.38594104643E+01
 0.40296637701E+01 0.41077336262E+01 0.41682806443E+01 0.42086039681E+01 0.42306271573E+01
 0.42375045921E+01 0.42305958556E+01 0.42084561818E+01 0.41680695573E+01 0.41076669988E+01
 0.40298359578E+01 0.39429657218E+01 0.38595205923E+01 0.37918795808E+01 0.37486699119E+01
 0.37339715861E+01 0.37487648088E+01 0.37919399782E+01 0.38594104643E+01 0.39427164859E+01
 0.46019319310E+01 0.48422133081E+01 0.50162682753E+01 0.51182937431E+01 0.51511239190E+01
 0.51183073439E+01 0.50162714990E+01 0.48421984824E+01 0.46019155030E+01 0.43158328785E+01
 0.40180717845E+01 0.37475684253E+01 0.35368469371E+01 0.34054387125E+01 0.33611136224E+01
 0.34054544860E+01 0.35368749924E+01 0.37475949771E+01 0.40180858398E+01 0.43158430340E+01
 0.48422133081E+01 0.50971369647E+01 0.52666784165E+01 0.53473326185E+01 0.53473154316E+01
 0.52666471627E+01 0.50971134258E+01 0.48421870736E+01 0.45210683178E+01 0.41680801890E+01
 0.38276724594E+01 0.35419946635E+01 0.33405236986E+01 0.32376525216E+01 0.32376714385E+01
 0.33405533673E+01 0.35420026216E+01 0.38276760096E+01 0.41681089676E+01 0.45211075148E+01
 0.50162682753E+01 0.52666784165E+01 0.54127578726E+01 0.54593420595E+01 0.54127091777E+01
 0.52666403453E+01 0.50162605882E+01 0.46800796384E+01 0.42918523005E+01 0.38974084225E+01
 0.35452131572E+01 0.32738029078E+01 0.31054855004E+01 0.30488397521E+01 0.31055211024E+01
 0.32738211643E+01 0.35452020265E+01 0.38974088209E+01 0.42918727491E+01 0.46800897385E+01
 0.51182937431E+01 0.53473326185E+01 0.54593420595E+01 0.54593055086E+01 0.53472728844E+01
 0.51182880168E+01 0.47843282705E+01 0.43799826597E+01 0.39500449974E+01 0.35455516808E+01
 0.32116320391E+01 0.29783074717E+01 0.28596324978E+01 0.28596366385E+01 0.29783144381E+01
 0.32116363837E+01 0.35455512855E+01 0.39500259910E+01 0.43799308899E+01 0.47842761358E+01
 0.51511239190E+01 0.53473154316E+01 0.54127091777E+01 0.53472728844E+01 0.51510862557E+01
 0.48347179138E+01 0.44310072968E+01 0.39837237571E+01 0.35437608060E+01 0.31597087532E+01
 0.28678187470E+01 0.26880478333E+01 0.26276774837E+01 0.26880475844E+01 0.28678181277E+01
 0.31596992829E+01 0.35437280115E+01 0.39836670488E+01 0.44309535408E+01 0.48347072721E+01
 0.51183073439E+01 0.52666471627E+01 0.52666403453E+01 0.51182880168E+01 0.48347179138E+01
 0.44474590159E+01 0.39996735268E+01 0.35415418759E+01 0.31226237315E+01 0.27830460876E+01
 0.25480836685E+01 0.24290734074E+01 0.24290885647E+01 0.25481029499E+01 0.27830288104E+01
 0.31225700004E+01 0.35414920231E+01 0.39996585395E+01 0.44474743670E+01 0.48347432390E+01
 0.50162714990E+01 0.50971134258E+01 0.50162605882E+01 0.47843282705E+01 0.44310072968E+01
 0.39996735268E+01 0.35405489005E+01 0.31033298000E+01 0.27300001892E+01 0.24496972333E+01
 0.22779263483E+01 0.22203275440E+01 0.22779457334E+01 0.24496989194E+01 0.27299716748E+01
 0.31032979890E+01 0.35405318744E+01 0.39996617118E+01 0.44309962129E+01 0.47843300577E+01
 0.48421984824E+01 0.48421870736E+01 0.46800796384E+01 0.43799826597E+01 0.39837237571E+01
 0.35415418759E+01 0.31033298000E+01 0.27119568824E+01 0.23990270715E+01 0.21836554783E+01
 0.20746249619E+01 0.20746259680E+01 0.21836541134E+01 0.23990226710E+01 0.27119573357E+01
 0.31033273968E+01 0.35415139601E+01 0.39836756085E+01 0.43799540625E+01 0.46800875688E+01
 0.46019155030E+01 0.45210683178E+01 0.42918523005E+01 0.39500449974E+01 0.35437608060E+01
 0.31226237315E+01 0.27300001892E+01 0.23990270715E+01 0.21516336521E+01 0.19998728814E+01
 0.19488650149E+01 0.19998744017E+01 0.21516341377E+01 0.23990259851E+01 0.27299991179E+01
 0.31226221069E+01 0.35437562990E+01 0.39500383518E+01 0.42918472270E+01 0.45210664023E+01
 0.43158328785E+01 0.41680801890E+01 0.38974084225E+01 0.35455516808E+01 0.31597087532E+01
 0.27830460876E+01 0.24496972333E+01 0.21836554783E+01 0.19998728814E+01 0.19063453088E+01
 0.19063430183E+01 0.19998725463E+01 0.21836619706E+01 0.24497022011E+01 0.27830474235E+01
 0.31597195817E+01 0.35455735663E+01 0.38974198958E+01 0.41680710050E+01 0.43158241831E+01
 0.40180717845E+01 0.38276724594E+01 0.35452131572E+01 0.32116320391E+01 0.28678187470E+01
 0.25480836685E+01 0.22779263483E+01 0.20746249619E+01 0.19488650149E+01 0.19063430183E+01
 0.19488523316E+01 0.20746295752E+01 0.22779519870E+01 0.25480998257E+01 0.28678129413E+01
 0.32116247859E+01 0.35452156942E+01 0.38276723059E+01 0.40180652857E+01 0.40854106518E+01
 0.37475684253E+01 0.35419946635E+01 0.32738029078E+01 0.29783074717E+01 0.26880478333E+01
 0.24290734074E+01 0.22203275440E+01 0.20746259680E+01 0.19998744017E+01 0.19998725463E+01
 0.20746295752E+01 0.22203428698E+01 0.24290848211E+01 0.26880435298E+01 0.29783017675E+01
 0.32738099574E+01 0.35420032205E+01 0.37475654349E+01 0.38595207834E+01 0.38595254310E+01
 0.35368469371E+01 0.33405236986E+01 0.31054855004E+01 0.28596324978E+01 0.26276774837E+01
 0.24290885647E+01 0.22779457334E+01 0.21836541134E+01 0.21516341377E+01 0.21836619706E+01
 0.22779519870E+01 0.24290848211E+01 0.26276685980E+01 0.28596340284E+01 0.31055044862E+01
 0.33405477508E+01 0.35368595123E+01 0.36677924527E+01 0.37138368801E+01 0.36677913578E+01
 0.34054387125E+01 0.32376525216E+01 0.30488397521E+01 0.28596366385E+01 0.26880475844E+01
 0.25481029499E+01 0.24496989194E+01 0.23990226710E+01 0.23990259851E+01 0.24497022011E+01
 0.25480998257E+01 0.26880435298E+01 0.28596340284E+01 0.30488305731E+01 0.32376390351E+01
 0.34054395169E+01 0.35316803070E+01 0.35995443690E+01 0.35995321073E+01 0.35316612862E+01
 0.33611136224E+01 0.32376714385E+01 0.31055211024E+01 0.29783144381E+01 0.28678181277E+01
 0.27830288104E+01 0.27299716748E+01 0.27119573357E+01 0.27299991179E+01 0.27830474235E+01
 0.28678129413E+01 0.29783017675E+01 0.31055044862E+01 0.32376390351E+01 0.33610795926E+01
 0.34619202725E+01 0.35280027096E+01 0.35510049420E+01 0.35279883792E+01 0.34619262908E+01
 0.34054544860E+01 0.33405533673E+01 0.32738211643E+01 0.32116363837E+01 0.31596992829E+01
 0.31225700004E+01 0.31032979890E+01 0.31033273968E+01 0.31226221069E+01 0.31597195817E+01
 0.32116247859E+01 0.32738099574E+01 0.33405477508E+01 0.34054395169E+01 0.34619202725E+01
 0.35038173756E+01 0.35261669258E+01 0.35261681842E+01 0.35038276000E+01 0.34619406000E+01
 0.35368749924E+01 0.35420026216E+01 0.35452020265E+01 0.35455512855E+01 0.35437280115E+01
 0.35414920231E+01 0.35405318744E+01 0.35415139601E+01 0.35437562990E+01 0.35455735663E+01
 0.35452156942E+01 0.35420032205E+01 0.35368595123E+01 0.35316803070E+01 0.35280027096E+01
 0.35261669258E+01 0.35256681721E+01 0.35261689859E+01 0.35280156248E+01 0.35317020211E+01
 0.37475949771E+01 0.38276760096E+01 0.38974088209E+01 0.39500259910E+01 0.39836670488E+01
 0.39996585395E+01 0.39996617118E+01 0.39836756085E+01 0.39500383518E+01 0.38974198958E+01
 0.38276723059E+01 0.37475654349E+01 0.36677924527E+01 0.35995443690E+01 0.35510049420E+01
 0.35261681842E+01 0.35261689859E+01 0.35510170003E+01 0.35995788791E+01 0.36678374433E+01
 0.40180858398E+01 0.41681089676E+01 0.42918727491E+01 0.43799308899E+01 0.44309535408E+01
 0.44474743670E+01 0.44309962129E+01 0.43799540625E+01 0.42918472270E+01 0.41680710050E+01
 0.40180652857E+01 0.38595207834E+01 0.37138368801E+01 0.35995321073E+01 0.35279883792E+01
 0.35038276000E+01 0.35280156248E+01 0.35995788791E+01 0.37138791766E+01 0.38595422543E+01
 0.43158430340E+01 0.45211075148E+01 0.46800897385E+01 0.47842761358E+01 0.48347072721E+01
 0.48347432390E+01 0.47843300577E+01 0.46800875688E+01 0.45210664023E+01 0.43158241831E+01
 0.40854106518E+01 0.38595254310E+01 0.36677913578E+01 0.35316612862E+01 0.34619262908E+01
 0.34619406000E+01 0.35317020211E+01 0.36678374433E+01 0.38595422543E+01 0.40854056783E+01
 0.52168471895E+01 0.54903200529E+01 0.56407182949E+01 0.56979288825E+01 0.56979739966E+01
 0.56408742120E+01 0.54905630787E+01 0.52170340017E+01 0.48421956899E+01 0.44188578499E+01
 0.40042128309E+01 0.36535185408E+01 0.34054292964E+01 0.32786230232E+01 0.32786024459E+01
 0.34054115326E+01 0.36535901412E+01 0.40043972084E+01 0.44190372682E+01 0.48422049282E+01
 0.54903200529E+01 0.57083625025E+01 0.58025463940E+01 0.58250277941E+01 0.58024261120E+01
 0.57083550830E+01 0.54905123531E+01 0.51304611217E+01 0.46800816592E+01 0.42084610243E+01
 0.37795357162E+01 0.34456782767E+01 0.32376437113E+01 0.31674692081E+01 0.32376211523E+01
 0.34457084480E+01 0.37796787554E+01 0.42086368411E+01 0.46801008894E+01 0.51302736610E+01
 0.56407182949E+01 0.58025463940E+01 0.58593027323E+01 0.58591651055E+01 0.58023234643E+01
 0.56407098663E+01 0.53283480804E+01 0.48818745430E+01 0.43799539554E+01 0.38935935293E+01
 0.34847518226E+01 0.31962508520E+01 0.30488363527E+01 0.30488173567E+01 0.31962406957E+01
 0.34848270304E+01 0.38937311750E+01 0.43799950126E+01 0.48817184873E+01 0.53281453709E+01
 0.56979288825E+01 0.58250277941E+01 0.58591651055E+01 0.58248282643E+01 0.56977530772E+01
 0.54310204875E+01 0.50128315197E+01 0.45039912172E+01 0.39836819469E+01 0.35176632401E+01
 0.31580354958E+01 0.29348252700E+01 0.28596396483E+01 0.29348322757E+01 0.31580750450E+01
 0.35177228458E+01 0.39836827369E+01 0.45038729983E+01 0.50126754292E+01 0.54310001567E+01
 0.56979739966E+01 0.58024261120E+01 0.58023234643E+01 0.56977530772E+01 0.54607394917E+01
 0.50742349959E+01 0.45766791951E+01 0.40439355663E+01 0.35415186719E+01 0.31261902894E+01
 0.28357860666E+01 0.26880361465E+01 0.26880539562E+01 0.28358270598E+01 0.31262142767E+01
 0.35414779758E+01 0.40438226908E+01 0.45765688695E+01 0.50742425411E+01 0.54609042586E+01
 0.56408742120E+01 0.57083550830E+01 0.56407098663E+01 0.54310204875E+01 0.50742349959E+01
 0.46003035619E+01 0.40735312814E+01 0.35554934934E+01 0.31033280399E+01 0.27596989483E+01
 0.25480897518E+01 0.24770439098E+01 0.25481092784E+01 0.27597074768E+01 0.31032953561E+01
 0.35554193246E+01 0.40734544277E+01 0.46002942582E+01 0.50743482110E+01 0.54312234212E+01
 0.54905630787E+01 0.54905123531E+01 0.53283480804E+01 0.50128315197E+01 0.45766791951E+01
 0.40735312814E+01 0.35600223952E+01 0.30913464041E+01 0.27119589387E+01 0.24497046821E+01
 0.23169420530E+01 0.23169455293E+01 0.24497035913E+01 0.27119410308E+01 0.30913195564E+01
 0.35599984928E+01 0.40735157811E+01 0.45766939772E+01 0.50129042308E+01 0.53284516302E+01
 0.52170340017E+01 0.51304611217E+01 0.48818745430E+01 0.45039912172E+01 0.40439355663E+01
 0.35554934934E+01 0.30913464041E+01 0.26956949442E+01 0.23990255271E+01 0.22173933469E+01
 0.21565090854E+01 0.22173988180E+01 0.23990251362E+01 0.26956881034E+01 0.30913442426E+01
 0.35554979561E+01 0.40439385667E+01 0.45039937926E+01 0.48818848836E+01 0.51304738829E+01
 0.48421956899E+01 0.46800816592E+01 0.43799539554E+01 0.39836819469E+01 0.35415186719E+01
 0.31033280399E+01 0.27119589387E+01 0.23990255271E+01 0.21836530463E+01 0.20746220305E+01
 0.20746248215E+01 0.21836586608E+01 0.23990264039E+01 0.27119518939E+01 0.31033272656E+01
 0.35415430470E+01 0.39837234714E+01 0.43799808258E+01 0.46800809185E+01 0.48421895520E+01
 0.44188578499E+01 0.42084610243E+01 0.38935935293E+01 0.35176632401E+01 0.31261902894E+01
 0.27596989483E+01 0.24497046821E+01 0.22173933469E+01 0.20746220305E+01 0.20265833578E+01
 0.20746171848E+01 0.22173921180E+01 0.24497019611E+01 0.27596894760E+01 0.31261962050E+01
 0.35177071946E+01 0.38936511297E+01 0.42084876778E+01 0.44188540293E+01 0.44929125074E+01
 0.40042128309E+01 0.37795357162E+01 0.34847518226E+01 0.31580354958E+01 0.28357860666E+01
 0.25480897518E+01 0.23169420530E+01 0.21565090854E+01 0.20746248215E+01 0.20746171848E+01
 0.21565022859E+01 0.23169524184E+01 0.25481004636E+01 0.28357781365E+01 0.31580252044E+01
 0.34847650618E+01 0.37795664401E+01 0.40042363683E+01 0.41261040644E+01 0.41260968340E+01
 0.36535185408E+01 0.34456782767E+01 0.31962508520E+01 0.29348252700E+01 0.26880361465E+01
 0.24770439098E+01 0.23169455293E+01 0.22173988180E+01 0.21836586608E+01 0.22173921180E+01
 0.23169524184E+01 0.24770660081E+01 0.26880448841E+01 0.29348022065E+01 0.31962198031E+01
 0.34456802010E+01 0.36535600622E+01 0.37919232509E+01 0.38405042496E+01 0.37918810879E+01
 0.34054292964E+01 0.32376437113E+01 0.30488363527E+01 0.28596396483E+01 0.26880539562E+01
 0.25481092784E+01 0.24497035913E+01 0.23990251362E+01 0.23990264039E+01 0.24497019611E+01
 0.25481004636E+01 0.26880448841E+01 0.28596348468E+01 0.30488307194E+01 0.32376395696E+01
 0.34054408477E+01 0.35316816813E+01 0.35995447323E+01 0.35995300951E+01 0.35316553382E+01
 0.32786230232E+01 0.31674692081E+01 0.30488173567E+01 0.29348322757E+01 0.28358270598E+01
 0.27597074768E+01 0.27119410308E+01 0.26956881034E+01 0.27119518939E+01 0.27596894760E+01
 0.28357781365E+01 0.29348022065E+01 0.30488307194E+01 0.31674906588E+01 0.32786145068E+01
 0.33695991715E+01 0.34293260240E+01 0.34501508990E+01 0.34293497948E+01 0.33696300701E+01
 0.32786024459E+01 0.32376211523E+01 0.31962406957E+01 0.31580750450E+01 0.31262142767E+01
 0.31032953561E+01 0.30913195564E+01 0.30913442426E+01 0.31033272656E+01 0.31261962050E+01
 0.31580252044E+01 0.31962198031E+01 0.32376395696E+01 0.32786145068E+01 0.33149800738E+01
 0.33424181546E+01 0.33572274975E+01 0.33572451513E+01 0.33424562761E+01 0.33150032449E+01
 0.34054115326E+01 0.34457084480E+01 0.34848270304E+01 0.35177228458E+01 0.35414779758E+01
 0.35554193246E+01 0.35599984928E+01 0.35554979561E+01 0.35415430470E+01 0.35177071946E+01
 0.34847650618E+01 0.34456802010E+01 0.34054408477E+01 0.33695991715E+01 0.33424181546E+01
 0.33259353836E+01 0.33204848505E+01 0.33259468631E+01 0.33424082484E+01 0.33695578533E+01
 0.36535901412E+01 0.37796787554E+01 0.38937311750E+01 0.39836827369E+01 0.40438226908E+01
 0.40734544277E+01 0.40735157811E+01 0.40439385667E+01 0.39837234714E+01 0.38936511297E+01
 0.37795664401E+01 0.36535600622E+01 0.35316816813E+01 0.34293260240E+01 0.33572274975E+01
 0.33204848505E+01 0.33204890534E+01 0.33572094407E+01 0.34292583393E+01 0.35316202774E+01
 0.40043972084E+01 0.42086368411E+01 0.43799950126E+01 0.45038729983E+01 0.45765688695E+01
 0.46002942582E+01 0.45766939772E+01 0.45039937926E+01 0.43799808258E+01 0.42084876778E+01
 0.40042363683E+01 0.37919232509E+01 0.35995447323E+01 0.34501508990E+01 0.33572451513E+01
 0.33259468631E+01 0.33572094407E+01 0.34500870144E+01 0.35995060077E+01 0.37919839984E+01
 0.44190372682E+01 0.46801008894E+01 0.48817184873E+01 0.50126754292E+01 0.50742425411E+01
 0.50743482110E+01 0.50129042308E+01 0.48818848836E+01 0.46800809185E+01 0.44188540293E+01
 0.41261040644E+01 0.38405042496E+01 0.35995300951E+01 0.34293497948E+01 0.33424562761E+01
 0.33424082484E+01 0.34292583393E+01 0.35995060077E+01 0.38406171456E+01 0.41263176233E+01
 0.48422049282E+01 0.51302736610E+01 0.53281453709E+01 0.54310001567E+01 0.54609042586E+01
 0.54312234212E+01 0.53284516302E+01 0.51304738829E+01 0.48421895520E+01 0.44929125074E+01
 0.41260968340E+01 0.37918810879E+01 0.35316553382E+01 0.33696300701E+01 0.33150032449E+01
 0.33695578533E+01 0.35316202774E+01 0.37919839984E+01 0.41263176233E+01 0.44931069451E+01
 0.57890445340E+01 0.58839707840E+01 0.58594851738E+01 0.58333819455E+01 0.58594576917E+01
 0.58840019149E+01 0.57891388435E+01 0.54905495915E+01 0.50162583314E+01 0.44863739938E+01
 0.39935573596E+01 0.36049596703E+01 0.33611003589E+01 0.32786028663E+01 0.33610899877E+01
 0.36049209764E+01 0.39935242388E+01 0.44863885579E+01 0.50162762217E+01 0.54904942547E+01
 0.58839707840E+01 0.58622907285E+01 0.57954363104E+01 0.57953154295E+01 0.58620876799E+01
 0.58839258566E+01 0.57235116391E+01 0.53284271428E+01 0.47843165423E+01 0.42305981598E+01
 0.37540384026E+01 0.34131124967E+01 0.32376649037E+01 0.32376285927E+01 0.34130297953E+01
 0.37539852211E+01 0.42306246266E+01 0.47843547179E+01 0.53283688485E+01 0.57234111869E+01
 0.58594851738E+01 0.57954363104E+01 0.57529562887E+01 0.57953934112E+01 0.58594474927E+01
 0.58032462148E+01 0.55163688478E+01 0.50128894720E+01 0.44309966204E+01 0.38905017932E+01
 0.34641544271E+01 0.31962551761E+01 0.31055266792E+01 0.31962541935E+01 0.34641243044E+01
 0.38904596053E+01 0.44309930341E+01 0.50129276408E+01 0.55164012338E+01 0.58032664010E+01
 0.58333819455E+01 0.57953154295E+01 0.57953934112E+01 0.58335165467E+01 0.58078630041E+01
 0.55953969360E+01 0.51548973826E+01 0.45766923393E+01 0.39996738513E+01 0.35080481157E+01
 0.31580357404E+01 0.29782903167E+01 0.29783281581E+01 0.31580885739E+01 0.35080294476E+01
 0.39996100851E+01 0.45767032781E+01 0.51550227349E+01 0.55955172375E+01 0.58078423785E+01
 0.58594576917E+01 0.58620876799E+01 0.58594474927E+01 0.58078630041E+01 0.56136003792E+01
 0.52172824919E+01 0.46624430519E+01 0.40735133126E+01 0.35405405672E+01 0.31262267611E+01
 0.28678365410E+01 0.27805875520E+01 0.28678312317E+01 0.31262219731E+01 0.35405417044E+01
 0.40735268308E+01 0.46624815826E+01 0.52173459417E+01 0.56136640603E+01 0.58079005695E+01
 0.58840019149E+01 0.58839258566E+01 0.58032462148E+01 0.55953969360E+01 0.52172824919E+01
 0.46904486506E+01 0.41102092329E+01 0.35599936426E+01 0.31033000415E+01 0.27830773210E+01
 0.26198640616E+01 0.26198400985E+01 0.27830375526E+01 0.31032969908E+01 0.35600277008E+01
 0.41102275292E+01 0.46904300886E+01 0.52172878034E+01 0.55954953366E+01 0.58033998077E+01
 0.57891388435E+01 0.57235116391E+01 0.55163688478E+01 0.51548973826E+01 0.46624430519E+01
 0.41102092329E+01 0.35664515075E+01 0.30913237665E+01 0.27299763207E+01 0.25073667601E+01
 0.24326121883E+01 0.25073751973E+01 0.27299774878E+01 0.30913183419E+01 0.35664564007E+01
 0.41102250544E+01 0.46624535043E+01 0.51549009529E+01 0.55163790098E+01 0.57235256355E+01
 0.54905495915E+01 0.53284271428E+01 0.50128894720E+01 0.45766923393E+01 0.40735133126E+01
 0.35599936426E+01 0.30913237665E+01 0.27119517249E+01 0.24497061048E+01 0.23169410013E+01
 0.23169449558E+01 0.24497140620E+01 0.27119605425E+01 0.30913417404E+01 0.35600270411E+01
 0.40735455972E+01 0.45766886826E+01 0.50128342282E+01 0.53283534313E+01 0.54905154221E+01
 0.50162583314E+01 0.47843165423E+01 0.44309966204E+01 0.39996738513E+01 0.35405405672E+01
 0.31033000415E+01 0.27299763207E+01 0.24497061048E+01 0.22779462401E+01 0.22203230808E+01
 0.22779275187E+01 0.24497026638E+01 0.27299990432E+01 0.31033236451E+01 0.35405497244E+01
 0.39996812337E+01 0.44310100442E+01 0.47843236340E+01 0.50162559072E+01 0.50971076808E+01
 0.44863739938E+01 0.42305981598E+01 0.38905017932E+01 0.35080481157E+01 0.31262267611E+01
 0.27830773210E+01 0.25073667601E+01 0.23169410013E+01 0.22203230808E+01 0.22203238086E+01
 0.23169423313E+01 0.25073584031E+01 0.27830465051E+01 0.31261929604E+01 0.35080560467E+01
 0.38905580278E+01 0.42306541707E+01 0.44863928006E+01 0.46238509597E+01 0.46238518041E+01
 0.39935573596E+01 0.37540384026E+01 0.34641544271E+01 0.31580357404E+01 0.28678365410E+01
 0.26198640616E+01 0.24326121883E+01 0.23169449558E+01 0.22779275187E+01 0.23169423313E+01
 0.24326047794E+01 0.26198475921E+01 0.28678142076E+01 0.31580236574E+01 0.34641636509E+01
 0.37540554657E+01 0.39935617755E+01 0.41518697309E+01 0.42072653804E+01 0.41518758908E+01
 0.36049596703E+01 0.34131124967E+01 0.31962551761E+01 0.29782903167E+01 0.27805875520E+01
 0.26198400985E+01 0.25073751973E+01 0.24497140620E+01 0.24497026638E+01 0.25073584031E+01
 0.26198475921E+01 0.27806186466E+01 0.29783036532E+01 0.31962185551E+01 0.34130551594E+01
 0.36049418320E+01 0.37486959430E+01 0.38257385130E+01 0.38257158357E+01 0.37486655193E+01
 0.33611003589E+01 0.32376649037E+01 0.31055266792E+01 0.29783281581E+01 0.28678312317E+01
 0.27830375526E+01 0.27299774878E+01 0.27119605425E+01 0.27299990432E+01 0.27830465051E+01
 0.28678142076E+01 0.29783036532E+01 0.31055037299E+01 0.32376368588E+01 0.33610794411E+01
 0.34619212898E+01 0.35280008542E+01 0.35509987250E+01 0.35279787205E+01 0.34619135653E+01
 0.32786028663E+01 0.32376285927E+01 0.31962541935E+01 0.31580885739E+01 0.31262219731E+01
 0.31032969908E+01 0.30913183419E+01 0.30913417404E+01 0.31033236451E+01 0.31261929604E+01
 0.31580236574E+01 0.31962185551E+01 0.32376368588E+01 0.32786114578E+01 0.33149784235E+01
 0.33424165277E+01 0.33572232378E+01 0.33572384293E+01 0.33424496641E+01 0.33149990335E+01
 0.33610899877E+01 0.34130297953E+01 0.34641243044E+01 0.35080294476E+01 0.35405417044E+01
 0.35600277008E+01 0.35664564007E+01 0.35600270411E+01 0.35405497244E+01 0.35080560467E+01
 0.34641636509E+01 0.34130551594E+01 0.33610794411E+01 0.33149784235E+01 0.32798767885E+01
 0.32583879193E+01 0.32512190244E+01 0.32584077265E+01 0.32799149156E+01 0.33150166819E+01
 0.36049209764E+01 0.37539852211E+01 0.38904596053E+01 0.39996100851E+01 0.40735268308E+01
 0.41102275292E+01 0.41102250544E+01 0.40735455972E+01 0.39996812337E+01 0.38905580278E+01
 0.37540554657E+01 0.36049418320E+01 0.34619212898E+01 0.33424165277E+01 0.32583879193E+01
 0.32155504533E+01 0.32155601575E+01 0.32584090535E+01 0.33424369369E+01 0.34619311428E+01
 0.39935242388E+01 0.42306246266E+01 0.44309930341E+01 0.45767032781E+01 0.46624815826E+01
 0.46904300886E+01 0.46624535043E+01 0.45766886826E+01 0.44310100442E+01 0.42306541707E+01
 0.39935617755E+01 0.37486959430E+01 0.35280008542E+01 0.33572232378E+01 0.32512190244E+01
 0.32155601575E+01 0.32512526309E+01 0.33572333498E+01 0.35279632670E+01 0.37486445822E+01
 0.44863885579E+01 0.47843547179E+01 0.50129276408E+01 0.51550227349E+01 0.52173459417E+01
 0.52172878034E+01 0.51549009529E+01 0.50128342282E+01 0.47843236340E+01 0.44863928006E+01
 0.41518697309E+01 0.38257385130E+01 0.35509987250E+01 0.33572384293E+01 0.32584077265E+01
 0.32584090535E+01 0.33572333498E+01 0.35509790641E+01 0.38257147409E+01 0.41518536556E+01
 0.50162762217E+01 0.53283688485E+01 0.55164012338E+01 0.55955172375E+01 0.56136640603E+01
 0.55954953366E+01 0.55163790098E+01 0.53283534313E+01 0.50162559072E+01 0.46238509597E+01
 0.42072653804E+01 0.38257158357E+01 0.35279787205E+01 0.33424496641E+01 0.32799149156E+01
 0.33424369369E+01 0.35279632670E+01 0.38257147409E+01 0.42072868449E+01 0.46238793707E+01
 0.54904942547E+01 0.57234111869E+01 0.58032664010E+01 0.58078423785E+01 0.58079005695E+01
 0.58033998077E+01 0.57235256355E+01 0.54905154221E+01 0.50971076808E+01 0.46238518041E+01
 0.41518758908E+01 0.37486655193E+01 0.34619135653E+01 0.33149990335E+01 0.33150166819E+01
 0.34619311428E+01 0.37486445822E+01 0.41518536556E+01 0.46238793707E+01 0.50971546819E+01
 0.57918219182E+01 0.55049335827E+01 0.52685832427E+01 0.52684198298E+01 0.55046201921E+01
 0.57916546403E+01 0.58840038409E+01 0.56408594474E+01 0.51182936023E+01 0.45191062873E+01
 0.39896008855E+01 0.36050037435E+01 0.34054472900E+01 0.34054243333E+01 0.36049369789E+01
 0.39895129018E+01 0.45190252405E+01 0.51182007882E+01 0.56407367269E+01 0.58839543639E+01
 0.55049335827E+01 0.51437802548E+01 0.49858053318E+01 0.51435954532E+01 0.55046879942E+01
 0.58055177480E+01 0.58033955943E+01 0.54312027318E+01 0.48347336380E+01 0.42375143327E+01
 0.37540481938E+01 0.34456959286E+01 0.33405530678E+01 0.34457279371E+01 0.37539988895E+01
 0.42373440646E+01 0.48345491753E+01 0.54311244074E+01 0.58034588379E+01 0.58057020730E+01
 0.52685832427E+01 0.49858053318E+01 0.49859032921E+01 0.52687259087E+01 0.56301020681E+01
 0.57951220936E+01 0.55954948591E+01 0.50743385079E+01 0.44474814235E+01 0.38905549650E+01
 0.34847618637E+01 0.32737601232E+01 0.32738315909E+01 0.34848490380E+01 0.38904671057E+01
 0.44472674897E+01 0.50742569134E+01 0.55956739365E+01 0.57953764873E+01 0.56301614518E+01
 0.52684198298E+01 0.51435954532E+01 0.52687259087E+01 0.55444696666E+01 0.57397284597E+01
 0.56461696253E+01 0.52172890280E+01 0.46002953209E+01 0.39996764779E+01 0.35177635795E+01
 0.32116356784E+01 0.31073916898E+01 0.32116512499E+01 0.35177383202E+01 0.39996086198E+01
 0.46002987170E+01 0.52174627396E+01 0.56464052410E+01 0.57397603596E+01 0.55442007919E+01
 0.55046201921E+01 0.55046879942E+01 0.56301020681E+01 0.57397284597E+01 0.56520213011E+01
 0.52772778585E+01 0.46904220571E+01 0.40734525438E+01 0.35415037092E+01 0.31597852672E+01
 0.29627810448E+01 0.29627395810E+01 0.31597092312E+01 0.35414808962E+01 0.40735171772E+01
 0.46905384468E+01 0.52773777387E+01 0.56520384112E+01 0.57396374732E+01 0.56299625342E+01
 0.57916546403E+01 0.58055177480E+01 0.57951220936E+01 0.56461696253E+01 0.52772778585E+01
 0.47198768759E+01 0.41102142376E+01 0.35554153639E+01 0.31225741719E+01 0.28520516990E+01
 0.27606208408E+01 0.28520547732E+01 0.31225748872E+01 0.35554137865E+01 0.41102150668E+01
 0.47198776241E+01 0.52772700901E+01 0.56461530725E+01 0.57951065183E+01 0.58055100965E+01
 0.58840038409E+01 0.58033955943E+01 0.55954948591E+01 0.52172890280E+01 0.46904220571E+01
 0.41102142376E+01 0.35600237628E+01 0.31033014669E+01 0.27830369124E+01 0.26198346487E+01
 0.26198661849E+01 0.27830860678E+01 0.31033031000E+01 0.35599921845E+01 0.41102150870E+01
 0.46904590117E+01 0.52172833064E+01 0.55953896314E+01 0.58032455258E+01 0.58839327655E+01
 0.56408594474E+01 0.54312027318E+01 0.50743385079E+01 0.46002953209E+01 0.40734525438E+01
 0.35554153639E+01 0.31033014669E+01 0.27597201230E+01 0.25481137467E+01 0.24770420226E+01
 0.25480955216E+01 0.27597106430E+01 0.31033321839E+01 0.35554924307E+01 0.40735387244E+01
 0.46003165175E+01 0.50742378799E+01 0.54310134003E+01 0.56407053979E+01 0.57083514111E+01
 0.51182936023E+01 0.48347336380E+01 0.44474814235E+01 0.39996764779E+01 0.35415037092E+01
 0.31225741719E+01 0.27830369124E+01 0.25481137467E+01 0.24290907548E+01 0.24290693818E+01
 0.25480857094E+01 0.27830524232E+01 0.31226227331E+01 0.35415362238E+01 0.39996755383E+01
 0.44474654263E+01 0.48347137955E+01 0.51182727246E+01 0.52666261165E+01 0.52666360809E+01
 0.45191062873E+01 0.42375143327E+01 0.38905549650E+01 0.35177635795E+01 0.31597852672E+01
 0.28520516990E+01 0.26198346487E+01 0.24770420226E+01 0.24290693818E+01 0.24770525303E+01
 0.26198399443E+01 0.28520240215E+01 0.31597182593E+01 0.35177005913E+01 0.38905534639E+01
 0.42375821662E+01 0.45191939136E+01 0.47026205637E+01 0.47662611441E+01 0.47025657681E+01
 0.39896008855E+01 0.37540481938E+01 0.34847618637E+01 0.32116356784E+01 0.29627810448E+01
 0.27606208408E+01 0.26198661849E+01 0.25480955216E+01 0.25480857094E+01 0.26198399443E+01
 0.27605892612E+01 0.29627577847E+01 0.32116261264E+01 0.34847612559E+01 0.37540529701E+01
 0.39896139333E+01 0.41641812043E+01 0.42570465398E+01 0.42570375011E+01 0.41641630588E+01
 0.36050037435E+01 0.34456959286E+01 0.32737601232E+01 0.31073916898E+01 0.29627395810E+01
 0.28520547732E+01 0.27830860678E+01 0.27597106430E+01 0.27830524232E+01 0.28520240215E+01
 0.29627577847E+01 0.31074587046E+01 0.32738117204E+01 0.34456769968E+01 0.36049403484E+01
 0.37339292144E+01 0.38178676563E+01 0.38469794176E+01 0.38178725478E+01 0.37339706068E+01
 0.34054472900E+01 0.33405530678E+01 0.32738315909E+01 0.32116512499E+01 0.31597092312E+01
 0.31225748872E+01 0.31033031000E+01 0.31033321839E+01 0.31226227331E+01 0.31597182593E+01
 0.32116261264E+01 0.32738117204E+01 0.33405451886E+01 0.34054351307E+01 0.34619192930E+01
 0.35038172255E+01 0.35261610696E+01 0.35261570955E+01 0.35038167414E+01 0.34619315439E+01
 0.34054243333E+01 0.34457279371E+01 0.34848490380E+01 0.35177383202E+01 0.35414808962E+01
 0.35554137865E+01 0.35599921845E+01 0.35554924307E+01 0.35415362238E+01 0.35177005913E+01
 0.34847612559E+01 0.34456769968E+01 0.34054351307E+01 0.33695931133E+01 0.33424148370E+01
 0.33259319269E+01 0.33204770021E+01 0.33259374132E+01 0.33424043402E+01 0.33695627256E+01
 0.36049369789E+01 0.37539988895E+01 0.38904671057E+01 0.39996086198E+01 0.40735171772E+01
 0.41102150668E+01 0.41102150870E+01 0.40735387244E+01 0.39996755383E+01 0.38905534639E+01
 0.37540529701E+01 0.36049403484E+01 0.34619192930E+01 0.33424148370E+01 0.32583877441E+01
 0.32155505275E+01 0.32155593498E+01 0.32584101752E+01 0.33424442258E+01 0.34619448173E+01
 0.39895129018E+01 0.42373440646E+01 0.44472674897E+01 0.46002987170E+01 0.46905384468E+01
 0.47198776241E+01 0.46904590117E+01 0.46003165175E+01 0.44474654263E+01 0.42375821662E+01
 0.39896139333E+01 0.37339292144E+01 0.35038172255E+01 0.33259319269E+01 0.32155505275E+01
 0.31783932085E+01 0.32155465421E+01 0.33259634319E+01 0.35038963714E+01 0.37339757824E+01
 0.45190252405E+01 0.48345491753E+01 0.50742569134E+01 0.52174627396E+01 0.52773777387E+01
 0.52772700901E+01 0.52172833064E+01 0.50742378799E+01 0.48347137955E+01 0.45191939136E+01
 0.41641812043E+01 0.38178676563E+01 0.35261610696E+01 0.33204770021E+01 0.32155593498E+01
 0.32155465421E+01 0.33204644125E+01 0.35261878060E+01 0.38179087928E+01 0.41641390184E+01
 0.51182007882E+01 0.54311244074E+01 0.55956739365E+01 0.56464052410E+01 0.56520384112E+01
 0.56461530725E+01 0.55953896314E+01 0.54310134003E+01 0.51182727246E+01 0.47026205637E+01
 0.42570465398E+01 0.38469794176E+01 0.35261570955E+01 0.33259374132E+01 0.32584101752E+01
 0.33259634319E+01 0.35261878060E+01 0.38469759158E+01 0.42569724324E+01 0.47024923401E+01
 0.56407367269E+01 0.58034588379E+01 0.57953764873E+01 0.57397603596E+01 0.57396374732E+01
 0.57951065183E+01 0.58032455258E+01 0.56407053979E+01 0.52666261165E+01 0.47662611441E+01
 0.42570375011E+01 0.38178725478E+01 0.35038167414E+01 0.33424043402E+01 0.33424442258E+01
 0.35038963714E+01 0.38179087928E+01 0.42569724324E+01 0.47661175248E+01 0.52665091657E+01
 0.58839543639E+01 0.58057020730E+01 0.56301614518E+01 0.55442007919E+01 0.56299625342E+01
 0.58055100965E+01 0.58839327655E+01 0.57083514111E+01 0.52666360809E+01 0.47025657681E+01
 0.41641630588E+01 0.37339706068E+01 0.34619315439E+01 0.33695627256E+01 0.34619448173E+01
 0.37339757824E+01 0.41641390184E+01 0.47024923401E+01 0.52665091657E+01 0.57082350213E+01
 0.47911007432E+01 0.40986665203E+01 0.38139209287E+01 0.40987290734E+01 0.47911923639E+01
 0.55046398245E+01 0.58594774255E+01 0.56979698728E+01 0.51511163531E+01 0.45190679058E+01
 0.39935328162E+01 0.36535616984E+01 0.35368676104E+01 0.36536056793E+01 0.39935444251E+01
 0.45190259029E+01 0.51510854632E+01 0.56979823603E+01 0.58594800087E+01 0.55045817184E+01
 0.40986665203E+01 0.35118880967E+01 0.35119542615E+01 0.40987681449E+01 0.49538872790E+01
 0.56299928037E+01 0.58079143294E+01 0.54608923070E+01 0.48347021739E+01 0.42306426630E+01
 0.37795551663E+01 0.35419084418E+01 0.35419956768E+01 0.37796938554E+01 0.42306320409E+01
 0.48345369645E+01 0.54607652569E+01 0.58079570400E+01 0.56301098522E+01 0.49539022403E+01
 0.38139209287E+01 0.35119542615E+01 0.38139746000E+01 0.45529405726E+01 0.53278558289E+01
 0.57396620768E+01 0.56136690665E+01 0.50742319120E+01 0.44309592889E+01 0.38937371994E+01
 0.35452188411E+01 0.34253433914E+01 0.35452025172E+01 0.38937447178E+01 0.44309874257E+01
 0.50742367549E+01 0.56136486306E+01 0.57396534815E+01 0.53278493018E+01 0.45528991188E+01
 0.40987290734E+01 0.40987681449E+01 0.45529405726E+01 0.51926514162E+01 0.56444111963E+01
 0.56520522487E+01 0.52173423300E+01 0.45765624437E+01 0.39836809414E+01 0.35456749334E+01
 0.33160353223E+01 0.33159590886E+01 0.35455584636E+01 0.39836911703E+01 0.45766884453E+01
 0.52174426508E+01 0.56520558690E+01 0.56443507836E+01 0.51925650199E+01 0.45528543537E+01
 0.47911923639E+01 0.49538872790E+01 0.53278558289E+01 0.56444111963E+01 0.56525922849E+01
 0.52773873037E+01 0.46624713927E+01 0.40438165041E+01 0.35437389612E+01 0.32246979649E+01
 0.31158161950E+01 0.32246834561E+01 0.35437346381E+01 0.40438219972E+01 0.46624613929E+01
 0.52773617007E+01 0.56525767261E+01 0.56444076945E+01 0.53278425110E+01 0.49538672112E+01
 0.55046398245E+01 0.56299928037E+01 0.57396620768E+01 0.56520522487E+01 0.52773873037E+01
 0.46905447657E+01 0.40735152275E+01 0.35414737899E+01 0.31597058050E+01 0.29627388602E+01
 0.29627749195E+01 0.31597748340E+01 0.35414969895E+01 0.40734479305E+01 0.46904103147E+01
 0.52772591514E+01 0.56520048242E+01 0.57397174345E+01 0.56300947073E+01 0.55046901740E+01
 0.58594774255E+01 0.58079143294E+01 0.56136690665E+01 0.52173423300E+01 0.46624713927E+01
 0.40735152275E+01 0.35405338355E+01 0.31262177750E+01 0.28678272439E+01 0.27805832582E+01
 0.28678343635E+01 0.31262266451E+01 0.35405397353E+01 0.40735109397E+01 0.46624402894E+01
 0.52172787766E+01 0.56135952958E+01 0.58078612176E+01 0.58594556548E+01 0.58621056176E+01
 0.56979698728E+01 0.54608923070E+01 0.50742319120E+01 0.45765624437E+01 0.40438165041E+01
 0.35414737899E+01 0.31262177750E+01 0.28358350923E+01 0.26880580226E+01 0.26880370637E+01
 0.28357913171E+01 0.31261989713E+01 0.35415232429E+01 0.40439362410E+01 0.45766822583E+01
 0.50742391739E+01 0.54607385448E+01 0.56977495401E+01 0.58023249014E+01 0.58024297282E+01
 0.51511163531E+01 0.48347021739E+01 0.44309592889E+01 0.39836809414E+01 0.35437389612E+01
 0.31597058050E+01 0.28678272439E+01 0.26880580226E+01 0.26276811322E+01 0.26880461775E+01
 0.28678207538E+01 0.31597138514E+01 0.35437606170E+01 0.39837188594E+01 0.44310053419E+01
 0.48347169508E+01 0.51510771395E+01 0.53472568871E+01 0.54126965343E+01 0.53473080926E+01
 0.45190679058E+01 0.42306426630E+01 0.38937371994E+01 0.35456749334E+01 0.32246979649E+01
 0.29627388602E+01 0.27805832582E+01 0.26880370637E+01 0.26880461775E+01 0.27806047805E+01
 0.29627464455E+01 0.32246529404E+01 0.35455734996E+01 0.38936440865E+01 0.42306490905E+01
 0.45191962986E+01 0.47287257550E+01 0.48385488680E+01 0.48384743373E+01 0.47285611393E+01
 0.39935328162E+01 0.37795551663E+01 0.35452188411E+01 0.33160353223E+01 0.31158161950E+01
 0.29627749195E+01 0.28678343635E+01 0.28357913171E+01 0.28678207538E+01 0.29627464455E+01
 0.31157856139E+01 0.33160195188E+01 0.35452175171E+01 0.37795614864E+01 0.39935591453E+01
 0.41641845911E+01 0.42737850581E+01 0.43115056417E+01 0.42737332897E+01 0.41641291851E+01
 0.36535616984E+01 0.35419084418E+01 0.34253433914E+01 0.33159590886E+01 0.32246834561E+01
 0.31597748340E+01 0.31262266451E+01 0.31261989713E+01 0.31597138514E+01 0.32246529404E+01
 0.33160195188E+01 0.34254733661E+01 0.35420067296E+01 0.36535571470E+01 0.37486966135E+01
 0.38178736747E+01 0.38542512742E+01 0.38542739188E+01 0.38179397833E+01 0.37487705792E+01
 0.35368676104E+01 0.35419956768E+01 0.35452025172E+01 0.35455584636E+01 0.35437346381E+01
 0.35414969895E+01 0.35405397353E+01 0.35415232429E+01 0.35437606170E+01 0.35455734996E+01
 0.35452175171E+01 0.35420067296E+01 0.35368590216E+01 0.35316765646E+01 0.35280016421E+01
 0.35261675185E+01 0.35256637469E+01 0.35261597030E+01 0.35280078710E+01 0.35316965286E+01
 0.36536056793E+01 0.37796938554E+01 0.38937447178E+01 0.39836911703E+01 0.40438219972E+01
 0.40734479305E+01 0.40735109397E+01 0.40439362410E+01 0.39837188594E+01 0.38936440865E+01
 0.37795614864E+01 0.36535571470E+01 0.35316765646E+01 0.34293191633E+01 0.33572230912E+01
 0.33204818821E+01 0.33204831198E+01 0.33572030927E+01 0.34292598158E+01 0.35316317022E+01
 0.39935444251E+01 0.42306320409E+01 0.44309874257E+01 0.45766884453E+01 0.46624613929E+01
 0.46904103147E+01 0.46624402894E+01 0.45766822583E+01 0.44310053419E+01 0.42306490905E+01
 0.39935591453E+01 0.37486966135E+01 0.35280016421E+01 0.33572230912E+01 0.32512207025E+01
 0.32155646128E+01 0.32512584525E+01 0.33572427844E+01 0.35279811385E+01 0.37486688654E+01
 0.45190259029E+01 0.48345369645E+01 0.50742367549E+01 0.52174426508E+01 0.52773617007E+01
 0.52772591514E+01 0.52172787766E+01 0.50742391739E+01 0.48347169508E+01 0.45191962986E+01
 0.41641845911E+01 0.38178736747E+01 0.35261675185E+01 0.33204818821E+01 0.32155646128E+01
 0.32155545504E+01 0.33204744164E+01 0.35261986588E+01 0.38179205987E+01 0.41641488182E+01
 0.51510854632E+01 0.54607652569E+01 0.56136486306E+01 0.56520558690E+01 0.56525767261E+01
 0.56520048242E+01 0.56135952958E+01 0.54607385448E+01 0.51510771395E+01 0.47287257550E+01
 0.42737850581E+01 0.38542512742E+01 0.35256637469E+01 0.33204831198E+01 0.32512584525E+01
 0.33204744164E+01 0.35256286830E+01 0.38541982747E+01 0.42737470889E+01 0.47287155514E+01
 0.56979823603E+01 0.58079570400E+01 0.57396534815E+01 0.56443507836E+01 0.56444076945E+01
 0.57397174345E+01 0.58078612176E+01 0.56977495401E+01 0.53472568871E+01 0.48385488680E+01
 0.43115056417E+01 0.38542739188E+01 0.35261597030E+01 0.33572030927E+01 0.33572427844E+01
 0.35261986588E+01 0.38541982747E+01 0.43113583857E+01 0.48385139352E+01 0.53474242574E+01
 0.58594800087E+01 0.56301098522E+01 0.53278493018E+01 0.51925650199E+01 0.53278425110E+01
 0.56300947073E+01 0.58594556548E+01 0.58023249014E+01 0.54126965343E+01 0.48384743373E+01
 0.42737332897E+01 0.38179397833E+01 0.35280078710E+01 0.34292598158E+01 0.35279811385E+01
 0.38179205987E+01 0.42737470889E+01 0.48385139352E+01 0.54127386890E+01 0.58023577162E+01
 0.55045817184E+01 0.49539022403E+01 0.45528991188E+01 0.45528543537E+01 0.49538672112E+01
 0.55046901740E+01 0.58621056176E+01 0.58024297282E+01 0.53473080926E+01 0.47285611393E+01
 0.41641291851E+01 0.37487705792E+01 0.35316965286E+01 0.35316317022E+01 0.37486688654E+01
 0.41641488182E+01 0.47287155514E+01 0.53474242574E+01 0.58023577162E+01 0.58619166127E+01
 0.27790343931E+01 0.19102629275E+01 0.19105411853E+01 0.27795876231E+01 0.40987255480E+01
 0.52684412563E+01 0.58334076647E+01 0.56979267658E+01 0.51182832798E+01 0.44863721122E+01
 0.40042111722E+01 0.37474606196E+01 0.37475783430E+01 0.40044044023E+01 0.44864011020E+01
 0.51181867318E+01 0.56979599054E+01 0.58336250585E+01 0.52685366396E+01 0.40984117360E+01
 0.19102629275E+01 0.14210674903E+01 0.19105055578E+01 0.31444112450E+01 0.45528687000E+01
 0.55442325016E+01 0.58078602405E+01 0.54309867207E+01 0.47842657898E+01 0.42086172247E+01
 0.38276711642E+01 0.36954593704E+01 0.38276567639E+01 0.42086418256E+01 0.47843508820E+01
 0.54310918559E+01 0.58079293927E+01 0.55442065418E+01 0.45526931452E+01 0.31441159272E+01
 0.19105411853E+01 0.19105055578E+01 0.27598073145E+01 0.40496752366E+01 0.51925576640E+01
 0.57397731140E+01 0.55955132225E+01 0.50126522575E+01 0.43799248855E+01 0.38975709234E+01
 0.36405718347E+01 0.36404462587E+01 0.38973990716E+01 0.43800027664E+01 0.50129147466E+01
 0.55956382368E+01 0.57396332875E+01 0.51923392408E+01 0.40495860313E+01 0.27598456515E+01
 0.27795876231E+01 0.31444112450E+01 0.40496752366E+01 0.50379302330E+01 0.56443297068E+01
 0.56464033710E+01 0.51550057469E+01 0.45038520169E+01 0.39500301144E+01 0.35883960844E+01
 0.34636533785E+01 0.35883664401E+01 0.39500327848E+01 0.45038870944E+01 0.51550122529E+01
 0.56463837485E+01 0.56443482461E+01 0.50379858449E+01 0.40496997567E+01 0.31443957621E+01
 0.40987255480E+01 0.45528687000E+01 0.51925576640E+01 0.56443297068E+01 0.56520639516E+01
 0.52174712853E+01 0.45766912377E+01 0.39836728518E+01 0.35455631115E+01 0.33159814923E+01
 0.33160318759E+01 0.35456513249E+01 0.39836809875E+01 0.45765808314E+01 0.52173364249E+01
 0.56520294672E+01 0.56444162564E+01 0.51926772920E+01 0.45529401765E+01 0.40987442821E+01
 0.52684412563E+01 0.55442325016E+01 0.57397731140E+01 0.56464033710E+01 0.52174712853E+01
 0.46003117474E+01 0.39996018502E+01 0.35177197602E+01 0.32116474404E+01 0.31073963348E+01
 0.32116232468E+01 0.35177408646E+01 0.39996692826E+01 0.46002971908E+01 0.52172749231E+01
 0.56461476001E+01 0.57397262345E+01 0.55444826675E+01 0.52687297183E+01 0.51435963673E+01
 0.58334076647E+01 0.58078602405E+01 0.55955132225E+01 0.51550057469E+01 0.45766912377E+01
 0.39996018502E+01 0.35080143633E+01 0.31580719879E+01 0.29783219182E+01 0.29782887447E+01
 0.31580264507E+01 0.35080364417E+01 0.39996718081E+01 0.45766941184E+01 0.51548909964E+01
 0.55953898602E+01 0.58078711822E+01 0.58335376281E+01 0.57954146124E+01 0.57953368378E+01
 0.56979267658E+01 0.54309867207E+01 0.50126522575E+01 0.45038520169E+01 0.39836728518E+01
 0.35177197602E+01 0.31580719879E+01 0.29348313762E+01 0.28596442499E+01 0.29348308222E+01
 0.31580376125E+01 0.35176659503E+01 0.39836888279E+01 0.45039972232E+01 0.50128328071E+01
 0.54310235732E+01 0.56977647319E+01 0.58248441392E+01 0.58591767944E+01 0.58250329676E+01
 0.51182832798E+01 0.47842657898E+01 0.43799248855E+01 0.39500301144E+01 0.35455631115E+01
 0.32116474404E+01 0.29783219182E+01 0.28596442499E+01 0.28596406281E+01 0.29783122208E+01
 0.32116337242E+01 0.35455545708E+01 0.39500484208E+01 0.43799816924E+01 0.47843233508E+01
 0.51182846195E+01 0.53472714504E+01 0.54593007257E+01 0.54593323359E+01 0.53473216815E+01
 0.44863721122E+01 0.42086172247E+01 0.38975709234E+01 0.35883960844E+01 0.33159814923E+01
 0.31073963348E+01 0.29782887447E+01 0.29348308222E+01 0.29783122208E+01 0.31074434283E+01
 0.33160123399E+01 0.35883422434E+01 0.38974223435E+01 0.42084809641E+01 0.44863865266E+01
 0.47026258027E+01 0.48385564870E+01 0.48847020114E+01 0.48383844172E+01 0.47024526915E+01
 0.40042111722E+01 0.38276711642E+01 0.36405718347E+01 0.34636533785E+01 0.33160318759E+01
 0.32116232468E+01 0.31580264507E+01 0.31580376125E+01 0.32116337242E+01 0.33160123399E+01
 0.34636170790E+01 0.36405517770E+01 0.38276743167E+01 0.40042291743E+01 0.41518641586E+01
 0.42570516013E+01 0.43115116670E+01 0.43114889399E+01 0.42570057360E+01 0.41518287806E+01
 0.37474606196E+01 0.36954593704E+01 0.36404462587E+01 0.35883664401E+01 0.35456513249E+01
 0.35177408646E+01 0.35080364417E+01 0.35176659503E+01 0.35455545708E+01 0.35883422434E+01
 0.36405517770E+01 0.36956347670E+01 0.37475724958E+01 0.37919217021E+01 0.38257408854E+01
 0.38469922485E+01 0.38542846524E+01 0.38470772693E+01 0.38258457486E+01 0.37919439190E+01
 0.37475783430E+01 0.38276567639E+01 0.38973990716E+01 0.39500327848E+01 0.39836809875E+01
 0.39996692826E+01 0.39996718081E+01 0.39836888279E+01 0.39500484208E+01 0.38974223435E+01
 0.38276743167E+01 0.37475724958E+01 0.36677978147E+01 0.35995425376E+01 0.35510026385E+01
 0.35261709456E+01 0.35261696645E+01 0.35510084156E+01 0.35995654106E+01 0.36678240788E+01
 0.40044044023E+01 0.42086418256E+01 0.43800027664E+01 0.45038870944E+01 0.45765808314E+01
 0.46002971908E+01 0.45766941184E+01 0.45039972232E+01 0.43799816924E+01 0.42084809641E+01
 0.40042291743E+01 0.37919217021E+01 0.35995425376E+01 0.34501423620E+01 0.33572366251E+01
 0.33259439305E+01 0.33572058637E+01 0.34500780247E+01 0.35994995820E+01 0.37919872763E+01
 0.44864011020E+01 0.47843508820E+01 0.50129147466E+01 0.51550122529E+01 0.52173364249E+01
 0.52172749231E+01 0.51548909964E+01 0.50128328071E+01 0.47843233508E+01 0.44863865266E+01
 0.41518641586E+01 0.38257408854E+01 0.35510026385E+01 0.33572366251E+01 0.32584064683E+01
 0.32584160807E+01 0.33572440514E+01 0.35509879031E+01 0.38257270628E+01 0.41518721144E+01
 0.51181867318E+01 0.54310918559E+01 0.55956382368E+01 0.56463837485E+01 0.56520294672E+01
 0.56461476001E+01 0.55953898602E+01 0.54310235732E+01 0.51182846195E+01 0.47026258027E+01
 0.42570516013E+01 0.38469922485E+01 0.35261709456E+01 0.33259439305E+01 0.32584160807E+01
 0.33259778992E+01 0.35262051697E+01 0.38469862774E+01 0.42569768281E+01 0.47024922678E+01
 0.56979599054E+01 0.58079293927E+01 0.57396332875E+01 0.56443482461E+01 0.56444162564E+01
 0.57397262345E+01 0.58078711822E+01 0.56977647319E+01 0.53472714504E+01 0.48385564870E+01
 0.43115116670E+01 0.38542846524E+01 0.35261696645E+01 0.33572058637E+01 0.33572440514E+01
 0.35262051697E+01 0.38542038140E+01 0.43113536739E+01 0.48385007011E+01 0.53474075280E+01
 0.58336250585E+01 0.55442065418E+01 0.51923392408E+01 0.50379858449E+01 0.51926772920E+01
 0.55444826675E+01 0.58335376281E+01 0.58248441392E+01 0.54593007257E+01 0.48847020114E+01
 0.43114889399E+01 0.38470772693E+01 0.35510084156E+01 0.34500780247E+01 0.35509879031E+01
 0.38469862774E+01 0.43113536739E+01 0.48846828118E+01 0.54595218107E+01 0.58251651541E+01
 0.52685366396E+01 0.45526931452E+01 0.40495860313E+01 0.40496997567E+01 0.45529401765E+01
 0.52687297183E+01 0.57954146124E+01 0.58591767944E+01 0.54593323359E+01 0.48383844172E+01
 0.42570057360E+01 0.38258457486E+01 0.35995654106E+01 0.35994995820E+01 0.38257270628E+01
 0.42569768281E+01 0.48385007011E+01 0.54595218107E+01 0.58593132400E+01 0.57953941450E+01
 0.40984117360E+01 0.31441159272E+01 0.27598456515E+01 0.31443957621E+01 0.40987442821E+01
 0.51435963673E+01 0.57953368378E+01 0.58250329676E+01 0.53473216815E+01 0.47024526915E+01
 0.41518287806E+01 0.37919439190E+01 0.36678240788E+01 0.37919872763E+01 0.41518721144E+01
 0.47024922678E+01 0.53474075280E+01 0.58251651541E+01 0.57953941450E+01 0.51434414963E+01
 0.29461074074E+00 -.33869008292E+00 0.29451871159E+00 0.19105225837E+01 0.38138968173E+01
 0.52685897518E+01 0.58595050342E+01 0.56407116946E+01 0.50162504502E+01 0.44190347379E+01
 0.40180871059E+01 0.38780484880E+01 0.40180684674E+01 0.44190466020E+01 0.50162969103E+01
 0.56407287729E+01 0.58594564457E+01 0.52685335196E+01 0.38139173591E+01 0.19106216594E+01
 -.33869008292E+00 -.33871911969E+00 0.87103436857E+00 0.27598490471E+01 0.45529001280E+01
 0.56301866588E+01 0.58032846983E+01 0.53281305421E+01 0.46800748829E+01 0.41682939212E+01
 0.38919388864E+01 0.38918025152E+01 0.41680886233E+01 0.46801094856E+01 0.53283737196E+01
 0.58034312644E+01 0.56300814240E+01 0.45526929953E+01 0.27597445768E+01 0.87105391505E+00
 0.29451871159E+00 0.87103436857E+00 0.23374440636E+01 0.40495475826E+01 0.53278252752E+01
 0.57953788710E+01 0.55163914536E+01 0.48816867119E+01 0.42918575719E+01 0.38980861218E+01
 0.37609041351E+01 0.38980489116E+01 0.42918621928E+01 0.48817332014E+01 0.55164007874E+01
 0.57953508085E+01 0.53278380446E+01 0.40495996312E+01 0.23374542435E+01 0.87100059406E+00
 0.19105225837E+01 0.27598490471E+01 0.40495475826E+01 0.51922763228E+01 0.57396215458E+01
 0.55956661581E+01 0.50129065522E+01 0.43799666834E+01 0.38974075253E+01 0.36404890678E+01
 0.36405758130E+01 0.38975458853E+01 0.43799436440E+01 0.50127048350E+01 0.55955271417E+01
 0.57397586972E+01 0.51925860912E+01 0.40497312573E+01 0.27598107641E+01 0.19104612896E+01
 0.38138968173E+01 0.45529001280E+01 0.53278252752E+01 0.57396215458E+01 0.56136625060E+01
 0.50742752154E+01 0.44309892724E+01 0.38937249120E+01 0.35452192315E+01 0.34253811689E+01
 0.35452198372E+01 0.38937169871E+01 0.44309757055E+01 0.50742698322E+01 0.56136715792E+01
 0.57396444940E+01 0.53278724937E+01 0.45529697988E+01 0.38139537114E+01 0.35118994045E+01
 0.52685897518E+01 0.56301866588E+01 0.57953788710E+01 0.55956661581E+01 0.50742752154E+01
 0.44472932029E+01 0.38904602793E+01 0.34848278802E+01 0.32738376748E+01 0.32737771611E+01
 0.34847494990E+01 0.38905301052E+01 0.44474850980E+01 0.50743549601E+01 0.55954844095E+01
 0.57951011172E+01 0.56301092656E+01 0.52687425712E+01 0.49858887820E+01 0.49857790317E+01
 0.58595050342E+01 0.58032846983E+01 0.55163914536E+01 0.50129065522E+01 0.44309892724E+01
 0.38904602793E+01 0.34641048444E+01 0.31962305562E+01 0.31055251122E+01 0.31962603179E+01
 0.34641401259E+01 0.38904834958E+01 0.44310008414E+01 0.50129015659E+01 0.55163636148E+01
 0.58032399817E+01 0.58594669528E+01 0.57954226076E+01 0.57529668505E+01 0.57954401634E+01
 0.56407116946E+01 0.53281305421E+01 0.48816867119E+01 0.43799666834E+01 0.38937249120E+01
 0.34848278802E+01 0.31962305562E+01 0.30488088924E+01 0.30488450459E+01 0.31962623136E+01
 0.34847496448E+01 0.38935914445E+01 0.43799678469E+01 0.48818907254E+01 0.53283517920E+01
 0.56407166758E+01 0.58023491077E+01 0.58591917012E+01 0.58593077487E+01 0.58025382021E+01
 0.50162504502E+01 0.46800748829E+01 0.42918575719E+01 0.38974075253E+01 0.35452192315E+01
 0.32738376748E+01 0.31055251122E+01 0.30488450459E+01 0.31055016098E+01 0.32738158189E+01
 0.35452134260E+01 0.38974096342E+01 0.42918633034E+01 0.46800869185E+01 0.50162563356E+01
 0.52666391534E+01 0.54127181203E+01 0.54593427503E+01 0.54127375889E+01 0.52666518615E+01
 0.44190347379E+01 0.41682939212E+01 0.38980861218E+01 0.36404890678E+01 0.34253811689E+01
 0.32737771611E+01 0.31962603179E+01 0.31962623136E+01 0.32738158189E+01 0.34254804220E+01
 0.36405682084E+01 0.38980166727E+01 0.41680749917E+01 0.44188456095E+01 0.46238371162E+01
 0.47662581342E+01 0.48384771183E+01 0.48383803741E+01 0.47660932009E+01 0.46238251249E+01
 0.40180871059E+01 0.38919388864E+01 0.37609041351E+01 0.36405758130E+01 0.35452198372E+01
 0.34847494990E+01 0.34641401259E+01 0.34847496448E+01 0.35452134260E+01 0.36405682084E+01
 0.37609035772E+01 0.38919333294E+01 0.40180651019E+01 0.41260917976E+01 0.42072502509E+01
 0.42570337544E+01 0.42737337373E+01 0.42570000779E+01 0.42072306465E+01 0.41261069330E+01
 0.38780484880E+01 0.38918025152E+01 0.38980489116E+01 0.38975458853E+01 0.38937169871E+01
 0.38905301052E+01 0.38904834958E+01 0.38935914445E+01 0.38974096342E+01 0.38980166727E+01
 0.38919333294E+01 0.38782564662E+01 0.38595309195E+01 0.38405036520E+01 0.38257165237E+01
 0.38178861302E+01 0.38179545675E+01 0.38258491683E+01 0.38405498352E+01 0.38594106524E+01
 0.40180684674E+01 0.41680886233E+01 0.42918621928E+01 0.43799436440E+01 0.44309757055E+01
 0.44474850980E+01 0.44310008414E+01 0.43799678469E+01 0.42918633034E+01 0.41680749917E+01
 0.40180651019E+01 0.38595309195E+01 0.37138488213E+01 0.35995308969E+01 0.35279826026E+01
 0.35038321877E+01 0.35280205130E+01 0.35995655202E+01 0.37138533668E+01 0.38595211880E+01
 0.44190466020E+01 0.46801094856E+01 0.48817332014E+01 0.50127048350E+01 0.50742698322E+01
 0.50743549601E+01 0.50129015659E+01 0.48818907254E+01 0.46800869185E+01 0.44188456095E+01
 0.41260917976E+01 0.38405036520E+01 0.35995308969E+01 0.34293367142E+01 0.33424397599E+01
 0.33424033135E+01 0.34292537240E+01 0.35994862128E+01 0.38405950679E+01 0.41263138584E+01
 0.50162969103E+01 0.53283737196E+01 0.55164007874E+01 0.55955271417E+01 0.56136715792E+01
 0.55954844095E+01 0.55163636148E+01 0.53283517920E+01 0.50162563356E+01 0.46238371162E+01
 0.42072502509E+01 0.38257165237E+01 0.35279826026E+01 0.33424397599E+01 0.32799039610E+01
 0.33424423049E+01 0.35279731030E+01 0.38257129445E+01 0.42072864164E+01 0.46238966499E+01
 0.56407287729E+01 0.58034312644E+01 0.57953508085E+01 0.57397586972E+01 0.57396444940E+01
 0.57951011172E+01 0.58032399817E+01 0.56407166758E+01 0.52666391534E+01 0.47662581342E+01
 0.42570337544E+01 0.38178861302E+01 0.35038321877E+01 0.33424033135E+01 0.33424423049E+01
 0.35039123545E+01 0.38179269181E+01 0.42569716345E+01 0.47661087397E+01 0.52665077939E+01
 0.58594564457E+01 0.56300814240E+01 0.53278380446E+01 0.51925860912E+01 0.53278724937E+01
 0.56301092656E+01 0.58594669528E+01 0.58023491077E+01 0.54127181203E+01 0.48384771183E+01
 0.42737337373E+01 0.38179545675E+01 0.35280205130E+01 0.34292537240E+01 0.35279731030E+01
 0.38179269181E+01 0.42737487433E+01 0.48384901544E+01 0.54127039340E+01 0.58023322965E+01
 0.52685335196E+01 0.45526929953E+01 0.40495996312E+01 0.40497312573E+01 0.45529697988E+01
 0.52687425712E+01 0.57954226076E+01 0.58591917012E+01 0.54593427503E+01 0.48383803741E+01
 0.42570000779E+01 0.38258491683E+01 0.35995655202E+01 0.35994862128E+01 0.38257129445E+01
 0.42569716345E+01 0.48384901544E+01 0.54594947571E+01 0.58592849417E+01 0.57953812743E+01
 0.38139173591E+01 0.27597445768E+01 0.23374542435E+01 0.27598107641E+01 0.38139537114E+01
 0.49858887820E+01 0.57529668505E+01 0.58593077487E+01 0.54127375889E+01 0.47660932009E+01
 0.42072306465E+01 0.38405498352E+01 0.37138533668E+01 0.38405950679E+01 0.42072864164E+01
 0.47661087397E+01 0.54127039340E+01 0.58592849417E+01 0.57529962198E+01 0.49859183035E+01
 0.19106216594E+01 0.87105391505E+00 0.87100059406E+00 0.19104612896E+01 0.35118994045E+01
 0.49857790317E+01 0.57954401634E+01 0.58025382021E+01 0.52666518615E+01 0.46238251249E+01
 0.41261069330E+01 0.38594106524E+01 0.38595211880E+01 0.41263138584E+01 0.46238966499E+01
 0.52665077939E+01 0.58023322965E+01 0.57953812743E+01 0.49859183035E+01 0.35121179114E+01
 -.17632798566E+01 -.17636775375E+01 -.33867044778E+00 0.19102593649E+01 0.40986477039E+01
 0.55049426610E+01 0.58839986628E+01 0.54903226655E+01 0.48421997421E+01 0.43160869843E+01
 0.40298397460E+01 0.40296733885E+01 0.43158363308E+01 0.48422267403E+01 0.54905366107E+01
 0.58839726929E+01 0.55045826015E+01 0.40984358225E+01 0.19106566071E+01 -.33789508207E+00
 -.17636775375E+01 -.10255834886E+01 0.87110884618E+00 0.31441365398E+01 0.49539125108E+01
 0.58057364718E+01 0.57234433266E+01 0.51302702730E+01 0.45210976381E+01 0.41077528568E+01
 0.39627482789E+01 0.41077212108E+01 0.45210904199E+01 0.51302875327E+01 0.57234283144E+01
 0.58056871612E+01 0.49538833419E+01 0.31441298294E+01 0.87107634255E+00 -.10256314195E+01
 -.33867044778E+00 0.87110884618E+00 0.27597576629E+01 0.45526697551E+01 0.56300916767E+01
 0.58034670516E+01 0.53283671385E+01 0.46800720923E+01 0.41680911280E+01 0.38918345404E+01
 0.38919298356E+01 0.41682540975E+01 0.46800749519E+01 0.53281600839E+01 0.58032722683E+01
 0.56301414061E+01 0.45528930114E+01 0.27598730379E+01 0.87102399947E+00 -.33874968574E+00
 0.19102593649E+01 0.31441365398E+01 0.45526697551E+01 0.55441612389E+01 0.58079335615E+01
 0.54311249882E+01 0.47843416427E+01 0.42086098270E+01 0.38276721705E+01 0.36955015469E+01
 0.38276691678E+01 0.42085910529E+01 0.47842857442E+01 0.54310320237E+01 0.58078595074E+01
 0.55442049284E+01 0.45528834985E+01 0.31444466793E+01 0.19104901512E+01 0.14210218781E+01
 0.40986477039E+01 0.49539125108E+01 0.56300916767E+01 0.58079335615E+01 0.54607912439E+01
 0.48345819423E+01 0.42306338538E+01 0.37796783285E+01 0.35420231776E+01 0.35419527910E+01
 0.37795557468E+01 0.42306250882E+01 0.48347264075E+01 0.54609321106E+01 0.58079085752E+01
 0.56299649429E+01 0.49538934888E+01 0.40987791764E+01 0.35119106831E+01 0.35118221049E+01
 0.55049426610E+01 0.58057364718E+01 0.58034670516E+01 0.54311249882E+01 0.48345819423E+01
 0.42373804833E+01 0.37539944623E+01 0.34457113691E+01 0.33405710833E+01 0.34457216668E+01
 0.37540356798E+01 0.42374906596E+01 0.48347451506E+01 0.54312226854E+01 0.58033769840E+01
 0.58054847650E+01 0.55046838238E+01 0.51435936101E+01 0.49857654666E+01 0.51437382318E+01
 0.58839986628E+01 0.57234433266E+01 0.53283671385E+01 0.47843416427E+01 0.42306338538E+01
 0.37539944623E+01 0.34130090181E+01 0.32376044056E+01 0.32376702512E+01 0.34131219343E+01
 0.37540193020E+01 0.42305763987E+01 0.47843255621E+01 0.53284417908E+01 0.57234984283E+01
 0.58839089561E+01 0.58620994883E+01 0.57953320592E+01 0.57954278274E+01 0.58622845562E+01
 0.54903226655E+01 0.51302702730E+01 0.46800720923E+01 0.42086098270E+01 0.37796783285E+01
 0.34457113691E+01 0.32376044056E+01 0.31674559511E+01 0.32376559044E+01 0.34456916258E+01
 0.37795275445E+01 0.42084554174E+01 0.46801014615E+01 0.51304825767E+01 0.54905127801E+01
 0.57083577210E+01 0.58024518536E+01 0.58250500459E+01 0.58025397600E+01 0.57083491533E+01
 0.48421997421E+01 0.45210976381E+01 0.41680911280E+01 0.38276721705E+01 0.35420231776E+01
 0.33405710833E+01 0.32376702512E+01 0.32376559044E+01 0.33405460296E+01 0.35420118277E+01
 0.38276695958E+01 0.41680809552E+01 0.45210874866E+01 0.48422013926E+01 0.50971083737E+01
 0.52666447574E+01 0.53473264478E+01 0.53473294692E+01 0.52666458531E+01 0.50971028869E+01
 0.43160869843E+01 0.41077528568E+01 0.38918345404E+01 0.36955015469E+01 0.35419527910E+01
 0.34457216668E+01 0.34131219343E+01 0.34456916258E+01 0.35420118277E+01 0.36956798779E+01
 0.38919692773E+01 0.41076652489E+01 0.43158275308E+01 0.44929023519E+01 0.46238292336E+01
 0.47025487913E+01 0.47285491107E+01 0.47024308684E+01 0.46238015233E+01 0.44930899187E+01
 0.40298397460E+01 0.39627482789E+01 0.38919298356E+01 0.38276691678E+01 0.37795557468E+01
 0.37540356798E+01 0.37540193020E+01 0.37795275445E+01 0.38276695958E+01 0.38919692773E+01
 0.39627847666E+01 0.40298263394E+01 0.40854067705E+01 0.41260805810E+01 0.41518517707E+01
 0.41641481656E+01 0.41641195240E+01 0.41518102532E+01 0.41260884150E+01 0.40854501856E+01
 0.40296733885E+01 0.41077212108E+01 0.41682540975E+01 0.42085910529E+01 0.42306250882E+01
 0.42374906596E+01 0.42305763987E+01 0.42084554174E+01 0.41680809552E+01 0.41076652489E+01
 0.40298263394E+01 0.39429725781E+01 0.38595381443E+01 0.37918835011E+01 0.37486664219E+01
 0.37339855185E+01 0.37487898248E+01 0.37919497374E+01 0.38594080612E+01 0.39427237949E+01
 0.43158363308E+01 0.45210904199E+01 0.46800749519E+01 0.47842857442E+01 0.48347264075E+01
 0.48347451506E+01 0.47843255621E+01 0.46801014615E+01 0.45210874866E+01 0.43158275308E+01
 0.40854067705E+01 0.38595381443E+01 0.36678092799E+01 0.35316603515E+01 0.34619179304E+01
 0.34619481540E+01 0.35317116167E+01 0.36678219778E+01 0.38595127439E+01 0.40853901458E+01
 0.48422267403E+01 0.51302875327E+01 0.53281600839E+01 0.54310320237E+01 0.54609321106E+01
 0.54312226854E+01 0.53284417908E+01 0.51304825767E+01 0.48422013926E+01 0.44929023519E+01
 0.41260805810E+01 0.37918835011E+01 0.35316603515E+01 0.33696131783E+01 0.33149805547E+01
 0.33695530300E+01 0.35316159600E+01 0.37919568936E+01 0.41262894922E+01 0.44931098106E+01
 0.54905366107E+01 0.57234283144E+01 0.58032722683E+01 0.58078595074E+01 0.58079085752E+01
 0.58033769840E+01 0.57234984283E+01 0.54905127801E+01 0.50971083737E+01 0.46238292336E+01
 0.41518517707E+01 0.37486664219E+01 0.34619179304E+01 0.33149805547E+01 0.33149970411E+01
 0.34619368494E+01 0.37486551691E+01 0.41518458177E+01 0.46238784650E+01 0.50971881692E+01
 0.58839726929E+01 0.58056871612E+01 0.56301414061E+01 0.55442049284E+01 0.56299649429E+01
 0.58054847650E+01 0.58839089561E+01 0.57083577210E+01 0.52666447574E+01 0.47025487913E+01
 0.41641481656E+01 0.37339855185E+01 0.34619481540E+01 0.33695530300E+01 0.34619368494E+01
 0.37339976781E+01 0.41641628277E+01 0.47024894659E+01 0.52665060482E+01 0.57082575573E+01
 0.55045826015E+01 0.49538833419E+01 0.45528930114E+01 0.45528834985E+01 0.49538934888E+01
 0.55046838238E+01 0.58620994883E+01 0.58024518536E+01 0.53473264478E+01 0.47285491107E+01
 0.41641195240E+01 0.37487898248E+01 0.35317116167E+01 0.35316159600E+01 0.37486551691E+01
 0.41641628277E+01 0.47287220518E+01 0.53473947141E+01 0.58023262060E+01 0.58619146502E+01
 0.40984358225E+01 0.31441298294E+01 0.27598730379E+01 0.31444466793E+01 0.40987791764E+01
 0.51435936101E+01 0.57953320592E+01 0.58250500459E+01 0.53473294692E+01 0.47024308684E+01
 0.41518102532E+01 0.37919497374E+01 0.36678219778E+01 0.37919568936E+01 0.41518458177E+01
 0.47024894659E+01 0.53473947141E+01 0.58251241056E+01 0.57953645076E+01 0.51434525937E+01
 0.19106566071E+01 0.87107634255E+00 0.87102399947E+00 0.19104901512E+01 0.35119106831E+01
 0.49857654666E+01 0.57954278274E+01 0.58025397600E+01 0.52666458531E+01 0.46238015233E+01
 0.41260884150E+01 0.38594080612E+01 0.38595127439E+01 0.41262894922E+01 0.46238784650E+01
 0.52665060482E+01 0.58023262060E+01 0.57953645076E+01 0.49859182537E+01 0.35121477009E+01
 -.33789508207E+00 -.10256314195E+01 -.33874968574E+00 0.14210218781E+01 0.35118221049E+01
 0.51437382318E+01 0.58622845562E+01 0.57083491533E+01 0.50971028869E+01 0.44930899187E+01
 0.40854501856E+01 0.39427237949E+01 0.40853901458E+01 0.44931098106E+01 0.50971881692E+01
 0.57082575573E+01 0.58619146502E+01 0.51434525937E+01 0.35121477009E+01 0.14219664597E+01
augmentation occupancies   1  33
  0.4976992E+00 -0.1616405E+00  0.0000000E+00  0.0000000E+00  0.0000000E+00
  0.0000000E+00  0.0000000E+00  0.0000000E+00  0.3069233E+00  0.0000000E+00
  0.0000000E+00  0.0000000E+00  0.0000000E+00  0.0000000E+00  0.0000000E+00
  0.6357500E+00 -0.2311590E-17 -0.7146440E-18  0.7462653E-17 -0.8050718E-18
 -0.1562594E-16 -0.8238237E+00  0.4252335E-17 -0.9081181E-18  0.1559682E-16
 -0.4743635E-18  0.1764591E-16  0.3478196E+00 -0.1374248E-17 -0.2746931E-18
 -0.1155122E-17 -0.2770253E-19  0.0000000E+00
