   1   1   1   0
  0.1482975E+02  0.2757716E-09  0.2757716E-09  0.2757716E-09  0.5000000E-15
  1.000000000000000E-004
  CAR 
 fcc Si                                  
     38.03536527     -6.39767803  301      9.91285623      1.00000000
     -6.398  0.0000E+00  0.0000E+00
     -6.250  0.0000E+00  0.0000E+00
     -6.101  0.0000E+00  0.0000E+00
     -5.953  0.0000E+00  0.0000E+00
     -5.805  0.0000E+00  0.0000E+00
     -5.657  0.0000E+00  0.0000E+00
     -5.509  0.0000E+00  0.0000E+00
     -5.361  0.0000E+00  0.0000E+00
     -5.213  0.0000E+00  0.0000E+00
     -5.065  0.0000E+00  0.0000E+00
     -4.917  0.0000E+00  0.0000E+00
     -4.768  0.0000E+00  0.0000E+00
     -4.620  0.0000E+00  0.0000E+00
     -4.472  0.0000E+00  0.0000E+00
     -4.324  0.7451E-02  0.1338E-03
     -4.176  0.4018E-01  0.4574E-02
     -4.028  0.6109E-01  0.1203E-01
     -3.880  0.7039E-01  0.2197E-01
     -3.732  0.8233E-01  0.3326E-01
     -3.584  0.9510E-01  0.4639E-01
     -3.435  0.1015E+00  0.6091E-01
     -3.287  0.1085E+00  0.7645E-01
     -3.139  0.1172E+00  0.9315E-01
     -2.991  0.1262E+00  0.1112E+00
     -2.843  0.1311E+00  0.1303E+00
     -2.695  0.1371E+00  0.1501E+00
     -2.547  0.1432E+00  0.1709E+00
     -2.399  0.1500E+00  0.1926E+00
     -2.251  0.1571E+00  0.2154E+00
     -2.102  0.1618E+00  0.2390E+00
     -1.954  0.1662E+00  0.2633E+00
     -1.806  0.1714E+00  0.2883E+00
     -1.658  0.1767E+00  0.3141E+00
     -1.510  0.1821E+00  0.3406E+00
     -1.362  0.1879E+00  0.3680E+00
     -1.214  0.1924E+00  0.3962E+00
     -1.066  0.1966E+00  0.4250E+00
     -0.918  0.2007E+00  0.4545E+00
     -0.769  0.2051E+00  0.4845E+00
     -0.621  0.2098E+00  0.5152E+00
     -0.473  0.2146E+00  0.5467E+00
     -0.325  0.2195E+00  0.5788E+00
     -0.177  0.2240E+00  0.6117E+00
     -0.029  0.2277E+00  0.6451E+00
      0.119  0.2314E+00  0.6791E+00
      0.267  0.2355E+00  0.7137E+00
      0.415  0.2396E+00  0.7489E+00
      0.563  0.2438E+00  0.7847E+00
      0.712  0.2482E+00  0.8211E+00
      0.860  0.2528E+00  0.8582E+00
      1.008  0.2574E+00  0.8960E+00
      1.156  0.2612E+00  0.9344E+00
      1.304  0.2654E+00  0.9734E+00
      1.452  0.2703E+00  0.1013E+01
      1.600  0.2765E+00  0.1054E+01
      1.748  0.2855E+00  0.1095E+01
      1.896  0.2977E+00  0.1138E+01
      2.045  0.3078E+00  0.1183E+01
      2.193  0.3436E+00  0.1232E+01
      2.341  0.3089E+00  0.1281E+01
      2.489  0.2958E+00  0.1326E+01
      2.637  0.2873E+00  0.1369E+01
      2.785  0.3013E+00  0.1414E+01
      2.933  0.2758E+00  0.1456E+01
      3.081  0.2727E+00  0.1499E+01
      3.229  0.2579E+00  0.1538E+01
      3.378  0.2644E+00  0.1577E+01
      3.526  0.2770E+00  0.1617E+01
      3.674  0.2868E+00  0.1659E+01
      3.822  0.3144E+00  0.1703E+01
      3.970  0.3985E+00  0.1754E+01
      4.118  0.3248E+00  0.1805E+01
      4.266  0.3289E+00  0.1854E+01
      4.414  0.3420E+00  0.1903E+01
      4.562  0.3526E+00  0.1955E+01
      4.711  0.3711E+00  0.2009E+01
      4.859  0.3423E+00  0.2062E+01
      5.007  0.3353E+00  0.2112E+01
      5.155  0.3158E+00  0.2161E+01
      5.303  0.3060E+00  0.2206E+01
      5.451  0.2994E+00  0.2251E+01
      5.599  0.2851E+00  0.2294E+01
      5.747  0.2931E+00  0.2337E+01
      5.895  0.3927E+00  0.2387E+01
      6.044  0.4061E+00  0.2449E+01
      6.192  0.4119E+00  0.2510E+01
      6.340  0.4047E+00  0.2571E+01
      6.488  0.4083E+00  0.2631E+01
      6.636  0.4144E+00  0.2695E+01
      6.784  0.3770E+00  0.2754E+01
      6.932  0.3403E+00  0.2807E+01
      7.080  0.3373E+00  0.2857E+01
      7.228  0.3270E+00  0.2906E+01
      7.377  0.3299E+00  0.2955E+01
      7.525  0.3665E+00  0.3007E+01
      7.673  0.4014E+00  0.3064E+01
      7.821  0.4470E+00  0.3127E+01
      7.969  0.4047E+00  0.3193E+01
      8.117  0.4006E+00  0.3253E+01
      8.265  0.4052E+00  0.3312E+01
      8.413  0.4248E+00  0.3373E+01
      8.561  0.4009E+00  0.3434E+01
      8.710  0.4000E+00  0.3493E+01
      8.858  0.3982E+00  0.3552E+01
      9.006  0.3876E+00  0.3609E+01
      9.154  0.4199E+00  0.3673E+01
      9.302  0.4250E+00  0.3736E+01
      9.450  0.4317E+00  0.3799E+01
      9.598  0.4286E+00  0.3864E+01
      9.746  0.4426E+00  0.3929E+01
      9.894  0.4286E+00  0.3992E+01
     10.043  0.4346E+00  0.4056E+01
     10.191  0.4410E+00  0.4121E+01
     10.339  0.4487E+00  0.4187E+01
     10.487  0.4455E+00  0.4254E+01
     10.635  0.4774E+00  0.4322E+01
     10.783  0.4628E+00  0.4391E+01
     10.931  0.4615E+00  0.4460E+01
     11.079  0.4575E+00  0.4528E+01
     11.227  0.4603E+00  0.4596E+01
     11.376  0.4709E+00  0.4664E+01
     11.524  0.4813E+00  0.4735E+01
     11.672  0.5048E+00  0.4808E+01
     11.820  0.4885E+00  0.4881E+01
     11.968  0.5234E+00  0.4954E+01
     12.116  0.5295E+00  0.5030E+01
     12.264  0.5126E+00  0.5107E+01
     12.412  0.5212E+00  0.5183E+01
     12.560  0.5402E+00  0.5262E+01
     12.709  0.5687E+00  0.5344E+01
     12.857  0.5816E+00  0.5429E+01
     13.005  0.5955E+00  0.5516E+01
     13.153  0.5990E+00  0.5605E+01
     13.301  0.5683E+00  0.5692E+01
     13.449  0.5610E+00  0.5776E+01
     13.597  0.5582E+00  0.5859E+01
     13.745  0.5444E+00  0.5941E+01
     13.893  0.5311E+00  0.6020E+01
     14.042  0.5197E+00  0.6098E+01
     14.190  0.5075E+00  0.6174E+01
     14.338  0.4993E+00  0.6249E+01
     14.486  0.4887E+00  0.6322E+01
     14.634  0.4800E+00  0.6394E+01
     14.782  0.4736E+00  0.6464E+01
     14.930  0.4695E+00  0.6534E+01
     15.078  0.4719E+00  0.6604E+01
     15.226  0.4721E+00  0.6674E+01
     15.375  0.4745E+00  0.6744E+01
     15.523  0.4730E+00  0.6814E+01
     15.671  0.4692E+00  0.6884E+01
     15.819  0.4636E+00  0.6953E+01
     15.967  0.4610E+00  0.7021E+01
     16.115  0.4595E+00  0.7090E+01
     16.263  0.4631E+00  0.7158E+01
     16.411  0.4715E+00  0.7227E+01
     16.559  0.4788E+00  0.7297E+01
     16.708  0.4890E+00  0.7369E+01
     16.856  0.4967E+00  0.7442E+01
     17.004  0.5020E+00  0.7516E+01
     17.152  0.5058E+00  0.7591E+01
     17.300  0.5083E+00  0.7666E+01
     17.448  0.5150E+00  0.7742E+01
     17.596  0.5228E+00  0.7818E+01
     17.744  0.5271E+00  0.7896E+01
     17.892  0.5271E+00  0.7974E+01
     18.040  0.5276E+00  0.8052E+01
     18.189  0.5149E+00  0.8131E+01
     18.337  0.5188E+00  0.8207E+01
     18.485  0.5145E+00  0.8284E+01
     18.633  0.5140E+00  0.8360E+01
     18.781  0.5154E+00  0.8436E+01
     18.929  0.5181E+00  0.8513E+01
     19.077  0.5214E+00  0.8590E+01
     19.225  0.5291E+00  0.8667E+01
     19.373  0.5394E+00  0.8746E+01
     19.522  0.5505E+00  0.8827E+01
     19.670  0.5617E+00  0.8910E+01
     19.818  0.5776E+00  0.8994E+01
     19.966  0.5955E+00  0.9081E+01
     20.114  0.6242E+00  0.9171E+01
     20.262  0.6940E+00  0.9269E+01
     20.410  0.7130E+00  0.9374E+01
     20.558  0.6875E+00  0.9478E+01
     20.706  0.6221E+00  0.9575E+01
     20.855  0.5892E+00  0.9664E+01
     21.003  0.5905E+00  0.9751E+01
     21.151  0.6085E+00  0.9840E+01
     21.299  0.6348E+00  0.9932E+01
     21.447  0.5689E+00  0.1002E+02
     21.595  0.5770E+00  0.1011E+02
     21.743  0.5417E+00  0.1019E+02
     21.891  0.5062E+00  0.1027E+02
     22.039  0.5048E+00  0.1034E+02
     22.188  0.4861E+00  0.1042E+02
     22.336  0.4869E+00  0.1049E+02
     22.484  0.5130E+00  0.1056E+02
     22.632  0.5932E+00  0.1064E+02
     22.780  0.5988E+00  0.1073E+02
     22.928  0.6492E+00  0.1082E+02
     23.076  0.7147E+00  0.1092E+02
     23.224  0.7518E+00  0.1103E+02
     23.372  0.7758E+00  0.1115E+02
     23.521  0.8476E+00  0.1127E+02
     23.669  0.8374E+00  0.1139E+02
     23.817  0.7535E+00  0.1151E+02
     23.965  0.5820E+00  0.1161E+02
     24.113  0.5776E+00  0.1169E+02
     24.261  0.5351E+00  0.1178E+02
     24.409  0.5169E+00  0.1185E+02
     24.557  0.5158E+00  0.1193E+02
     24.705  0.8043E+00  0.1202E+02
     24.854  0.6373E+00  0.1212E+02
     25.002  0.5533E+00  0.1221E+02
     25.150  0.5269E+00  0.1229E+02
     25.298  0.5240E+00  0.1237E+02
     25.446  0.6457E+00  0.1245E+02
     25.594  0.6419E+00  0.1255E+02
     25.742  0.7109E+00  0.1265E+02
     25.890  0.7017E+00  0.1275E+02
     26.038  0.6963E+00  0.1286E+02
     26.187  0.6864E+00  0.1297E+02
     26.335  0.6744E+00  0.1307E+02
     26.483  0.6621E+00  0.1317E+02
     26.631  0.6460E+00  0.1326E+02
     26.779  0.5997E+00  0.1336E+02
     26.927  0.5807E+00  0.1344E+02
     27.075  0.5853E+00  0.1353E+02
     27.223  0.5961E+00  0.1362E+02
     27.371  0.6394E+00  0.1371E+02
     27.520  0.7071E+00  0.1381E+02
     27.668  0.6161E+00  0.1391E+02
     27.816  0.5195E+00  0.1399E+02
     27.964  0.4471E+00  0.1407E+02
     28.112  0.4157E+00  0.1413E+02
     28.260  0.3970E+00  0.1419E+02
     28.408  0.3913E+00  0.1425E+02
     28.556  0.4022E+00  0.1431E+02
     28.704  0.4809E+00  0.1437E+02
     28.853  0.4891E+00  0.1444E+02
     29.001  0.5161E+00  0.1452E+02
     29.149  0.6694E+00  0.1461E+02
     29.297  0.6867E+00  0.1471E+02
     29.445  0.6290E+00  0.1480E+02
     29.593  0.6208E+00  0.1489E+02
     29.741  0.5795E+00  0.1498E+02
     29.889  0.5213E+00  0.1506E+02
     30.037  0.4638E+00  0.1514E+02
     30.186  0.4090E+00  0.1520E+02
     30.334  0.3568E+00  0.1526E+02
     30.482  0.3076E+00  0.1531E+02
     30.630  0.2833E+00  0.1535E+02
     30.778  0.2694E+00  0.1539E+02
     30.926  0.2581E+00  0.1543E+02
     31.074  0.2485E+00  0.1547E+02
     31.222  0.2394E+00  0.1550E+02
     31.370  0.2307E+00  0.1554E+02
     31.519  0.2222E+00  0.1557E+02
     31.667  0.2131E+00  0.1561E+02
     31.815  0.2034E+00  0.1564E+02
     31.963  0.1938E+00  0.1567E+02
     32.111  0.1844E+00  0.1569E+02
     32.259  0.1721E+00  0.1572E+02
     32.407  0.1667E+00  0.1574E+02
     32.555  0.1608E+00  0.1577E+02
     32.703  0.1544E+00  0.1579E+02
     32.852  0.1436E+00  0.1581E+02
     33.000  0.1332E+00  0.1583E+02
     33.148  0.1223E+00  0.1585E+02
     33.296  0.1124E+00  0.1587E+02
     33.444  0.1025E+00  0.1589E+02
     33.592  0.9303E-01  0.1590E+02
     33.740  0.8476E-01  0.1591E+02
     33.888  0.7607E-01  0.1593E+02
     34.036  0.6799E-01  0.1594E+02
     34.185  0.6233E-01  0.1595E+02
     34.333  0.5544E-01  0.1596E+02
     34.481  0.4702E-01  0.1596E+02
     34.629  0.4464E-01  0.1597E+02
     34.777  0.4749E-01  0.1598E+02
     34.925  0.3332E-01  0.1598E+02
     35.073  0.2413E-01  0.1599E+02
     35.221  0.2069E-01  0.1599E+02
     35.369  0.1727E-01  0.1599E+02
     35.517  0.1388E-01  0.1600E+02
     35.666  0.1050E-01  0.1600E+02
     35.814  0.9427E-02  0.1600E+02
     35.962  0.3750E-02  0.1600E+02
     36.110  0.0000E+00  0.1600E+02
     36.258  0.0000E+00  0.1600E+02
     36.406  0.0000E+00  0.1600E+02
     36.554  0.0000E+00  0.1600E+02
     36.702  0.0000E+00  0.1600E+02
     36.850  0.0000E+00  0.1600E+02
     36.999  0.0000E+00  0.1600E+02
     37.147  0.0000E+00  0.1600E+02
     37.295  0.0000E+00  0.1600E+02
     37.443  0.0000E+00  0.1600E+02
     37.591  0.0000E+00  0.1600E+02
     37.739  0.0000E+00  0.1600E+02
     37.887  0.0000E+00  0.1600E+02
     38.035  0.0000E+00  0.1600E+02
     38.03536527     -6.39767803  301      9.91285623      1.00000000
     -6.398  0.0000E+00  0.0000E+00  0.0000E+00  0.0000E+00  0.0000E+00  0.0000E+00  0.0000E+00  0.0000E+00  0.0000E+00
     -6.250  0.0000E+00  0.0000E+00  0.0000E+00  0.0000E+00  0.0000E+00  0.0000E+00  0.0000E+00  0.0000E+00  0.0000E+00
     -6.101  0.0000E+00  0.0000E+00  0.0000E+00  0.0000E+00  0.0000E+00  0.0000E+00  0.0000E+00  0.0000E+00  0.0000E+00
     -5.953  0.0000E+00  0.0000E+00  0.0000E+00  0.0000E+00  0.0000E+00  0.0000E+00  0.0000E+00  0.0000E+00  0.0000E+00
     -5.805  0.0000E+00  0.0000E+00  0.0000E+00  0.0000E+00  0.0000E+00  0.0000E+00  0.0000E+00  0.0000E+00  0.0000E+00
     -5.657  0.0000E+00  0.0000E+00  0.0000E+00  0.0000E+00  0.0000E+00  0.0000E+00  0.0000E+00  0.0000E+00  0.0000E+00
     -5.509  0.0000E+00  0.0000E+00  0.0000E+00  0.0000E+00  0.0000E+00  0.0000E+00  0.0000E+00  0.0000E+00  0.0000E+00
     -5.361  0.0000E+00  0.0000E+00  0.0000E+00  0.0000E+00  0.0000E+00  0.0000E+00  0.0000E+00  0.0000E+00  0.0000E+00
     -5.213  0.0000E+00  0.0000E+00  0.0000E+00  0.0000E+00  0.0000E+00  0.0000E+00  0.0000E+00  0.0000E+00  0.0000E+00
     -5.065  0.0000E+00  0.0000E+00  0.0000E+00  0.0000E+00  0.0000E+00  0.0000E+00  0.0000E+00  0.0000E+00  0.0000E+00
     -4.917  0.0000E+00  0.0000E+00  0.0000E+00  0.0000E+00  0.0000E+00  0.0000E+00  0.0000E+00  0.0000E+00  0.0000E+00
     -4.768  0.0000E+00  0.0000E+00  0.0000E+00  0.0000E+00  0.0000E+00  0.0000E+00  0.0000E+00  0.0000E+00  0.0000E+00
     -4.620  0.0000E+00  0.0000E+00  0.0000E+00  0.0000E+00  0.0000E+00  0.0000E+00  0.0000E+00  0.0000E+00  0.0000E+00
     -4.472  0.0000E+00  0.0000E+00  0.0000E+00  0.0000E+00  0.0000E+00  0.0000E+00  0.0000E+00  0.0000E+00  0.0000E+00
     -4.324  0.2847E-02  0.1229E-04  0.4094E-05  0.4094E-05  0.0000E+00  0.0000E+00  0.0000E+00  0.0000E+00  0.0000E+00
     -4.176  0.1523E-01  0.1167E-03  0.6820E-04  0.6820E-04  0.0000E+00  0.0000E+00  0.0000E+00  0.0000E+00  0.0000E+00
     -4.028  0.2302E-01  0.2977E-03  0.1210E-03  0.1212E-03  0.0000E+00  0.0000E+00  0.0000E+00  0.0000E+00  0.0000E+00
     -3.880  0.2621E-01  0.4912E-03  0.2226E-03  0.2539E-03  0.0000E+00  0.0000E+00  0.0000E+00  0.0000E+00  0.0000E+00
     -3.732  0.3042E-01  0.7828E-03  0.2749E-03  0.3328E-03  0.0000E+00  0.0000E+00  0.0000E+00  0.0000E+00  0.0000E+00
     -3.584  0.3493E-01  0.1090E-02  0.3417E-03  0.4154E-03  0.0000E+00  0.0000E+00  0.0000E+00  0.0000E+00  0.0000E+00
     -3.435  0.3683E-01  0.1427E-02  0.4322E-03  0.5783E-03  0.0000E+00  0.0000E+00  0.0000E+00  0.0000E+00  0.0000E+00
     -3.287  0.3900E-01  0.1764E-02  0.5246E-03  0.7478E-03  0.0000E+00  0.0000E+00  0.0000E+00  0.0000E+00  0.0000E+00
     -3.139  0.4182E-01  0.2171E-02  0.5934E-03  0.8554E-03  0.0000E+00  0.0000E+00  0.0000E+00  0.0000E+00  0.0000E+00
     -2.991  0.4473E-01  0.2582E-02  0.6784E-03  0.9666E-03  0.0000E+00  0.0000E+00  0.0000E+00  0.0000E+00  0.0000E+00
     -2.843  0.4593E-01  0.2877E-02  0.9434E-03  0.1154E-02  0.0000E+00  0.0000E+00  0.0000E+00  0.0000E+00  0.0000E+00
     -2.695  0.4758E-01  0.3263E-02  0.1099E-02  0.1336E-02  0.0000E+00  0.0000E+00  0.0000E+00  0.0000E+00  0.0000E+00
     -2.547  0.4925E-01  0.3666E-02  0.1236E-02  0.1533E-02  0.0000E+00  0.0000E+00  0.0000E+00  0.0000E+00  0.0000E+00
     -2.399  0.5120E-01  0.4090E-02  0.1383E-02  0.1689E-02  0.0000E+00  0.0000E+00  0.0000E+00  0.0000E+00  0.0000E+00
     -2.251  0.5325E-01  0.4564E-02  0.1516E-02  0.1820E-02  0.0000E+00  0.0000E+00  0.0000E+00  0.0000E+00  0.0000E+00
     -2.102  0.5429E-01  0.4904E-02  0.1842E-02  0.2011E-02  0.0000E+00  0.0000E+00  0.0000E+00  0.0000E+00  0.0000E+00
     -1.954  0.5519E-01  0.5232E-02  0.2184E-02  0.2221E-02  0.0000E+00  0.0000E+00  0.0000E+00  0.0000E+00  0.0000E+00
     -1.806  0.5642E-01  0.5758E-02  0.2311E-02  0.2421E-02  0.0000E+00  0.0000E+00  0.0000E+00  0.0000E+00  0.0000E+00
     -1.658  0.5770E-01  0.6299E-02  0.2421E-02  0.2627E-02  0.0000E+00  0.0000E+00  0.0000E+00  0.0000E+00  0.0000E+00
     -1.510  0.5901E-01  0.6829E-02  0.2548E-02  0.2837E-02  0.0000E+00  0.0000E+00  0.0000E+00  0.0000E+00  0.0000E+00
     -1.362  0.6046E-01  0.7367E-02  0.2695E-02  0.3012E-02  0.0000E+00  0.0000E+00  0.0000E+00  0.0000E+00  0.0000E+00
     -1.214  0.6135E-01  0.7932E-02  0.2879E-02  0.3213E-02  0.0000E+00  0.0000E+00  0.0000E+00  0.0000E+00  0.0000E+00
     -1.066  0.6209E-01  0.8372E-02  0.3204E-02  0.3421E-02  0.0000E+00  0.0000E+00  0.0000E+00  0.0000E+00  0.0000E+00
     -0.918  0.6281E-01  0.8828E-02  0.3515E-02  0.3635E-02  0.0000E+00  0.0000E+00  0.0000E+00  0.0000E+00  0.0000E+00
     -0.769  0.6365E-01  0.9392E-02  0.3706E-02  0.3848E-02  0.0000E+00  0.0000E+00  0.0000E+00  0.0000E+00  0.0000E+00
     -0.621  0.6461E-01  0.1004E-01  0.3803E-02  0.4055E-02  0.0000E+00  0.0000E+00  0.0000E+00  0.0000E+00  0.0000E+00
     -0.473  0.6562E-01  0.1069E-01  0.3898E-02  0.4266E-02  0.0000E+00  0.0000E+00  0.0000E+00  0.0000E+00  0.0000E+00
     -0.325  0.6665E-01  0.1133E-01  0.4002E-02  0.4482E-02  0.0000E+00  0.0000E+00  0.0000E+00  0.0000E+00  0.0000E+00
     -0.177  0.6748E-01  0.1195E-01  0.4155E-02  0.4695E-02  0.0000E+00  0.0000E+00  0.0000E+00  0.0000E+00  0.0000E+00
     -0.029  0.6800E-01  0.1255E-01  0.4389E-02  0.4918E-02  0.0000E+00  0.0000E+00  0.0000E+00  0.0000E+00  0.0000E+00
      0.119  0.6854E-01  0.1302E-01  0.4739E-02  0.5129E-02  0.0000E+00  0.0000E+00  0.0000E+00  0.0000E+00  0.0000E+00
      0.267  0.6922E-01  0.1347E-01  0.5118E-02  0.5321E-02  0.0000E+00  0.0000E+00  0.0000E+00  0.0000E+00  0.0000E+00
      0.415  0.6991E-01  0.1394E-01  0.5464E-02  0.5517E-02  0.0000E+00  0.0000E+00  0.0000E+00  0.0000E+00  0.0000E+00
      0.563  0.7068E-01  0.1454E-01  0.5671E-02  0.5706E-02  0.0000E+00  0.0000E+00  0.0000E+00  0.0000E+00  0.0000E+00
      0.712  0.7158E-01  0.1520E-01  0.5800E-02  0.5883E-02  0.0000E+00  0.0000E+00  0.0000E+00  0.0000E+00  0.0000E+00
      0.860  0.7257E-01  0.1586E-01  0.5908E-02  0.6055E-02  0.0000E+00  0.0000E+00  0.0000E+00  0.0000E+00  0.0000E+00
      1.008  0.7362E-01  0.1652E-01  0.6012E-02  0.6222E-02  0.0000E+00  0.0000E+00  0.0000E+00  0.0000E+00  0.0000E+00
      1.156  0.7432E-01  0.1716E-01  0.6165E-02  0.6420E-02  0.0000E+00  0.0000E+00  0.0000E+00  0.0000E+00  0.0000E+00
      1.304  0.7530E-01  0.1765E-01  0.6436E-02  0.6568E-02  0.0000E+00  0.0000E+00  0.0000E+00  0.0000E+00  0.0000E+00
      1.452  0.7660E-01  0.1808E-01  0.6781E-02  0.6708E-02  0.0000E+00  0.0000E+00  0.0000E+00  0.0000E+00  0.0000E+00
      1.600  0.7853E-01  0.1856E-01  0.7085E-02  0.6828E-02  0.0000E+00  0.0000E+00  0.0000E+00  0.0000E+00  0.0000E+00
      1.748  0.8156E-01  0.1914E-01  0.7367E-02  0.6970E-02  0.0000E+00  0.0000E+00  0.0000E+00  0.0000E+00  0.0000E+00
      1.896  0.8578E-01  0.1986E-01  0.7638E-02  0.7160E-02  0.0000E+00  0.0000E+00  0.0000E+00  0.0000E+00  0.0000E+00
      2.045  0.8927E-01  0.2061E-01  0.7823E-02  0.7284E-02  0.0000E+00  0.0000E+00  0.0000E+00  0.0000E+00  0.0000E+00
      2.193  0.1019E+00  0.2244E-01  0.8266E-02  0.7915E-02  0.0000E+00  0.0000E+00  0.0000E+00  0.0000E+00  0.0000E+00
      2.341  0.8917E-01  0.2196E-01  0.7728E-02  0.7073E-02  0.0000E+00  0.0000E+00  0.0000E+00  0.0000E+00  0.0000E+00
      2.489  0.8429E-01  0.2195E-01  0.7596E-02  0.6758E-02  0.0000E+00  0.0000E+00  0.0000E+00  0.0000E+00  0.0000E+00
      2.637  0.8118E-01  0.2215E-01  0.7473E-02  0.6509E-02  0.0000E+00  0.0000E+00  0.0000E+00  0.0000E+00  0.0000E+00
      2.785  0.8571E-01  0.2333E-01  0.7938E-02  0.6692E-02  0.0000E+00  0.0000E+00  0.0000E+00  0.0000E+00  0.0000E+00
      2.933  0.7669E-01  0.2312E-01  0.7246E-02  0.6026E-02  0.0000E+00  0.0000E+00  0.0000E+00  0.0000E+00  0.0000E+00
      3.081  0.7527E-01  0.2401E-01  0.6948E-02  0.5813E-02  0.0000E+00  0.0000E+00  0.0000E+00  0.0000E+00  0.0000E+00
      3.229  0.6994E-01  0.2372E-01  0.6757E-02  0.5443E-02  0.0000E+00  0.0000E+00  0.0000E+00  0.0000E+00  0.0000E+00
      3.378  0.6737E-01  0.2523E-01  0.8136E-02  0.6591E-02  0.0000E+00  0.0000E+00  0.0000E+00  0.0000E+00  0.0000E+00
      3.526  0.6592E-01  0.2720E-01  0.9904E-02  0.8072E-02  0.0000E+00  0.0000E+00  0.0000E+00  0.0000E+00  0.0000E+00
      3.674  0.6478E-01  0.2887E-01  0.1129E-01  0.9138E-02  0.0000E+00  0.0000E+00  0.0000E+00  0.0000E+00  0.0000E+00
      3.822  0.6692E-01  0.3213E-01  0.1366E-01  0.1113E-01  0.0000E+00  0.0000E+00  0.0000E+00  0.0000E+00  0.0000E+00
      3.970  0.7681E-01  0.4092E-01  0.1993E-01  0.1663E-01  0.0000E+00  0.0000E+00  0.0000E+00  0.0000E+00  0.0000E+00
      4.118  0.6197E-01  0.3831E-01  0.1434E-01  0.1180E-01  0.0000E+00  0.0000E+00  0.0000E+00  0.0000E+00  0.0000E+00
      4.266  0.5896E-01  0.4102E-01  0.1479E-01  0.1226E-01  0.0000E+00  0.0000E+00  0.0000E+00  0.0000E+00  0.0000E+00
      4.414  0.5915E-01  0.4323E-01  0.1597E-01  0.1318E-01  0.0000E+00  0.0000E+00  0.0000E+00  0.0000E+00  0.0000E+00
      4.562  0.5823E-01  0.4486E-01  0.1730E-01  0.1429E-01  0.0000E+00  0.0000E+00  0.0000E+00  0.0000E+00  0.0000E+00
      4.711  0.5719E-01  0.4684E-01  0.1982E-01  0.1632E-01  0.0000E+00  0.0000E+00  0.0000E+00  0.0000E+00  0.0000E+00
      4.859  0.5257E-01  0.4242E-01  0.1920E-01  0.1522E-01  0.0000E+00  0.0000E+00  0.0000E+00  0.0000E+00  0.0000E+00
      5.007  0.5020E-01  0.3903E-01  0.2080E-01  0.1608E-01  0.0000E+00  0.0000E+00  0.0000E+00  0.0000E+00  0.0000E+00
      5.155  0.4674E-01  0.3548E-01  0.2056E-01  0.1578E-01  0.0000E+00  0.0000E+00  0.0000E+00  0.0000E+00  0.0000E+00
      5.303  0.4407E-01  0.3398E-01  0.2083E-01  0.1566E-01  0.0000E+00  0.0000E+00  0.0000E+00  0.0000E+00  0.0000E+00
      5.451  0.4097E-01  0.3268E-01  0.2159E-01  0.1596E-01  0.0000E+00  0.0000E+00  0.0000E+00  0.0000E+00  0.0000E+00
      5.599  0.3772E-01  0.2869E-01  0.2222E-01  0.1631E-01  0.0000E+00  0.0000E+00  0.0000E+00  0.0000E+00  0.0000E+00
      5.747  0.3927E-01  0.2831E-01  0.2322E-01  0.1699E-01  0.0000E+00  0.0000E+00  0.0000E+00  0.0000E+00  0.0000E+00
      5.895  0.5301E-01  0.4319E-01  0.2798E-01  0.2108E-01  0.0000E+00  0.0000E+00  0.0000E+00  0.0000E+00  0.0000E+00
      6.044  0.6018E-01  0.4696E-01  0.2682E-01  0.1895E-01  0.0000E+00  0.0000E+00  0.0000E+00  0.0000E+00  0.0000E+00
      6.192  0.6644E-01  0.4569E-01  0.2701E-01  0.1842E-01  0.0000E+00  0.0000E+00  0.0000E+00  0.0000E+00  0.0000E+00
      6.340  0.6804E-01  0.4407E-01  0.2642E-01  0.1774E-01  0.0000E+00  0.0000E+00  0.0000E+00  0.0000E+00  0.0000E+00
      6.488  0.6972E-01  0.4411E-01  0.2747E-01  0.1745E-01  0.0000E+00  0.0000E+00  0.0000E+00  0.0000E+00  0.0000E+00
      6.636  0.7015E-01  0.4769E-01  0.2729E-01  0.1664E-01  0.0000E+00  0.0000E+00  0.0000E+00  0.0000E+00  0.0000E+00
      6.784  0.6452E-01  0.4172E-01  0.2565E-01  0.1571E-01  0.0000E+00  0.0000E+00  0.0000E+00  0.0000E+00  0.0000E+00
      6.932  0.5641E-01  0.3627E-01  0.2500E-01  0.1497E-01  0.0000E+00  0.0000E+00  0.0000E+00  0.0000E+00  0.0000E+00
      7.080  0.5383E-01  0.3667E-01  0.2520E-01  0.1503E-01  0.0000E+00  0.0000E+00  0.0000E+00  0.0000E+00  0.0000E+00
      7.228  0.5175E-01  0.3368E-01  0.2548E-01  0.1548E-01  0.0000E+00  0.0000E+00  0.0000E+00  0.0000E+00  0.0000E+00
      7.377  0.5119E-01  0.3212E-01  0.2665E-01  0.1672E-01  0.0000E+00  0.0000E+00  0.0000E+00  0.0000E+00  0.0000E+00
      7.525  0.5606E-01  0.3230E-01  0.3189E-01  0.1965E-01  0.0000E+00  0.0000E+00  0.0000E+00  0.0000E+00  0.0000E+00
      7.673  0.5945E-01  0.3421E-01  0.3641E-01  0.2218E-01  0.0000E+00  0.0000E+00  0.0000E+00  0.0000E+00  0.0000E+00
      7.821  0.6462E-01  0.3829E-01  0.4182E-01  0.2445E-01  0.0000E+00  0.0000E+00  0.0000E+00  0.0000E+00  0.0000E+00
      7.969  0.5604E-01  0.3688E-01  0.3791E-01  0.2203E-01  0.0000E+00  0.0000E+00  0.0000E+00  0.0000E+00  0.0000E+00
      8.117  0.5605E-01  0.3670E-01  0.3732E-01  0.2194E-01  0.0000E+00  0.0000E+00  0.0000E+00  0.0000E+00  0.0000E+00
      8.265  0.5747E-01  0.3729E-01  0.3761E-01  0.2224E-01  0.0000E+00  0.0000E+00  0.0000E+00  0.0000E+00  0.0000E+00
      8.413  0.6044E-01  0.3898E-01  0.4006E-01  0.2321E-01  0.0000E+00  0.0000E+00  0.0000E+00  0.0000E+00  0.0000E+00
      8.561  0.5572E-01  0.3782E-01  0.3812E-01  0.2186E-01  0.0000E+00  0.0000E+00  0.0000E+00  0.0000E+00  0.0000E+00
      8.710  0.5570E-01  0.3844E-01  0.3750E-01  0.2202E-01  0.0000E+00  0.0000E+00  0.0000E+00  0.0000E+00  0.0000E+00
      8.858  0.5544E-01  0.3948E-01  0.3626E-01  0.2218E-01  0.0000E+00  0.0000E+00  0.0000E+00  0.0000E+00  0.0000E+00
      9.006  0.5221E-01  0.3947E-01  0.3497E-01  0.2186E-01  0.0000E+00  0.0000E+00  0.0000E+00  0.0000E+00  0.0000E+00
      9.154  0.5422E-01  0.4082E-01  0.3719E-01  0.2675E-01  0.0000E+00  0.0000E+00  0.0000E+00  0.0000E+00  0.0000E+00
      9.302  0.5414E-01  0.4105E-01  0.3804E-01  0.2767E-01  0.0000E+00  0.0000E+00  0.0000E+00  0.0000E+00  0.0000E+00
      9.450  0.5489E-01  0.4104E-01  0.3901E-01  0.2887E-01  0.0000E+00  0.0000E+00  0.0000E+00  0.0000E+00  0.0000E+00
      9.598  0.5231E-01  0.4018E-01  0.4057E-01  0.2880E-01  0.0000E+00  0.0000E+00  0.0000E+00  0.0000E+00  0.0000E+00
      9.746  0.5137E-01  0.3988E-01  0.4505E-01  0.2988E-01  0.0000E+00  0.0000E+00  0.0000E+00  0.0000E+00  0.0000E+00
      9.894  0.5054E-01  0.4035E-01  0.4120E-01  0.2991E-01  0.0000E+00  0.0000E+00  0.0000E+00  0.0000E+00  0.0000E+00
     10.043  0.5014E-01  0.4062E-01  0.4223E-01  0.3113E-01  0.0000E+00  0.0000E+00  0.0000E+00  0.0000E+00  0.0000E+00
     10.191  0.4996E-01  0.4106E-01  0.4291E-01  0.3258E-01  0.0000E+00  0.0000E+00  0.0000E+00  0.0000E+00  0.0000E+00
     10.339  0.4984E-01  0.4177E-01  0.4371E-01  0.3405E-01  0.0000E+00  0.0000E+00  0.0000E+00  0.0000E+00  0.0000E+00
     10.487  0.4839E-01  0.4108E-01  0.4421E-01  0.3472E-01  0.0000E+00  0.0000E+00  0.0000E+00  0.0000E+00  0.0000E+00
     10.635  0.4995E-01  0.4210E-01  0.4671E-01  0.4085E-01  0.0000E+00  0.0000E+00  0.0000E+00  0.0000E+00  0.0000E+00
     10.783  0.4835E-01  0.4219E-01  0.4653E-01  0.3813E-01  0.0000E+00  0.0000E+00  0.0000E+00  0.0000E+00  0.0000E+00
     10.931  0.4712E-01  0.4222E-01  0.4680E-01  0.3854E-01  0.0000E+00  0.0000E+00  0.0000E+00  0.0000E+00  0.0000E+00
     11.079  0.4609E-01  0.4209E-01  0.4602E-01  0.3932E-01  0.0000E+00  0.0000E+00  0.0000E+00  0.0000E+00  0.0000E+00
     11.227  0.4568E-01  0.4227E-01  0.4647E-01  0.4062E-01  0.0000E+00  0.0000E+00  0.0000E+00  0.0000E+00  0.0000E+00
     11.376  0.4563E-01  0.4257E-01  0.4854E-01  0.4262E-01  0.0000E+00  0.0000E+00  0.0000E+00  0.0000E+00  0.0000E+00
     11.524  0.4520E-01  0.4280E-01  0.5067E-01  0.4512E-01  0.0000E+00  0.0000E+00  0.0000E+00  0.0000E+00  0.0000E+00
     11.672  0.4503E-01  0.4325E-01  0.5561E-01  0.4865E-01  0.0000E+00  0.0000E+00  0.0000E+00  0.0000E+00  0.0000E+00
     11.820  0.4284E-01  0.4257E-01  0.5252E-01  0.4884E-01  0.0000E+00  0.0000E+00  0.0000E+00  0.0000E+00  0.0000E+00
     11.968  0.4354E-01  0.4205E-01  0.5625E-01  0.5894E-01  0.0000E+00  0.0000E+00  0.0000E+00  0.0000E+00  0.0000E+00
     12.116  0.4185E-01  0.4170E-01  0.5947E-01  0.6071E-01  0.0000E+00  0.0000E+00  0.0000E+00  0.0000E+00  0.0000E+00
     12.264  0.3980E-01  0.4152E-01  0.5889E-01  0.5852E-01  0.0000E+00  0.0000E+00  0.0000E+00  0.0000E+00  0.0000E+00
     12.412  0.3895E-01  0.4164E-01  0.6146E-01  0.6143E-01  0.0000E+00  0.0000E+00  0.0000E+00  0.0000E+00  0.0000E+00
     12.560  0.3847E-01  0.4198E-01  0.6522E-01  0.6669E-01  0.0000E+00  0.0000E+00  0.0000E+00  0.0000E+00  0.0000E+00
     12.709  0.3827E-01  0.4294E-01  0.6991E-01  0.7367E-01  0.0000E+00  0.0000E+00  0.0000E+00  0.0000E+00  0.0000E+00
     12.857  0.3719E-01  0.4318E-01  0.7371E-01  0.7744E-01  0.0000E+00  0.0000E+00  0.0000E+00  0.0000E+00  0.0000E+00
     13.005  0.3601E-01  0.4324E-01  0.7797E-01  0.8159E-01  0.0000E+00  0.0000E+00  0.0000E+00  0.0000E+00  0.0000E+00
     13.153  0.3444E-01  0.4335E-01  0.8100E-01  0.8227E-01  0.0000E+00  0.0000E+00  0.0000E+00  0.0000E+00  0.0000E+00
     13.301  0.3248E-01  0.4305E-01  0.7638E-01  0.7537E-01  0.0000E+00  0.0000E+00  0.0000E+00  0.0000E+00  0.0000E+00
     13.449  0.3075E-01  0.4262E-01  0.7662E-01  0.7444E-01  0.0000E+00  0.0000E+00  0.0000E+00  0.0000E+00  0.0000E+00
     13.597  0.2912E-01  0.4202E-01  0.7795E-01  0.7489E-01  0.0000E+00  0.0000E+00  0.0000E+00  0.0000E+00  0.0000E+00
     13.745  0.2783E-01  0.4139E-01  0.7632E-01  0.7324E-01  0.0000E+00  0.0000E+00  0.0000E+00  0.0000E+00  0.0000E+00
     13.893  0.2669E-01  0.4063E-01  0.7497E-01  0.7130E-01  0.0000E+00  0.0000E+00  0.0000E+00  0.0000E+00  0.0000E+00
     14.042  0.2554E-01  0.3981E-01  0.7396E-01  0.7028E-01  0.0000E+00  0.0000E+00  0.0000E+00  0.0000E+00  0.0000E+00
     14.190  0.2429E-01  0.3911E-01  0.7284E-01  0.6919E-01  0.0000E+00  0.0000E+00  0.0000E+00  0.0000E+00  0.0000E+00
     14.338  0.2381E-01  0.3989E-01  0.7193E-01  0.6750E-01  0.0000E+00  0.0000E+00  0.0000E+00  0.0000E+00  0.0000E+00
     14.486  0.2279E-01  0.3955E-01  0.7077E-01  0.6564E-01  0.0000E+00  0.0000E+00  0.0000E+00  0.0000E+00  0.0000E+00
     14.634  0.2181E-01  0.3912E-01  0.6964E-01  0.6380E-01  0.0000E+00  0.0000E+00  0.0000E+00  0.0000E+00  0.0000E+00
     14.782  0.2090E-01  0.3882E-01  0.6868E-01  0.6223E-01  0.0000E+00  0.0000E+00  0.0000E+00  0.0000E+00  0.0000E+00
     14.930  0.2001E-01  0.3873E-01  0.6802E-01  0.6118E-01  0.0000E+00  0.0000E+00  0.0000E+00  0.0000E+00  0.0000E+00
     15.078  0.1953E-01  0.4023E-01  0.6799E-01  0.6089E-01  0.0000E+00  0.0000E+00  0.0000E+00  0.0000E+00  0.0000E+00
     15.226  0.1882E-01  0.4053E-01  0.6784E-01  0.6084E-01  0.0000E+00  0.0000E+00  0.0000E+00  0.0000E+00  0.0000E+00
     15.375  0.1809E-01  0.4080E-01  0.6740E-01  0.6154E-01  0.0000E+00  0.0000E+00  0.0000E+00  0.0000E+00  0.0000E+00
     15.523  0.1786E-01  0.4110E-01  0.6564E-01  0.6107E-01  0.0000E+00  0.0000E+00  0.0000E+00  0.0000E+00  0.0000E+00
     15.671  0.1777E-01  0.4134E-01  0.6352E-01  0.5988E-01  0.0000E+00  0.0000E+00  0.0000E+00  0.0000E+00  0.0000E+00
     15.819  0.1767E-01  0.4121E-01  0.6147E-01  0.5805E-01  0.0000E+00  0.0000E+00  0.0000E+00  0.0000E+00  0.0000E+00
     15.967  0.1779E-01  0.4113E-01  0.5969E-01  0.5634E-01  0.0000E+00  0.0000E+00  0.0000E+00  0.0000E+00  0.0000E+00
     16.115  0.1810E-01  0.4119E-01  0.5794E-01  0.5461E-01  0.0000E+00  0.0000E+00  0.0000E+00  0.0000E+00  0.0000E+00
     16.263  0.1854E-01  0.4165E-01  0.5708E-01  0.5380E-01  0.0000E+00  0.0000E+00  0.0000E+00  0.0000E+00  0.0000E+00
     16.411  0.1899E-01  0.4232E-01  0.5723E-01  0.5428E-01  0.0000E+00  0.0000E+00  0.0000E+00  0.0000E+00  0.0000E+00
     16.559  0.1946E-01  0.4286E-01  0.5735E-01  0.5429E-01  0.0000E+00  0.0000E+00  0.0000E+00  0.0000E+00  0.0000E+00
     16.708  0.2036E-01  0.4340E-01  0.5791E-01  0.5457E-01  0.0000E+00  0.0000E+00  0.0000E+00  0.0000E+00  0.0000E+00
     16.856  0.2160E-01  0.4406E-01  0.5792E-01  0.5429E-01  0.0000E+00  0.0000E+00  0.0000E+00  0.0000E+00  0.0000E+00
     17.004  0.2303E-01  0.4454E-01  0.5747E-01  0.5366E-01  0.0000E+00  0.0000E+00  0.0000E+00  0.0000E+00  0.0000E+00
     17.152  0.2465E-01  0.4444E-01  0.5647E-01  0.5296E-01  0.0000E+00  0.0000E+00  0.0000E+00  0.0000E+00  0.0000E+00
     17.300  0.2645E-01  0.4350E-01  0.5486E-01  0.5196E-01  0.0000E+00  0.0000E+00  0.0000E+00  0.0000E+00  0.0000E+00
     17.448  0.2844E-01  0.4275E-01  0.5362E-01  0.5181E-01  0.0000E+00  0.0000E+00  0.0000E+00  0.0000E+00  0.0000E+00
     17.596  0.2948E-01  0.4270E-01  0.5293E-01  0.5299E-01  0.0000E+00  0.0000E+00  0.0000E+00  0.0000E+00  0.0000E+00
     17.744  0.2972E-01  0.4316E-01  0.5158E-01  0.5404E-01  0.0000E+00  0.0000E+00  0.0000E+00  0.0000E+00  0.0000E+00
     17.892  0.2928E-01  0.4386E-01  0.4992E-01  0.5427E-01  0.0000E+00  0.0000E+00  0.0000E+00  0.0000E+00  0.0000E+00
     18.040  0.2917E-01  0.4504E-01  0.4788E-01  0.5450E-01  0.0000E+00  0.0000E+00  0.0000E+00  0.0000E+00  0.0000E+00
     18.189  0.2941E-01  0.4408E-01  0.4340E-01  0.5030E-01  0.0000E+00  0.0000E+00  0.0000E+00  0.0000E+00  0.0000E+00
     18.337  0.2927E-01  0.4335E-01  0.4277E-01  0.5097E-01  0.0000E+00  0.0000E+00  0.0000E+00  0.0000E+00  0.0000E+00
     18.485  0.2897E-01  0.4141E-01  0.4108E-01  0.5002E-01  0.0000E+00  0.0000E+00  0.0000E+00  0.0000E+00  0.0000E+00
     18.633  0.2879E-01  0.4012E-01  0.3972E-01  0.4969E-01  0.0000E+00  0.0000E+00  0.0000E+00  0.0000E+00  0.0000E+00
     18.781  0.2861E-01  0.3851E-01  0.3841E-01  0.4993E-01  0.0000E+00  0.0000E+00  0.0000E+00  0.0000E+00  0.0000E+00
     18.929  0.2855E-01  0.3687E-01  0.3691E-01  0.5005E-01  0.0000E+00  0.0000E+00  0.0000E+00  0.0000E+00  0.0000E+00
     19.077  0.2826E-01  0.3560E-01  0.3573E-01  0.5055E-01  0.0000E+00  0.0000E+00  0.0000E+00  0.0000E+00  0.0000E+00
     19.225  0.2794E-01  0.3484E-01  0.3498E-01  0.5191E-01  0.0000E+00  0.0000E+00  0.0000E+00  0.0000E+00  0.0000E+00
     19.373  0.2763E-01  0.3433E-01  0.3460E-01  0.5356E-01  0.0000E+00  0.0000E+00  0.0000E+00  0.0000E+00  0.0000E+00
     19.522  0.2729E-01  0.3355E-01  0.3448E-01  0.5518E-01  0.0000E+00  0.0000E+00  0.0000E+00  0.0000E+00  0.0000E+00
     19.670  0.2646E-01  0.3285E-01  0.3493E-01  0.5730E-01  0.0000E+00  0.0000E+00  0.0000E+00  0.0000E+00  0.0000E+00
     19.818  0.2600E-01  0.3309E-01  0.3459E-01  0.6015E-01  0.0000E+00  0.0000E+00  0.0000E+00  0.0000E+00  0.0000E+00
     19.966  0.2519E-01  0.2996E-01  0.3509E-01  0.6465E-01  0.0000E+00  0.0000E+00  0.0000E+00  0.0000E+00  0.0000E+00
     20.114  0.2478E-01  0.2831E-01  0.3559E-01  0.6995E-01  0.0000E+00  0.0000E+00  0.0000E+00  0.0000E+00  0.0000E+00
     20.262  0.2491E-01  0.3114E-01  0.3793E-01  0.8025E-01  0.0000E+00  0.0000E+00  0.0000E+00  0.0000E+00  0.0000E+00
     20.410  0.2431E-01  0.2101E-01  0.3183E-01  0.7521E-01  0.0000E+00  0.0000E+00  0.0000E+00  0.0000E+00  0.0000E+00
     20.558  0.2270E-01  0.1448E-01  0.2782E-01  0.7088E-01  0.0000E+00  0.0000E+00  0.0000E+00  0.0000E+00  0.0000E+00
     20.706  0.2031E-01  0.1031E-01  0.2537E-01  0.6354E-01  0.0000E+00  0.0000E+00  0.0000E+00  0.0000E+00  0.0000E+00
     20.855  0.1847E-01  0.9500E-02  0.2504E-01  0.6261E-01  0.0000E+00  0.0000E+00  0.0000E+00  0.0000E+00  0.0000E+00
     21.003  0.1758E-01  0.9595E-02  0.2580E-01  0.6553E-01  0.0000E+00  0.0000E+00  0.0000E+00  0.0000E+00  0.0000E+00
     21.151  0.1700E-01  0.9833E-02  0.2732E-01  0.7046E-01  0.0000E+00  0.0000E+00  0.0000E+00  0.0000E+00  0.0000E+00
     21.299  0.1645E-01  0.1018E-01  0.2902E-01  0.7615E-01  0.0000E+00  0.0000E+00  0.0000E+00  0.0000E+00  0.0000E+00
     21.447  0.1438E-01  0.9005E-02  0.2638E-01  0.6296E-01  0.0000E+00  0.0000E+00  0.0000E+00  0.0000E+00  0.0000E+00
     21.595  0.1425E-01  0.8835E-02  0.2641E-01  0.5985E-01  0.0000E+00  0.0000E+00  0.0000E+00  0.0000E+00  0.0000E+00
     21.743  0.1346E-01  0.8496E-02  0.2522E-01  0.5462E-01  0.0000E+00  0.0000E+00  0.0000E+00  0.0000E+00  0.0000E+00
     21.891  0.1277E-01  0.8596E-02  0.2403E-01  0.5111E-01  0.0000E+00  0.0000E+00  0.0000E+00  0.0000E+00  0.0000E+00
     22.039  0.1271E-01  0.9418E-02  0.2381E-01  0.4991E-01  0.0000E+00  0.0000E+00  0.0000E+00  0.0000E+00  0.0000E+00
     22.188  0.1239E-01  0.8647E-02  0.2312E-01  0.4761E-01  0.0000E+00  0.0000E+00  0.0000E+00  0.0000E+00  0.0000E+00
     22.336  0.1239E-01  0.8801E-02  0.2281E-01  0.4775E-01  0.0000E+00  0.0000E+00  0.0000E+00  0.0000E+00  0.0000E+00
     22.484  0.1325E-01  0.9182E-02  0.2317E-01  0.5090E-01  0.0000E+00  0.0000E+00  0.0000E+00  0.0000E+00  0.0000E+00
     22.632  0.1557E-01  0.1031E-01  0.2527E-01  0.5782E-01  0.0000E+00  0.0000E+00  0.0000E+00  0.0000E+00  0.0000E+00
     22.780  0.1483E-01  0.1157E-01  0.2547E-01  0.6154E-01  0.0000E+00  0.0000E+00  0.0000E+00  0.0000E+00  0.0000E+00
     22.928  0.1785E-01  0.1330E-01  0.2392E-01  0.6786E-01  0.0000E+00  0.0000E+00  0.0000E+00  0.0000E+00  0.0000E+00
     23.076  0.2185E-01  0.1792E-01  0.2493E-01  0.7238E-01  0.0000E+00  0.0000E+00  0.0000E+00  0.0000E+00  0.0000E+00
     23.224  0.2504E-01  0.2208E-01  0.2643E-01  0.7411E-01  0.0000E+00  0.0000E+00  0.0000E+00  0.0000E+00  0.0000E+00
     23.372  0.2804E-01  0.2722E-01  0.2808E-01  0.7352E-01  0.0000E+00  0.0000E+00  0.0000E+00  0.0000E+00  0.0000E+00
     23.521  0.3213E-01  0.3903E-01  0.3203E-01  0.7477E-01  0.0000E+00  0.0000E+00  0.0000E+00  0.0000E+00  0.0000E+00
     23.669  0.3171E-01  0.3926E-01  0.3517E-01  0.7229E-01  0.0000E+00  0.0000E+00  0.0000E+00  0.0000E+00  0.0000E+00
     23.817  0.2505E-01  0.3369E-01  0.3575E-01  0.6639E-01  0.0000E+00  0.0000E+00  0.0000E+00  0.0000E+00  0.0000E+00
     23.965  0.2017E-01  0.2439E-01  0.2680E-01  0.5036E-01  0.0000E+00  0.0000E+00  0.0000E+00  0.0000E+00  0.0000E+00
     24.113  0.2047E-01  0.2244E-01  0.2651E-01  0.5013E-01  0.0000E+00  0.0000E+00  0.0000E+00  0.0000E+00  0.0000E+00
     24.261  0.1941E-01  0.2103E-01  0.2618E-01  0.4712E-01  0.0000E+00  0.0000E+00  0.0000E+00  0.0000E+00  0.0000E+00
     24.409  0.1884E-01  0.2137E-01  0.2746E-01  0.4459E-01  0.0000E+00  0.0000E+00  0.0000E+00  0.0000E+00  0.0000E+00
     24.557  0.1915E-01  0.2326E-01  0.2860E-01  0.4277E-01  0.0000E+00  0.0000E+00  0.0000E+00  0.0000E+00  0.0000E+00
     24.705  0.2796E-01  0.4635E-01  0.3802E-01  0.4494E-01  0.0000E+00  0.0000E+00  0.0000E+00  0.0000E+00  0.0000E+00
     24.854  0.2299E-01  0.2756E-01  0.3884E-01  0.4417E-01  0.0000E+00  0.0000E+00  0.0000E+00  0.0000E+00  0.0000E+00
     25.002  0.2036E-01  0.2304E-01  0.3333E-01  0.3625E-01  0.0000E+00  0.0000E+00  0.0000E+00  0.0000E+00  0.0000E+00
     25.150  0.1908E-01  0.2281E-01  0.3283E-01  0.3238E-01  0.0000E+00  0.0000E+00  0.0000E+00  0.0000E+00  0.0000E+00
     25.298  0.1781E-01  0.2353E-01  0.3399E-01  0.3050E-01  0.0000E+00  0.0000E+00  0.0000E+00  0.0000E+00  0.0000E+00
     25.446  0.1786E-01  0.2462E-01  0.3987E-01  0.3851E-01  0.0000E+00  0.0000E+00  0.0000E+00  0.0000E+00  0.0000E+00
     25.594  0.1762E-01  0.2497E-01  0.3890E-01  0.3667E-01  0.0000E+00  0.0000E+00  0.0000E+00  0.0000E+00  0.0000E+00
     25.742  0.1991E-01  0.2876E-01  0.3855E-01  0.4025E-01  0.0000E+00  0.0000E+00  0.0000E+00  0.0000E+00  0.0000E+00
     25.890  0.2003E-01  0.2824E-01  0.3714E-01  0.3842E-01  0.0000E+00  0.0000E+00  0.0000E+00  0.0000E+00  0.0000E+00
     26.038  0.1864E-01  0.2840E-01  0.3925E-01  0.3821E-01  0.0000E+00  0.0000E+00  0.0000E+00  0.0000E+00  0.0000E+00
     26.187  0.1753E-01  0.2897E-01  0.3901E-01  0.3763E-01  0.0000E+00  0.0000E+00  0.0000E+00  0.0000E+00  0.0000E+00
     26.335  0.1671E-01  0.3058E-01  0.3732E-01  0.3645E-01  0.0000E+00  0.0000E+00  0.0000E+00  0.0000E+00  0.0000E+00
     26.483  0.1573E-01  0.3014E-01  0.3557E-01  0.3557E-01  0.0000E+00  0.0000E+00  0.0000E+00  0.0000E+00  0.0000E+00
     26.631  0.1461E-01  0.2806E-01  0.3449E-01  0.3503E-01  0.0000E+00  0.0000E+00  0.0000E+00  0.0000E+00  0.0000E+00
     26.779  0.1339E-01  0.2489E-01  0.3233E-01  0.3197E-01  0.0000E+00  0.0000E+00  0.0000E+00  0.0000E+00  0.0000E+00
     26.927  0.1259E-01  0.2388E-01  0.3230E-01  0.2988E-01  0.0000E+00  0.0000E+00  0.0000E+00  0.0000E+00  0.0000E+00
     27.075  0.1221E-01  0.2417E-01  0.3364E-01  0.2816E-01  0.0000E+00  0.0000E+00  0.0000E+00  0.0000E+00  0.0000E+00
     27.223  0.1204E-01  0.2382E-01  0.3308E-01  0.2728E-01  0.0000E+00  0.0000E+00  0.0000E+00  0.0000E+00  0.0000E+00
     27.371  0.1243E-01  0.2375E-01  0.3379E-01  0.2806E-01  0.0000E+00  0.0000E+00  0.0000E+00  0.0000E+00  0.0000E+00
     27.520  0.1313E-01  0.2410E-01  0.3571E-01  0.2977E-01  0.0000E+00  0.0000E+00  0.0000E+00  0.0000E+00  0.0000E+00
     27.668  0.1077E-01  0.2271E-01  0.3446E-01  0.2780E-01  0.0000E+00  0.0000E+00  0.0000E+00  0.0000E+00  0.0000E+00
     27.816  0.9852E-02  0.1926E-01  0.2734E-01  0.2331E-01  0.0000E+00  0.0000E+00  0.0000E+00  0.0000E+00  0.0000E+00
     27.964  0.9544E-02  0.1565E-01  0.2011E-01  0.1901E-01  0.0000E+00  0.0000E+00  0.0000E+00  0.0000E+00  0.0000E+00
     28.112  0.9465E-02  0.1322E-01  0.1750E-01  0.1716E-01  0.0000E+00  0.0000E+00  0.0000E+00  0.0000E+00  0.0000E+00
     28.260  0.9439E-02  0.1153E-01  0.1614E-01  0.1587E-01  0.0000E+00  0.0000E+00  0.0000E+00  0.0000E+00  0.0000E+00
     28.408  0.9530E-02  0.1118E-01  0.1579E-01  0.1513E-01  0.0000E+00  0.0000E+00  0.0000E+00  0.0000E+00  0.0000E+00
     28.556  0.9798E-02  0.1192E-01  0.1660E-01  0.1487E-01  0.0000E+00  0.0000E+00  0.0000E+00  0.0000E+00  0.0000E+00
     28.704  0.1147E-01  0.1694E-01  0.2027E-01  0.1650E-01  0.0000E+00  0.0000E+00  0.0000E+00  0.0000E+00  0.0000E+00
     28.853  0.1106E-01  0.1652E-01  0.2112E-01  0.1701E-01  0.0000E+00  0.0000E+00  0.0000E+00  0.0000E+00  0.0000E+00
     29.001  0.1094E-01  0.1819E-01  0.2266E-01  0.1827E-01  0.0000E+00  0.0000E+00  0.0000E+00  0.0000E+00  0.0000E+00
     29.149  0.1236E-01  0.2371E-01  0.2996E-01  0.2516E-01  0.0000E+00  0.0000E+00  0.0000E+00  0.0000E+00  0.0000E+00
     29.297  0.1318E-01  0.2626E-01  0.2939E-01  0.2508E-01  0.0000E+00  0.0000E+00  0.0000E+00  0.0000E+00  0.0000E+00
     29.445  0.1148E-01  0.2748E-01  0.2829E-01  0.2505E-01  0.0000E+00  0.0000E+00  0.0000E+00  0.0000E+00  0.0000E+00
     29.593  0.1191E-01  0.3015E-01  0.2648E-01  0.2459E-01  0.0000E+00  0.0000E+00  0.0000E+00  0.0000E+00  0.0000E+00
     29.741  0.1135E-01  0.3017E-01  0.2410E-01  0.2267E-01  0.0000E+00  0.0000E+00  0.0000E+00  0.0000E+00  0.0000E+00
     29.889  0.9999E-02  0.2769E-01  0.2200E-01  0.2023E-01  0.0000E+00  0.0000E+00  0.0000E+00  0.0000E+00  0.0000E+00
     30.037  0.8572E-02  0.2484E-01  0.2005E-01  0.1786E-01  0.0000E+00  0.0000E+00  0.0000E+00  0.0000E+00  0.0000E+00
     30.186  0.7246E-02  0.2203E-01  0.1822E-01  0.1546E-01  0.0000E+00  0.0000E+00  0.0000E+00  0.0000E+00  0.0000E+00
     30.334  0.6074E-02  0.1907E-01  0.1656E-01  0.1318E-01  0.0000E+00  0.0000E+00  0.0000E+00  0.0000E+00  0.0000E+00
     30.482  0.5073E-02  0.1623E-01  0.1502E-01  0.1091E-01  0.0000E+00  0.0000E+00  0.0000E+00  0.0000E+00  0.0000E+00
     30.630  0.4443E-02  0.1468E-01  0.1413E-01  0.9880E-02  0.0000E+00  0.0000E+00  0.0000E+00  0.0000E+00  0.0000E+00
     30.778  0.3968E-02  0.1373E-01  0.1351E-01  0.9315E-02  0.0000E+00  0.0000E+00  0.0000E+00  0.0000E+00  0.0000E+00
     30.926  0.3573E-02  0.1304E-01  0.1296E-01  0.8763E-02  0.0000E+00  0.0000E+00  0.0000E+00  0.0000E+00  0.0000E+00
     31.074  0.3248E-02  0.1252E-01  0.1242E-01  0.8235E-02  0.0000E+00  0.0000E+00  0.0000E+00  0.0000E+00  0.0000E+00
     31.222  0.2964E-02  0.1206E-01  0.1185E-01  0.7717E-02  0.0000E+00  0.0000E+00  0.0000E+00  0.0000E+00  0.0000E+00
     31.370  0.2733E-02  0.1166E-01  0.1121E-01  0.7258E-02  0.0000E+00  0.0000E+00  0.0000E+00  0.0000E+00  0.0000E+00
     31.519  0.2531E-02  0.1126E-01  0.1052E-01  0.6847E-02  0.0000E+00  0.0000E+00  0.0000E+00  0.0000E+00  0.0000E+00
     31.667  0.2325E-02  0.1075E-01  0.9867E-02  0.6355E-02  0.0000E+00  0.0000E+00  0.0000E+00  0.0000E+00  0.0000E+00
     31.815  0.2124E-02  0.1012E-01  0.9231E-02  0.5874E-02  0.0000E+00  0.0000E+00  0.0000E+00  0.0000E+00  0.0000E+00
     31.963  0.1921E-02  0.9399E-02  0.8636E-02  0.5422E-02  0.0000E+00  0.0000E+00  0.0000E+00  0.0000E+00  0.0000E+00
     32.111  0.1720E-02  0.8661E-02  0.8090E-02  0.5013E-02  0.0000E+00  0.0000E+00  0.0000E+00  0.0000E+00  0.0000E+00
     32.259  0.1507E-02  0.7564E-02  0.7394E-02  0.4666E-02  0.0000E+00  0.0000E+00  0.0000E+00  0.0000E+00  0.0000E+00
     32.407  0.1346E-02  0.7180E-02  0.7101E-02  0.4356E-02  0.0000E+00  0.0000E+00  0.0000E+00  0.0000E+00  0.0000E+00
     32.555  0.1208E-02  0.6890E-02  0.6793E-02  0.3944E-02  0.0000E+00  0.0000E+00  0.0000E+00  0.0000E+00  0.0000E+00
     32.703  0.1071E-02  0.6499E-02  0.6439E-02  0.3654E-02  0.0000E+00  0.0000E+00  0.0000E+00  0.0000E+00  0.0000E+00
     32.852  0.9160E-03  0.5973E-02  0.5664E-02  0.3322E-02  0.0000E+00  0.0000E+00  0.0000E+00  0.0000E+00  0.0000E+00
     33.000  0.7688E-03  0.5385E-02  0.5120E-02  0.2947E-02  0.0000E+00  0.0000E+00  0.0000E+00  0.0000E+00  0.0000E+00
     33.148  0.6256E-03  0.4770E-02  0.4570E-02  0.2533E-02  0.0000E+00  0.0000E+00  0.0000E+00  0.0000E+00  0.0000E+00
     33.296  0.5153E-03  0.4221E-02  0.3928E-02  0.2100E-02  0.0000E+00  0.0000E+00  0.0000E+00  0.0000E+00  0.0000E+00
     33.444  0.4395E-03  0.3769E-02  0.3474E-02  0.1800E-02  0.0000E+00  0.0000E+00  0.0000E+00  0.0000E+00  0.0000E+00
     33.592  0.3755E-03  0.3396E-02  0.3081E-02  0.1556E-02  0.0000E+00  0.0000E+00  0.0000E+00  0.0000E+00  0.0000E+00
     33.740  0.3201E-03  0.3099E-02  0.2742E-02  0.1337E-02  0.0000E+00  0.0000E+00  0.0000E+00  0.0000E+00  0.0000E+00
     33.888  0.2726E-03  0.2796E-02  0.2377E-02  0.1145E-02  0.0000E+00  0.0000E+00  0.0000E+00  0.0000E+00  0.0000E+00
     34.036  0.2298E-03  0.2515E-02  0.2048E-02  0.9778E-03  0.0000E+00  0.0000E+00  0.0000E+00  0.0000E+00  0.0000E+00
     34.185  0.1899E-03  0.2274E-02  0.1789E-02  0.8175E-03  0.0000E+00  0.0000E+00  0.0000E+00  0.0000E+00  0.0000E+00
     34.333  0.1547E-03  0.2077E-02  0.1571E-02  0.6726E-03  0.0000E+00  0.0000E+00  0.0000E+00  0.0000E+00  0.0000E+00
     34.481  0.1243E-03  0.1878E-02  0.1386E-02  0.5590E-03  0.0000E+00  0.0000E+00  0.0000E+00  0.0000E+00  0.0000E+00
     34.629  0.9795E-04  0.1661E-02  0.1326E-02  0.5069E-03  0.0000E+00  0.0000E+00  0.0000E+00  0.0000E+00  0.0000E+00
     34.777  0.8561E-04  0.1485E-02  0.1499E-02  0.5362E-03  0.0000E+00  0.0000E+00  0.0000E+00  0.0000E+00  0.0000E+00
     34.925  0.5087E-04  0.1053E-02  0.7177E-03  0.3653E-03  0.0000E+00  0.0000E+00  0.0000E+00  0.0000E+00  0.0000E+00
     35.073  0.3153E-04  0.7754E-03  0.2990E-03  0.2516E-03  0.0000E+00  0.0000E+00  0.0000E+00  0.0000E+00  0.0000E+00
     35.221  0.2385E-04  0.6231E-03  0.2304E-03  0.2074E-03  0.0000E+00  0.0000E+00  0.0000E+00  0.0000E+00  0.0000E+00
     35.369  0.1703E-04  0.4879E-03  0.1686E-03  0.1643E-03  0.0000E+00  0.0000E+00  0.0000E+00  0.0000E+00  0.0000E+00
     35.517  0.1108E-04  0.3700E-03  0.1134E-03  0.1221E-03  0.0000E+00  0.0000E+00  0.0000E+00  0.0000E+00  0.0000E+00
     35.666  0.5994E-05  0.2692E-03  0.6494E-04  0.8075E-04  0.0000E+00  0.0000E+00  0.0000E+00  0.0000E+00  0.0000E+00
     35.814  0.2026E-05  0.1977E-03  0.3277E-04  0.6653E-04  0.0000E+00  0.0000E+00  0.0000E+00  0.0000E+00  0.0000E+00
     35.962  0.1443E-06  0.6738E-04  0.8305E-05  0.2618E-04  0.0000E+00  0.0000E+00  0.0000E+00  0.0000E+00  0.0000E+00
     36.110  0.0000E+00  0.0000E+00  0.0000E+00  0.0000E+00  0.0000E+00  0.0000E+00  0.0000E+00  0.0000E+00  0.0000E+00
     36.258  0.0000E+00  0.0000E+00  0.0000E+00  0.0000E+00  0.0000E+00  0.0000E+00  0.0000E+00  0.0000E+00  0.0000E+00
     36.406  0.0000E+00  0.0000E+00  0.0000E+00  0.0000E+00  0.0000E+00  0.0000E+00  0.0000E+00  0.0000E+00  0.0000E+00
     36.554  0.0000E+00  0.0000E+00  0.0000E+00  0.0000E+00  0.0000E+00  0.0000E+00  0.0000E+00  0.0000E+00  0.0000E+00
     36.702  0.0000E+00  0.0000E+00  0.0000E+00  0.0000E+00  0.0000E+00  0.0000E+00  0.0000E+00  0.0000E+00  0.0000E+00
     36.850  0.0000E+00  0.0000E+00  0.0000E+00  0.0000E+00  0.0000E+00  0.0000E+00  0.0000E+00  0.0000E+00  0.0000E+00
     36.999  0.0000E+00  0.0000E+00  0.0000E+00  0.0000E+00  0.0000E+00  0.0000E+00  0.0000E+00  0.0000E+00  0.0000E+00
     37.147  0.0000E+00  0.0000E+00  0.0000E+00  0.0000E+00  0.0000E+00  0.0000E+00  0.0000E+00  0.0000E+00  0.0000E+00
     37.295  0.0000E+00  0.0000E+00  0.0000E+00  0.0000E+00  0.0000E+00  0.0000E+00  0.0000E+00  0.0000E+00  0.0000E+00
     37.443  0.0000E+00  0.0000E+00  0.0000E+00  0.0000E+00  0.0000E+00  0.0000E+00  0.0000E+00  0.0000E+00  0.0000E+00
     37.591  0.0000E+00  0.0000E+00  0.0000E+00  0.0000E+00  0.0000E+00  0.0000E+00  0.0000E+00  0.0000E+00  0.0000E+00
     37.739  0.0000E+00  0.0000E+00  0.0000E+00  0.0000E+00  0.0000E+00  0.0000E+00  0.0000E+00  0.0000E+00  0.0000E+00
     37.887  0.0000E+00  0.0000E+00  0.0000E+00  0.0000E+00  0.0000E+00  0.0000E+00  0.0000E+00  0.0000E+00  0.0000E+00
     38.035  0.0000E+00  0.0000E+00  0.0000E+00  0.0000E+00  0.0000E+00  0.0000E+00  0.0000E+00  0.0000E+00  0.0000E+00
