    1    1    1    1
  0.1482975E+02  0.2757716E-09  0.2757716E-09  0.2757716E-09  0.5000000E-15
  1.000000000000000E-004
  CAR 
 fcc Si                                  
      4    120      8
 
  0.0000000E+00  0.0000000E+00  0.0000000E+00  0.2962963E-03
    1       -4.377994   1.000000
    2       20.695405   0.000000
    3       20.695583   0.000000
    4       20.695584   0.000000
    5       21.771457   0.000000
    6       21.771572   0.000000
    7       21.771573   0.000000
    8       26.978160   0.000000
 
  0.6666667E-01  0.0000000E+00  0.0000000E+00  0.2370370E-02
    1       -4.250412   1.000000
    2       18.712191   0.000000
    3       20.123291   0.000000
    4       20.123457   0.000000
    5       22.532159   0.000000
    6       22.532297   0.000000
    7       22.690568   0.000000
    8       28.021345   0.000000
 
  0.1333333E+00  0.0000000E+00  0.0000000E+00  0.2370370E-02
    1       -3.869005   1.000000
    2       15.943962   0.000000
    3       19.391664   0.000000
    4       19.391833   0.000000
    5       22.949630   0.000000
    6       23.581867   0.000000
    7       23.582241   0.000000
    8       26.973731   0.000000
 
  0.2000000E+00  0.0000000E+00  0.0000000E+00  0.2370370E-02
    1       -3.235091   1.000000
    2       13.156795   0.000000
    3       18.821919   0.000000
    4       18.822091   0.000000
    5       22.867693   0.000000
    6       23.827778   0.000000
    7       23.828501   0.000000
    8       26.919612   0.000000
 
  0.2666667E+00  0.0000000E+00  0.0000000E+00  0.2370370E-02
    1       -2.351331   1.000000
    2       10.496809   0.182864
    3       18.439627   0.000000
    4       18.439799   0.000000
    5       22.765544   0.000000
    6       22.976682   0.000000
    7       22.977365   0.000000
    8       28.140786   0.000000
 
  0.3333333E+00  0.0000000E+00  0.0000000E+00  0.2370370E-02
    1       -1.220866   1.000000
    2        8.015617   1.040965
    3       18.239008   0.000000
    4       18.239159   0.000000
    5       22.003120   0.000000
    6       22.003684   0.000000
    7       22.771280   0.000000
    8       27.008579   0.000000
 
  0.4000000E+00  0.0000000E+00  0.0000000E+00  0.2370370E-02
    1        0.147758   1.000000
    2        5.737357   1.000000
    3       18.176260   0.000000
    4       18.176393   0.000000
    5       21.229280   0.000000
    6       21.229840   0.000000
    7       22.860509   0.000000
    8       26.116147   0.000000
 
  0.4666667E+00  0.0000000E+00  0.0000000E+00  0.2370370E-02
    1        1.717532   1.000000
    2        3.710424   1.000000
    3       18.186032   0.000000
    4       18.186149   0.000000
    5       20.792477   0.000000
    6       20.793046   0.000000
    7       22.962970   0.000000
    8       25.594948   0.000000
 
  0.6666667E-01  0.6666667E-01  0.0000000E+00  0.1777778E-02
    1       -4.207905   1.000000
    2       19.168627   0.000000
    3       19.168739   0.000000
    4       20.293716   0.000000
    5       20.889597   0.000000
    6       23.560460   0.000000
    7       23.560475   0.000000
    8       26.871953   0.000000
 
  0.1333333E+00  0.6666667E-01  0.0000000E+00  0.7111111E-02
    1       -3.911292   1.000000
    2       16.933897   0.000000
    3       18.345573   0.000000
    4       19.840292   0.000000
    5       21.283908   0.000000
    6       24.249978   0.000000
    7       24.685093   0.000000
    8       25.402533   0.000000
 
  0.2000000E+00  0.6666667E-01  0.0000000E+00  0.7111111E-02
    1       -3.361577   1.000000
    2       14.163527   0.000000
    3       17.717905   0.000000
    4       19.220172   0.000000
    5       21.974923   0.000000
    6       24.073260   0.000000
    7       24.884625   0.000000
    8       25.306799   0.000000
 
  0.2666667E+00  0.6666667E-01  0.0000000E+00  0.7111111E-02
    1       -2.561151   1.000000
    2       11.464743  -0.062138
    3       17.297315   0.000000
    4       18.699039   0.000000
    5       21.485030   0.000000
    6       23.837110   0.000000
    7       24.685669   0.000000
    8       25.889401   0.000000
 
  0.3333333E+00  0.6666667E-01  0.0000000E+00  0.7111111E-02
    1       -1.513134   1.000000
    2        8.924064   0.964357
    3       17.089218   0.000000
    4       18.249234   0.000000
    5       20.667111   0.000000
    6       23.674593   0.000000
    7       23.800697   0.000000
    8       27.450424   0.000000
 
  0.4000000E+00  0.6666667E-01  0.0000000E+00  0.7111111E-02
    1       -0.222648   1.000000
    2        6.578112   1.000000
    3       17.087506   0.000000
    4       17.780538   0.000000
    5       20.145954   0.000000
    6       22.732124   0.000000
    7       23.830489   0.000000
    8       27.325985   0.000000
 
  0.4666667E+00  0.6666667E-01  0.0000000E+00  0.7111111E-02
    1        1.290686   1.000000
    2        4.456657   1.000000
    3       17.267225   0.000000
    4       17.281024   0.000000
    5       20.089411   0.000000
    6       21.966989   0.000000
    7       23.844832   0.000000
    8       26.805587   0.000000
 
 -0.4666667E+00  0.6666667E-01  0.0000000E+00  0.7111111E-02
    1        2.316254   1.000000
    2        3.278170   1.000000
    3       16.806041   0.000000
    4       17.647048   0.000000
    5       20.406824   0.000000
    6       21.458253   0.000000
    7       23.777934   0.000000
    8       26.719952   0.000000
 
 -0.4000000E+00  0.6666667E-01  0.0000000E+00  0.7111111E-02
    1        0.764223   1.000000
    2        5.135209   1.000000
    3       16.484309   0.000000
    4       18.149780   0.000000
    5       21.039857   0.000000
    6       21.267990   0.000000
    7       23.643471   0.000000
    8       27.099564   0.000000
 
 -0.3333333E+00  0.6666667E-01  0.0000000E+00  0.7111111E-02
    1       -0.679440   1.000000
    2        7.336334   1.000000
    3       16.346078   0.000000
    4       18.704475   0.000000
    5       21.432463   0.000000
    6       21.911600   0.000000
    7       23.508564   0.000000
    8       27.813200   0.000000
 
 -0.2666667E+00  0.6666667E-01  0.0000000E+00  0.7111111E-02
    1       -1.889930   1.000000
    2        9.750286   0.564648
    3       16.414917   0.000000
    4       19.246963   0.000000
    5       21.986069   0.000000
    6       22.971650   0.000000
    7       23.452104   0.000000
    8       27.526781   0.000000
 
 -0.2000000E+00  0.6666667E-01  0.0000000E+00  0.7111111E-02
    1       -2.855660   1.000000
    2       12.348804  -0.002340
    3       16.692818   0.000000
    4       19.788839   0.000000
    5       22.765297   0.000000
    6       23.465079   0.000000
    7       24.113143   0.000000
    8       25.892173   0.000000
 
 -0.1333333E+00  0.6666667E-01  0.0000000E+00  0.7111111E-02
    1       -3.572805   1.000000
    2       15.090030   0.000000
    3       17.184161   0.000000
    4       20.366552   0.000000
    5       22.858234   0.000000
    6       23.424129   0.000000
    7       24.701856   0.000000
    8       25.533192   0.000000
 
 -0.6666667E-01  0.6666667E-01  0.0000000E+00  0.3555556E-02
    1       -4.038399   1.000000
    2       17.768000   0.000000
    3       17.953353   0.000000
    4       20.767512   0.000000
    5       22.126033   0.000000
    6       23.071305   0.000000
    7       24.019328   0.000000
    8       26.647316   0.000000
 
  0.1333333E+00  0.1333333E+00  0.0000000E+00  0.1777778E-02
    1       -3.699535   1.000000
    2       17.449830   0.000000
    3       17.449927   0.000000
    4       19.223643   0.000000
    5       19.254224   0.000000
    6       23.608081   0.000000
    7       25.896364   0.000000
    8       25.896385   0.000000
 
  0.2000000E+00  0.1333333E+00  0.0000000E+00  0.7111111E-02
    1       -3.234725   1.000000
    2       15.312045   0.000000
    3       16.751265   0.000000
    4       18.499916   0.000000
    5       19.678078   0.000000
    6       22.253616   0.000000
    7       26.603880   0.000000
    8       26.849756   0.000000
 
  0.2666667E+00  0.1333333E+00  0.0000000E+00  0.7111111E-02
    1       -2.518663   1.000000
    2       12.634194   0.000000
    3       16.266417   0.000000
    4       17.761891   0.000000
    5       19.658062   0.000000
    6       22.528008   0.000000
    7       26.623763   0.000000
    8       26.755003   0.000000
 
  0.3333333E+00  0.1333333E+00  0.0000000E+00  0.7111111E-02
    1       -1.553930   1.000000
    2       10.055060   0.404755
    3       15.999220   0.000000
    4       16.951622   0.000000
    5       19.090223   0.000000
    6       23.959366   0.000000
    7       25.681889   0.000000
    8       26.949935   0.000000
 
  0.4000000E+00  0.1333333E+00  0.0000000E+00  0.7111111E-02
    1       -0.345312   1.000000
    2        7.650761   1.003648
    3       15.944635   0.000000
    4       16.078523   0.000000
    5       18.815370   0.000000
    6       24.694870   0.000000
    7       25.160027   0.000000
    8       27.694632   0.000000
 
  0.4666667E+00  0.1333333E+00  0.0000000E+00  0.7111111E-02
    1        1.096140   1.000000
    2        5.455398   1.000000
    3       15.270256   0.000000
    4       16.109117   0.000000
    5       18.900814   0.000000
    6       23.865473   0.000000
    7       25.548738   0.000000
    8       29.164344   0.000000
 
 -0.4666667E+00  0.1333333E+00  0.0000000E+00  0.7111111E-02
    1        2.649446   1.000000
    2        3.598406   1.000000
    3       14.614381   0.000000
    4       16.482746   0.000000
    5       19.279002   0.000000
    6       23.234225   0.000000
    7       25.469441   0.000000
    8       29.274891   0.000000
 
 -0.4000000E+00  0.1333333E+00  0.0000000E+00  0.7111111E-02
    1        1.621495   1.000000
    2        4.777542   1.000000
    3       14.152961   0.000000
    4       17.053398   0.000000
    5       19.909776   0.000000
    6       22.806831   0.000000
    7       25.246359   0.000000
    8       29.565797   0.000000
 
 -0.3333333E+00  0.1333333E+00  0.0000000E+00  0.7111111E-02
    1        0.110153   1.000000
    2        6.892823   1.000000
    3       13.905882   0.000000
    4       17.803779   0.000000
    5       20.771554   0.000000
    6       22.645717   0.000000
    7       25.021981   0.000000
    8       29.190534   0.000000
 
 -0.2666667E+00  0.1333333E+00  0.0000000E+00  0.7111111E-02
    1       -1.178080   1.000000
    2        9.228415   0.841792
    3       13.881402   0.000000
    4       18.695102   0.000000
    5       21.857281   0.000000
    6       22.766028   0.000000
    7       24.821837   0.000000
    8       27.010679   0.000000
 
 -0.2000000E+00  0.1333333E+00  0.0000000E+00  0.7111111E-02
    1       -2.224877   1.000000
    2       11.741640  -0.045005
    3       14.093560   0.000000
    4       19.641410   0.000000
    5       23.093779   0.000000
    6       23.133692   0.000000
    7       24.601194   0.000000
    8       25.168069   0.000000
 
 -0.1333333E+00  0.1333333E+00  0.0000000E+00  0.3555556E-02
    1       -3.024088   1.000000
    2       14.190784   0.000000
    3       14.735721   0.000000
    4       20.426072   0.000000
    5       23.107482   0.000000
    6       24.159333   0.000000
    7       24.289045   0.000000
    8       24.469168   0.000000
 
  0.2000000E+00  0.2000000E+00  0.0000000E+00  0.1777778E-02
    1       -2.855008   1.000000
    2       15.982650   0.000000
    3       15.982739   0.000000
    4       17.506021   0.000000
    5       17.697029   0.000000
    6       20.577497   0.000000
    7       28.289192   0.000000
    8       28.289243   0.000000
 
  0.2666667E+00  0.2000000E+00  0.0000000E+00  0.7111111E-02
    1       -2.223967   1.000000
    2       13.937609   0.000000
    3       15.426954   0.000000
    4       16.445481   0.000000
    5       17.916671   0.000000
    6       20.089305   0.000000
    7       28.665749   0.000000
    8       29.013538   0.000000
 
  0.3333333E+00  0.2000000E+00  0.0000000E+00  0.7111111E-02
    1       -1.343782   1.000000
    2       11.385580  -0.060403
    3       15.086214   0.000000
    4       15.269808   0.000000
    5       17.807955   0.000000
    6       21.307630   0.000000
    7       27.886009   0.000000
    8       29.180887   0.000000
 
  0.4000000E+00  0.2000000E+00  0.0000000E+00  0.7111111E-02
    1       -0.218283   1.000000
    2        8.944895   0.961636
    3       14.141121   0.000000
    4       14.969732   0.000000
    5       17.679588   0.000000
    6       23.187805   0.000000
    7       26.929203   0.000000
    8       29.148683   0.000000
 
  0.4666667E+00  0.2000000E+00  0.0000000E+00  0.7111111E-02
    1        1.143733   1.000000
    2        6.689267   1.000000
    3       13.160981   0.000000
    4       15.071580   0.000000
    5       17.769043   0.000000
    6       25.159726   0.000000
    7       26.038442   0.000000
    8       29.019305   0.000000
 
 -0.4666667E+00  0.2000000E+00  0.0000000E+00  0.7111111E-02
    1        2.709056   1.000000
    2        4.673397   1.000000
    3       12.378810  -0.006151
    4       15.391158   0.000000
    5       18.115443   0.000000
    6       25.338107   0.000000
    7       26.671172   0.000000
    8       29.348596   0.000000
 
 -0.4000000E+00  0.2000000E+00  0.0000000E+00  0.7111111E-02
    1        2.708425   1.000000
    2        4.672368   1.000000
    3       11.813516  -0.040926
    4       15.923437   0.000000
    5       18.703009   0.000000
    6       24.837843   0.000000
    7       26.978058   0.000000
    8       30.538113   0.000000
 
 -0.3333333E+00  0.2000000E+00  0.0000000E+00  0.7111111E-02
    1        1.142715   1.000000
    2        6.683296   1.000000
    3       11.478989  -0.053430
    4       16.659464   0.000000
    5       19.520554   0.000000
    6       24.558341   0.000000
    7       26.742417   0.000000
    8       29.012493   0.000000
 
 -0.2666667E+00  0.2000000E+00  0.0000000E+00  0.7111111E-02
    1       -0.219597   1.000000
    2        8.917972   1.023010
    3       11.393164  -0.019139
    4       17.578121   0.000000
    5       20.558143   0.000000
    6       24.491279   0.000000
    7       26.318630   0.000000
    8       26.754571   0.000000
 
 -0.2000000E+00  0.2000000E+00  0.0000000E+00  0.3555556E-02
    1       -1.344857   1.000000
    2       11.067797  -0.066701
    3       11.816038   0.000000
    4       18.631598   0.000000
    5       21.773324   0.000000
    6       24.658831   0.000000
    7       24.771251   0.000000
    8       25.640889   0.000000
 
  0.2666667E+00  0.2666667E+00  0.0000000E+00  0.1777778E-02
    1       -1.677597   1.000000
    2       14.795843   0.000000
    3       14.795949   0.000000
    4       14.894509   0.000000
    5       16.377667   0.000000
    6       18.686413   0.000000
    7       30.597728   0.000000
    8       30.598011   0.000000
 
  0.3333333E+00  0.2666667E+00  0.0000000E+00  0.7111111E-02
    1       -0.883163   1.000000
    2       12.793486   0.000000
    3       13.608856   0.000000
    4       14.386331   0.000000
    5       16.655991   0.000000
    6       18.839237   0.000000
    7       30.182175   0.000000
    8       31.283108   0.000000
 
  0.4000000E+00  0.2666667E+00  0.0000000E+00  0.7111111E-02
    1        0.156849   1.000000
    2       10.418571   0.209415
    3       12.287250   0.000000
    4       14.197853   0.000000
    5       16.729159   0.000000
    6       20.427877   0.000000
    7       29.302340   0.000000
    8       31.318428   0.000000
 
  0.4666667E+00  0.2666667E+00  0.0000000E+00  0.7111111E-02
    1        1.436258   1.000000
    2        8.136167   1.044966
    3       11.171808  -0.041982
    4       14.230442   0.000000
    5       16.821135   0.000000
    6       22.530032   0.000000
    7       28.415011   0.000000
    8       30.964730   0.000000
 
 -0.4666667E+00  0.2666667E+00  0.0000000E+00  0.7111111E-02
    1        2.937971   1.000000
    2        6.047446   1.000000
    3       10.279819   0.270358
    4       14.483682   0.000000
    5       17.116561   0.000000
    6       24.836980   0.000000
    7       27.661090   0.000000
    8       30.413772   0.000000
 
 -0.4000000E+00  0.2666667E+00  0.0000000E+00  0.7111111E-02
    1        3.971246   1.000000
    2        4.861859   1.000000
    3        9.622866   0.640272
    4       14.955006   0.000000
    5       17.646322   0.000000
    6       27.082221   0.000000
    7       27.092776   0.000000
    8       29.828133   0.000000
 
 -0.3333333E+00  0.2666667E+00  0.0000000E+00  0.7111111E-02
    1        2.412575   1.000000
    2        6.692218   1.000000
    3        9.221842   0.852525
    4       15.638498   0.000000
    5       18.405984   0.000000
    6       26.700130   0.000000
    7       28.366084   0.000000
    8       29.091730   0.000000
 
 -0.2666667E+00  0.2666667E+00  0.0000000E+00  0.3555556E-02
    1        0.980424   1.000000
    2        8.531241   1.000000
    3        9.364427   0.623869
    4       16.523451   0.000000
    5       19.385641   0.000000
    6       26.307386   0.000000
    7       27.024290   0.000000
    8       27.644498   0.000000
 
  0.3333333E+00  0.3333333E+00  0.0000000E+00  0.1777778E-02
    1       -0.174721   1.000000
    2       11.887205  -0.032918
    3       13.903759   0.000000
    4       13.903859   0.000000
    5       15.384288   0.000000
    6       17.583825   0.000000
    7       32.202205   0.000000
    8       32.711618   0.000000
 
  0.4000000E+00  0.3333333E+00  0.0000000E+00  0.7111111E-02
    1        0.779022   1.000000
    2       10.456181   0.191067
    3       12.165783   0.000000
    4       13.642357   0.000000
    5       15.813899   0.000000
    6       18.029505   0.000000
    7       31.690623   0.000000
    8       33.281763   0.000000
 
  0.4666667E+00  0.3333333E+00  0.0000000E+00  0.7111111E-02
    1        1.972398   1.000000
    2        9.154925   1.009988
    3        9.994160   0.243127
    4       13.602984   0.000000
    5       16.053774   0.000000
    6       19.840819   0.000000
    7       30.886997   0.000000
    8       33.086224   0.000000
 
 -0.4666667E+00  0.3333333E+00  0.0000000E+00  0.7111111E-02
    1        3.392558   1.000000
    2        7.546861   1.000000
    3        8.481415   1.078671
    4       13.785222   0.000000
    5       16.323358   0.000000
    6       22.125536   0.000000
    7       30.104007   0.000000
    8       32.400811   0.000000
 
 -0.4000000E+00  0.3333333E+00  0.0000000E+00  0.7111111E-02
    1        4.945052   1.000000
    2        5.753849   1.000000
    3        7.681679   1.011305
    4       14.188458   0.000000
    5       16.794338   0.000000
    6       24.635429   0.000000
    7       29.449496   0.000000
    8       31.427615   0.000000
 
 -0.3333333E+00  0.3333333E+00  0.0000000E+00  0.3555556E-02
    1        3.905113   1.000000
    2        6.616808   1.000000
    3        7.492644   1.000000
    4       14.808824   0.000000
    5       17.489247   0.000000
    6       27.147849   0.000000
    7       28.649940   0.000000
    8       29.807171   0.000000
 
  0.4000000E+00  0.4000000E+00  0.0000000E+00  0.1777778E-02
    1        1.645685   1.000000
    2        8.963230   0.951549
    3       13.307939   0.000000
    4       13.308036   0.000000
    5       14.718066   0.000000
    6       16.917676   0.000000
    7       33.483887   0.000000
    8       34.662941   0.000000
 
  0.4666667E+00  0.4000000E+00  0.0000000E+00  0.7111111E-02
    1        2.748423   1.000000
    2        7.661004   1.014832
    3       11.677535  -0.073171
    4       13.195110   0.000000
    5       15.317866   0.000000
    6       17.559895   0.000000
    7       33.213450   0.000000
    8       34.962011   0.000000
 
 -0.4666667E+00  0.4000000E+00  0.0000000E+00  0.7111111E-02
    1        4.069120   1.000000
    2        6.593604   1.000000
    3        9.572255   0.733275
    4       13.305080   0.000000
    5       15.721315   0.000000
    6       19.544207   0.000000
    7       32.497257   0.000000
    8       34.314476   0.000000
 
 -0.4000000E+00  0.4000000E+00  0.0000000E+00  0.3555556E-02
    1        5.336251   1.000000
    2        5.984345   1.000000
    3        7.656509   1.000000
    4       13.636755   0.000000
    5       16.163425   0.000000
    6       21.999235   0.000000
    7       31.445792   0.000000
    8       32.938954   0.000000
 
  0.4666667E+00  0.4666667E+00  0.0000000E+00  0.1777778E-02
    1        3.748087   1.000000
    2        6.291640   1.000000
    3       13.008904   0.000000
    4       13.009000   0.000000
    5       14.382284   0.000000
    6       16.593540   0.000000
    7       34.448286   0.000000
    8       36.015681   0.000000
 
 -0.4666667E+00  0.4666667E+00  0.0000000E+00  0.3555556E-02
    1        4.695338   1.000000
    2        5.430735   1.000000
    3       11.518427  -0.070554
    4       13.045636   0.000000
    5       15.152655   0.000000
    6       17.406116   0.000000
    7       34.092004   0.000000
    8       35.713685   0.000000
 
  0.2000000E+00  0.1333333E+00  0.6666667E-01  0.7111111E-02
    1       -3.530526   1.000000
    2       16.004176   0.000000
    3       16.336461   0.000000
    4       20.072057   0.000000
    5       20.948667   0.000000
    6       23.910823   0.000000
    7       25.156176   0.000000
    8       25.512455   0.000000
 
  0.2666667E+00  0.1333333E+00  0.6666667E-01  0.1422222E-01
    1       -2.897600   1.000000
    2       13.425641   0.000000
    3       15.638516   0.000000
    4       19.475089   0.000000
    5       21.371936   0.000000
    6       23.390453   0.000000
    7       25.399934   0.000000
    8       25.602024   0.000000
 
  0.3333333E+00  0.1333333E+00  0.6666667E-01  0.1422222E-01
    1       -2.014959   1.000000
    2       10.795714   0.048140
    3       15.280767   0.000000
    4       18.637462   0.000000
    5       20.944208   0.000000
    6       23.899338   0.000000
    7       24.856492   0.000000
    8       26.028567   0.000000
 
  0.4000000E+00  0.1333333E+00  0.6666667E-01  0.1422222E-01
    1       -0.886428   1.000000
    2        8.326092   1.072799
    3       15.148559   0.000000
    4       17.743319   0.000000
    5       20.607744   0.000000
    6       23.201766   0.000000
    7       25.046726   0.000000
    8       27.428749   0.000000
 
  0.4666667E+00  0.1333333E+00  0.6666667E-01  0.1422222E-01
    1        0.480369   1.000000
    2        6.055701   1.000000
    3       15.223137   0.000000
    4       16.918854   0.000000
    5       20.541201   0.000000
    6       22.351968   0.000000
    7       25.201168   0.000000
    8       28.792112   0.000000
 
 -0.4666667E+00  0.1333333E+00  0.6666667E-01  0.1422222E-01
    1        2.048692   1.000000
    2        4.032315   1.000000
    3       15.443102   0.000000
    4       16.305359   0.000000
    5       20.646002   0.000000
    6       21.778236   0.000000
    7       25.286703   0.000000
    8       28.530846   0.000000
 
  0.2666667E+00  0.2000000E+00  0.6666667E-01  0.7111111E-02
    1       -2.686747   1.000000
    2       14.470633   0.000000
    3       14.883222   0.000000
    4       18.155027   0.000000
    5       19.485584   0.000000
    6       21.310102   0.000000
    7       27.104320   0.000000
    8       27.724269   0.000000
 
  0.3333333E+00  0.2000000E+00  0.6666667E-01  0.1422222E-01
    1       -1.888525   1.000000
    2       12.033835  -0.017860
    3       14.289785   0.000000
    4       17.055834   0.000000
    5       19.690836   0.000000
    6       21.936307   0.000000
    7       26.399933   0.000000
    8       28.181201   0.000000
 
  0.4000000E+00  0.2000000E+00  0.6666667E-01  0.1422222E-01
    1       -0.843334   1.000000
    2        9.535794   0.688270
    3       14.064444   0.000000
    4       15.916396   0.000000
    5       19.529158   0.000000
    6       23.548482   0.000000
    7       25.510857   0.000000
    8       28.344244   0.000000
 
  0.4666667E+00  0.2000000E+00  0.6666667E-01  0.1422222E-01
    1        0.442629   1.000000
    2        7.208396   1.000000
    3       14.004396   0.000000
    4       14.972695   0.000000
    5       19.536601   0.000000
    6       24.131472   0.000000
    7       25.817074   0.000000
    8       28.569331   0.000000
 
 -0.4666667E+00  0.2000000E+00  0.6666667E-01  0.1422222E-01
    1        1.952352   1.000000
    2        5.098116   1.000000
    3       13.754657   0.000000
    4       14.635222   0.000000
    5       19.771425   0.000000
    6       23.495618   0.000000
    7       26.933731   0.000000
    8       29.389837   0.000000
 
 -0.4000000E+00  0.2000000E+00  0.6666667E-01  0.1422222E-01
    1        2.981486   1.000000
    2        3.917483   1.000000
    3       13.234275   0.000000
    4       14.997640   0.000000
    5       20.219878   0.000000
    6       22.944262   0.000000
    7       27.124908   0.000000
    8       30.511454   0.000000
 
 -0.3333333E+00  0.2000000E+00  0.6666667E-01  0.1422222E-01
    1        1.426528   1.000000
    2        5.772795   1.000000
    3       12.850385   0.000000
    4       15.663334   0.000000
    5       20.847766   0.000000
    6       22.638092   0.000000
    7       26.873115   0.000000
    8       29.343908   0.000000
 
 -0.2666667E+00  0.2000000E+00  0.6666667E-01  0.1422222E-01
    1       -0.012830   1.000000
    2        7.957539   1.026287
    3       12.679102   0.000000
    4       16.546375   0.000000
    5       21.541108   0.000000
    6       22.664188   0.000000
    7       26.081974   0.000000
    8       27.811614   0.000000
 
 -0.2000000E+00  0.2000000E+00  0.6666667E-01  0.1422222E-01
    1       -1.219323   1.000000
    2       10.334941   0.264577
    3       12.746657   0.000000
    4       17.606601   0.000000
    5       22.069224   0.000000
    6       23.099293   0.000000
    7       24.697736   0.000000
    8       27.146536   0.000000
 
 -0.1333333E+00  0.2000000E+00  0.6666667E-01  0.7111111E-02
    1       -2.182469   1.000000
    2       12.637048   0.000000
    3       13.281707   0.000000
    4       18.743546   0.000000
    5       22.168554   0.000000
    6       22.821437   0.000000
    7       24.679466   0.000000
    8       26.538363   0.000000
 
  0.3333333E+00  0.2666667E+00  0.6666667E-01  0.7111111E-02
    1       -1.510579   1.000000
    2       13.233978   0.000000
    3       13.636979   0.000000
    4       15.335632   0.000000
    5       18.251565   0.000000
    6       19.763203   0.000000
    7       28.506499   0.000000
    8       30.267816   0.000000
 
  0.4000000E+00  0.2666667E+00  0.6666667E-01  0.1422222E-01
    1       -0.550177   1.000000
    2       10.931156   0.012893
    3       13.116956   0.000000
    4       14.114643   0.000000
    5       18.544962   0.000000
    6       20.923163   0.000000
    7       27.653471   0.000000
    8       30.721974   0.000000
 
  0.4666667E+00  0.2666667E+00  0.6666667E-01  0.1422222E-01
    1        0.652391   1.000000
    2        8.578216   1.049944
    3       12.571754  -0.000591
    4       13.445882   0.000000
    5       18.584488   0.000000
    6       22.878576   0.000000
    7       26.756934   0.000000
    8       30.657733   0.000000
 
 -0.4666667E+00  0.2666667E+00  0.6666667E-01  0.1422222E-01
    1        2.086649   1.000000
    2        6.406219   1.000000
    3       11.736343  -0.044561
    4       13.508096   0.000000
    5       18.785784   0.000000
    6       24.822222   0.000000
    7       26.187804   0.000000
    8       30.312168   0.000000
 
 -0.4000000E+00  0.2666667E+00  0.6666667E-01  0.1422222E-01
    1        3.642537   1.000000
    2        4.551709   1.000000
    3       11.032783  -0.013558
    4       13.892749   0.000000
    5       19.207808   0.000000
    6       25.002597   0.000000
    7       27.529954   0.000000
    8       29.705250   0.000000
 
 -0.3333333E+00  0.2666667E+00  0.6666667E-01  0.1422222E-01
    1        2.609328   1.000000
    2        5.728747   1.000000
    3       10.545488   0.132026
    4       14.518103   0.000000
    5       19.841529   0.000000
    6       24.618580   0.000000
    7       28.243780   0.000000
    8       29.165183   0.000000
 
 -0.2666667E+00  0.2666667E+00  0.6666667E-01  0.1422222E-01
    1        1.103896   1.000000
    2        7.805494   1.000000
    3       10.306868   0.146836
    4       15.365863   0.000000
    5       20.678864   0.000000
    6       24.374317   0.000000
    7       26.408832   0.000000
    8       29.123322   0.000000
 
 -0.2000000E+00  0.2666667E+00  0.6666667E-01  0.7111111E-02
    1       -0.177464   1.000000
    2        9.802494   0.784529
    3       10.592930  -0.004490
    4       16.414101   0.000000
    5       21.673065   0.000000
    6       24.029932   0.000000
    7       24.729039   0.000000
    8       28.360296   0.000000
 
  0.4000000E+00  0.3333333E+00  0.6666667E-01  0.7111111E-02
    1       -0.009056   1.000000
    2       11.909731  -0.050309
    3       12.298746   0.000000
    4       13.071284   0.000000
    5       17.295088   0.000000
    6       18.785849   0.000000
    7       29.951662   0.000000
    8       32.556989   0.000000
 
  0.4666667E+00  0.3333333E+00  0.6666667E-01  0.1422222E-01
    1        1.108591   1.000000
    2       10.058460   0.556132
    3       10.894767  -0.062140
    4       12.618338   0.000000
    5       17.743066   0.000000
    6       20.200632   0.000000
    7       29.124340   0.000000
    8       32.841194   0.000000
 
 -0.4666667E+00  0.3333333E+00  0.6666667E-01  0.1422222E-01
    1        2.460313   1.000000
    2        7.910692   1.001614
    3        9.821391   0.504604
    4       12.683251   0.000000
    5       17.954364   0.000000
    6       22.359572   0.000000
    7       28.310182   0.000000
    8       32.244541   0.000000
 
 -0.4000000E+00  0.3333333E+00  0.6666667E-01  0.1422222E-01
    1        4.015432   1.000000
    2        5.928936   1.000000
    3        8.998684   0.953997
    4       13.011436   0.000000
    5       18.332530   0.000000
    6       24.735391   0.000000
    7       27.680602   0.000000
    8       30.953172   0.000000
 
 -0.3333333E+00  0.3333333E+00  0.6666667E-01  0.1422222E-01
    1        4.014485   1.000000
    2        5.910008   1.000000
    3        8.435290   1.056722
    4       13.575503   0.000000
    5       18.919977   0.000000
    6       26.575875   0.000000
    7       27.702027   0.000000
    8       28.992379   0.000000
 
 -0.2666667E+00  0.3333333E+00  0.6666667E-01  0.7111111E-02
    1        2.455972   1.000000
    2        7.575037   1.000000
    3        8.420622   1.126214
    4       14.363764   0.000000
    5       19.710337   0.000000
    6       26.490567   0.000000
    7       26.618699   0.000000
    8       29.686092   0.000000
 
  0.4666667E+00  0.4000000E+00  0.6666667E-01  0.7111111E-02
    1        1.808984   1.000000
    2        9.102053   0.961569
    3       11.673431  -0.056467
    4       12.325514   0.000000
    5       16.659954   0.000000
    6       18.166508   0.000000
    7       31.532772   0.000000
    8       34.579541   0.000000
 
 -0.4666667E+00  0.4000000E+00  0.6666667E-01  0.1422222E-01
    1        3.072310   1.000000
    2        7.942418   1.002176
    3        9.757274   0.653176
    4       12.113982   0.000000
    5       17.265853   0.000000
    6       19.760383   0.000000
    7       30.798594   0.000000
    8       33.775446   0.000000
 
 -0.4000000E+00  0.4000000E+00  0.6666667E-01  0.1422222E-01
    1        4.544641   1.000000
    2        6.934477   1.000000
    3        7.836644   1.000000
    4       12.360420   0.000000
    5       17.643946   0.000000
    6       22.097212   0.000000
    7       30.088547   0.000000
    8       31.853848   0.000000
 
 -0.3333333E+00  0.4000000E+00  0.6666667E-01  0.7111111E-02
    1        5.569388   1.000000
    2        5.976738   1.000000
    3        6.956677   1.000000
    4       12.852704   0.000000
    5       18.181358   0.000000
    6       24.647671   0.000000
    7       29.494934   0.000000
    8       29.516693   0.000000
 
 -0.4666667E+00  0.4666667E+00  0.6666667E-01  0.7111111E-02
    1        3.909071   1.000000
    2        6.446244   1.000000
    3       11.359522  -0.153069
    4       12.001539   0.000000
    5       16.341843   0.000000
    6       17.863629   0.000000
    7       33.127721   0.000000
    8       34.705192   0.000000
 
 -0.4000000E+00  0.4666667E+00  0.6666667E-01  0.7111111E-02
    1        5.015674   1.000000
    2        5.737429   1.000000
    3        9.579101   0.806332
    4       11.954060   0.000000
    5       17.109522   0.000000
    6       19.617781   0.000000
    7       32.342620   0.000000
    8       32.803385   0.000000
 
  0.4000000E+00  0.2666667E+00  0.1333333E+00  0.7111111E-02
    1       -1.009715   1.000000
    2       11.381218  -0.117838
    3       12.062017   0.000000
    4       15.800803   0.000000
    5       21.006363   0.000000
    6       21.820763   0.000000
    7       25.521449   0.000000
    8       29.410785   0.000000
 
  0.4666667E+00  0.2666667E+00  0.1333333E+00  0.1422222E-01
    1        0.113496   1.000000
    2        9.227411   0.930932
    3       11.655201  -0.006871
    4       14.608530   0.000000
    5       21.229198   0.000000
    6       23.121626   0.000000
    7       24.803634   0.000000
    8       29.963716   0.000000
 
 -0.4666667E+00  0.2666667E+00  0.1333333E+00  0.1422222E-01
    1        1.473421   1.000000
    2        6.998922   1.000000
    3       11.718558  -0.045382
    4       13.622767   0.000000
    5       21.290958   0.000000
    6       23.247517   0.000000
    7       25.955691   0.000000
    8       30.054622   0.000000
 
 -0.4000000E+00  0.2666667E+00  0.1333333E+00  0.1422222E-01
    1        3.037431   1.000000
    2        4.991294   1.000000
    3       11.946148  -0.035128
    4       12.934562   0.000000
    5       21.421895   0.000000
    6       22.787507   0.000000
    7       27.944691   0.000000
    8       29.522004   0.000000
 
  0.4666667E+00  0.3333333E+00  0.1333333E+00  0.7111111E-02
    1        0.487826   1.000000
    2       10.433409   0.341282
    3       11.052126  -0.002510
    4       12.783556   0.000000
    5       20.082737   0.000000
    6       21.047677   0.000000
    7       26.771862   0.000000
    8       32.107766   0.000000
 
 -0.4666667E+00  0.3333333E+00  0.1333333E+00  0.1422222E-01
    1        1.764673   1.000000
    2        8.423325   1.030593
    3       10.723149   0.011718
    4       11.754783   0.000000
    5       20.525538   0.000000
    6       22.741151   0.000000
    7       25.956472   0.000000
    8       32.166363   0.000000
 
 -0.4000000E+00  0.3333333E+00  0.1333333E+00  0.1422222E-01
    1        3.264473   1.000000
    2        6.358516   1.000000
    3       10.417305   0.268120
    4       11.410931  -0.000001
    5       20.820050   0.000000
    6       24.349146   0.000000
    7       25.906977   0.000000
    8       30.655259   0.000000
 
 -0.3333333E+00  0.3333333E+00  0.1333333E+00  0.1422222E-01
    1        4.299410   1.000000
    2        5.176219   1.000000
    3        9.877130   0.567525
    4       11.788251  -0.000331
    5       21.267194   0.000000
    6       24.219892   0.000000
    7       27.544590   0.000000
    8       28.782155   0.000000
 
 -0.2666667E+00  0.3333333E+00  0.1333333E+00  0.1422222E-01
    1        2.740984   1.000000
    2        7.007142   1.000000
    3        9.503090   0.739424
    4       12.492125  -0.000001
    5       21.866704   0.000000
    6       23.869192   0.000000
    7       26.023902   0.000000
    8       30.226106   0.000000
 
 -0.2000000E+00  0.3333333E+00  0.1333333E+00  0.7111111E-02
    1        1.311706   1.000000
    2        8.849663   1.004389
    3        9.640908   0.405214
    4       13.441787   0.000000
    5       22.458475   0.000000
    6       23.171394   0.000000
    7       24.571006   0.000000
    8       31.433501   0.000000
 
 -0.4666667E+00  0.4000000E+00  0.1333333E+00  0.7111111E-02
    1        2.299066   1.000000
    2        9.432339   0.995301
    3        9.800310   0.535867
    4       10.837650   0.000000
    5       19.464900   0.000000
    6       20.513029   0.000000
    7       28.344489   0.000000
    8       33.386377   0.000000
 
 -0.4000000E+00  0.4000000E+00  0.1333333E+00  0.1422222E-01
    1        3.716560   1.000000
    2        7.854204   1.000000
    3        8.703411   1.046819
    4       10.588882  -0.004008
    5       20.081475   0.000000
    6       22.406780   0.000000
    7       27.586139   0.000000
    8       31.374845   0.000000
 
 -0.3333333E+00  0.4000000E+00  0.1333333E+00  0.1422222E-01
    1        5.269612   1.000000
    2        6.064369   1.000000
    3        7.962478   1.020014
    4       10.952745  -0.039092
    5       20.537753   0.000000
    6       24.721201   0.000000
    7       26.992268   0.000000
    8       29.046838   0.000000
 
 -0.2666667E+00  0.4000000E+00  0.1333333E+00  0.7111111E-02
    1        4.229756   1.000000
    2        6.936517   1.000000
    3        7.778821   1.000000
    4       11.599048  -0.045656
    5       21.150564   0.000000
    6       25.957132   0.000000
    7       26.071995   0.000000
    8       28.370074   0.000000
 
 -0.4000000E+00  0.4666667E+00  0.1333333E+00  0.7111111E-02
    1        4.389935   1.000000
    2        6.897466   1.000000
    3        9.482250   0.971440
    4       10.393165   0.009210
    5       19.142340   0.000000
    6       20.242536   0.000000
    7       30.129464   0.000000
    8       31.984338   0.000000
 
 -0.3333333E+00  0.4666667E+00  0.1333333E+00  0.7111111E-02
    1        5.656381   1.000000
    2        6.298099   1.000000
    3        7.910504   1.000000
    4       10.394056   0.076814
    5       19.936305   0.000000
    6       22.285429   0.000000
    7       29.219074   0.000000
    8       29.733113   0.000000
 
 -0.4000000E+00  0.4000000E+00  0.2000000E+00  0.7111111E-02
    1        3.110534   1.000000
    2        8.212787   1.000000
    3        8.912650   1.052653
    4       10.632816  -0.018509
    5       22.582052   0.000000
    6       22.836780   0.000000
    7       25.299592   0.000000
    8       30.864793   0.000000
 
 -0.3333333E+00  0.4000000E+00  0.2000000E+00  0.1422222E-01
    1        4.661508   1.000000
    2        6.531476   1.000000
    3        8.858262   1.037412
    4        9.908968   0.271314
    5       22.842319   0.000000
    6       24.030297   0.000000
    7       25.729202   0.000000
    8       28.628364   0.000000
 
 -0.3333333E+00  0.4666667E+00  0.2000000E+00  0.7111111E-02
    1        5.181851   1.000000
    2        7.537039   1.000000
    3        7.894634   1.000000
    4        9.051863   0.956763
    5       22.295515   0.000000
    6       22.814816   0.000000
    7       26.844688   0.000000
    8       29.030429   0.000000
 
 -0.2666667E+00  0.4666667E+00  0.2000000E+00  0.7111111E-02
    1        6.211361   1.000000
    2        6.616951   1.000000
    3        7.406955   1.000000
    4        9.124117   0.940656
    5       22.941023   0.000000
    6       24.760837   0.000000
    7       25.680214   0.000000
    8       27.467259   0.000000
