 vasp.5.4.4.18Apr17-6-g9f103f2a35 (build Mar 07 2019 17:46:06) complex          
  
 executed on Magnus_Intel_PSXE_20 date 2025.09.30  14:10:19
 running on   16 total cores
 distrk:  each k-point on   16 cores,    1 groups
 distr:  one band on NCORES_PER_BAND=   4 cores,    4 groups


--------------------------------------------------------------------------------------------------------


 INCAR:
 POTCAR:   PAW_PBE Si 05Jan2001                   
 POTCAR:   PAW_PBE Si 05Jan2001                   
   VRHFIN =Si: s2p2                                                             
   LEXCH  = PE                                                                  
   EATOM  =   103.0669 eV,    7.5752 Ry                                         
                                                                                
   TITEL  = PAW_PBE Si 05Jan2001                                                
   LULTRA =        F    use ultrasoft PP ?                                      
   IUNSCR =        1    unscreen: 0-lin 1-nonlin 2-no                           
   RPACOR =    1.500    partial core radius                                     
   POMASS =   28.085; ZVAL   =    4.000    mass and valenz                      
   RCORE  =    1.900    outmost cutoff radius                                   
   RWIGS  =    2.480; RWIGS  =    1.312    wigner-seitz radius (au A)           
   ENMAX  =  245.345; ENMIN  =  184.009 eV                                      
   ICORE  =        2    local potential                                         
   LCOR   =        T    correct aug charges                                     
   LPAW   =        T    paw PP                                                  
   EAUG   =  322.069                                                            
   DEXC   =    -.007                                                            
   RMAX   =    2.944    core radius for proj-oper                               
   RAUG   =    1.300    factor for augmentation sphere                          
   RDEP   =    1.993    radius for radial grids                                 
   QCUT   =   -4.246; QGAM   =    8.493    optimization parameters              
                                                                                
   Description                                                                  
     l     E      TYP  RCUT    TYP  RCUT                                        
     0   .000     23  1.900                                                     
     0   .000     23  1.900                                                     
     1   .000     23  1.900                                                     
     1   .000     23  1.900                                                     
     2   .000      7  1.900                                                     
  local pseudopotential read in
  partial core-charges read in
  atomic valenz-charges read in
  non local Contribution for L=           0  read in
    real space projection operators read in
  non local Contribution for L=           0  read in
    real space projection operators read in
  non local Contribution for L=           1  read in
    real space projection operators read in
  non local Contribution for L=           1  read in
    real space projection operators read in
    PAW grid and wavefunctions read in
 
   number of l-projection  operators is LMAX  =           4
   number of lm-projection operators is LMMAX =           8
 
 PAW_PBE Si 05Jan2001                   :
 energy of atom  1       EATOM= -103.0669
 kinetic energy error for atom=    0.0061 (will be added to EATOM!!)
 
 
 POSCAR: fcc:                                    
  positions in cartesian coordinates
  No initial velocities read in
 exchange correlation table for  LEXCH =        8
   RHO(1)=    0.500       N(1)  =     2000
   RHO(2)=  100.500       N(2)  =     4000
 


--------------------------------------------------------------------------------------------------------


 ion  position               nearest neighbor table
   1  0.000  0.000  0.000-
 
  LATTYP: Found a face centered cubic cell.
 ALAT       =     3.9000000000
  
  Lattice vectors:
  
 A1 = (   1.9500000000,   1.9500000000,   0.0000000000)
 A2 = (   0.0000000000,   1.9500000000,   1.9500000000)
 A3 = (   1.9500000000,   0.0000000000,   1.9500000000)


Analysis of symmetry for initial positions (statically):
=====================================================================
 Subroutine PRICEL returns:
 Original cell was already a primitive cell.
 

 Routine SETGRP: Setting up the symmetry group for a 
 face centered cubic supercell.


 Subroutine GETGRP returns: Found 48 space group operations
 (whereof 48 operations were pure point group operations)
 out of a pool of 48 trial point group operations.


The static configuration has the point symmetry O_h .


Analysis of symmetry for dynamics (positions and initial velocities):
=====================================================================
 Subroutine PRICEL returns:
 Original cell was already a primitive cell.
 

 Routine SETGRP: Setting up the symmetry group for a 
 face centered cubic supercell.


 Subroutine GETGRP returns: Found 48 space group operations
 (whereof 48 operations were pure point group operations)
 out of a pool of 48 trial point group operations.


The dynamic configuration has the point symmetry O_h .


 Subroutine INISYM returns: Found 48 space group operations
 (whereof 48 operations are pure point group operations),
 and found     1 'primitive' translations

 
 
 KPOINTS: K-Points                                

Automatic generation of k-mesh.
Space group operators:
 irot       det(A)        alpha          n_x          n_y          n_z        tau_x        tau_y        tau_z
    1     1.000000     0.000000     1.000000     0.000000     0.000000     0.000000     0.000000     0.000000
    2    -1.000000     0.000000     1.000000     0.000000     0.000000     0.000000     0.000000     0.000000
    3     1.000000   120.000000    -0.577350    -0.577350    -0.577350     0.000000     0.000000     0.000000
    4    -1.000000   120.000000    -0.577350    -0.577350    -0.577350     0.000000     0.000000     0.000000
    5     1.000000   120.000000     0.577350     0.577350     0.577350     0.000000     0.000000     0.000000
    6    -1.000000   120.000000     0.577350     0.577350     0.577350     0.000000     0.000000     0.000000
    7     1.000000    90.000000     0.000000    -1.000000     0.000000     0.000000     0.000000     0.000000
    8    -1.000000    90.000000     0.000000    -1.000000     0.000000     0.000000     0.000000     0.000000
    9     1.000000   180.000000     0.707107     0.707107     0.000000     0.000000     0.000000     0.000000
   10    -1.000000   180.000000     0.707107     0.707107     0.000000     0.000000     0.000000     0.000000
   11     1.000000    90.000000     1.000000     0.000000     0.000000     0.000000     0.000000     0.000000
   12    -1.000000    90.000000     1.000000     0.000000     0.000000     0.000000     0.000000     0.000000
   13     1.000000   180.000000     0.000000     1.000000     0.000000     0.000000     0.000000     0.000000
   14    -1.000000   180.000000     0.000000     1.000000     0.000000     0.000000     0.000000     0.000000
   15     1.000000   120.000000     0.577350     0.577350    -0.577350     0.000000     0.000000     0.000000
   16    -1.000000   120.000000     0.577350     0.577350    -0.577350     0.000000     0.000000     0.000000
   17     1.000000   120.000000     0.577350    -0.577350    -0.577350     0.000000     0.000000     0.000000
   18    -1.000000   120.000000     0.577350    -0.577350    -0.577350     0.000000     0.000000     0.000000
   19     1.000000    90.000000     0.000000     1.000000     0.000000     0.000000     0.000000     0.000000
   20    -1.000000    90.000000     0.000000     1.000000     0.000000     0.000000     0.000000     0.000000
   21     1.000000    90.000000     0.000000     0.000000    -1.000000     0.000000     0.000000     0.000000
   22    -1.000000    90.000000     0.000000     0.000000    -1.000000     0.000000     0.000000     0.000000
   23     1.000000   180.000000     0.000000     0.707107     0.707107     0.000000     0.000000     0.000000
   24    -1.000000   180.000000     0.000000     0.707107     0.707107     0.000000     0.000000     0.000000
   25     1.000000   120.000000    -0.577350     0.577350     0.577350     0.000000     0.000000     0.000000
   26    -1.000000   120.000000    -0.577350     0.577350     0.577350     0.000000     0.000000     0.000000
   27     1.000000   120.000000    -0.577350     0.577350    -0.577350     0.000000     0.000000     0.000000
   28    -1.000000   120.000000    -0.577350     0.577350    -0.577350     0.000000     0.000000     0.000000
   29     1.000000   179.999999     0.000000     0.000000     1.000000     0.000000     0.000000     0.000000
   30    -1.000000   179.999999     0.000000     0.000000     1.000000     0.000000     0.000000     0.000000
   31     1.000000    90.000000    -1.000000     0.000000     0.000000     0.000000     0.000000     0.000000
   32    -1.000000    90.000000    -1.000000     0.000000     0.000000     0.000000     0.000000     0.000000
   33     1.000000   180.000000     0.707107     0.000000     0.707107     0.000000     0.000000     0.000000
   34    -1.000000   180.000000     0.707107     0.000000     0.707107     0.000000     0.000000     0.000000
   35     1.000000    90.000000     0.000000     0.000000     1.000000     0.000000     0.000000     0.000000
   36    -1.000000    90.000000     0.000000     0.000000     1.000000     0.000000     0.000000     0.000000
   37     1.000000   120.000000    -0.577350    -0.577350     0.577350     0.000000     0.000000     0.000000
   38    -1.000000   120.000000    -0.577350    -0.577350     0.577350     0.000000     0.000000     0.000000
   39     1.000000   180.000000     1.000000     0.000000     0.000000     0.000000     0.000000     0.000000
   40    -1.000000   180.000000     1.000000     0.000000     0.000000     0.000000     0.000000     0.000000
   41     1.000000   120.000000     0.577350    -0.577350     0.577350     0.000000     0.000000     0.000000
   42    -1.000000   120.000000     0.577350    -0.577350     0.577350     0.000000     0.000000     0.000000
   43     1.000000   180.000000     0.707107    -0.707107     0.000000     0.000000     0.000000     0.000000
   44    -1.000000   180.000000     0.707107    -0.707107     0.000000     0.000000     0.000000     0.000000
   45     1.000000   180.000000     0.707107     0.000000    -0.707107     0.000000     0.000000     0.000000
   46    -1.000000   180.000000     0.707107     0.000000    -0.707107     0.000000     0.000000     0.000000
   47     1.000000   180.000000     0.000000    -0.707107     0.707107     0.000000     0.000000     0.000000
   48    -1.000000   180.000000     0.000000    -0.707107     0.707107     0.000000     0.000000     0.000000
 
 Subroutine IBZKPT returns following result:
 ===========================================
 
 Found    120 irreducible k-points:
 
 Following reciprocal coordinates:
            Coordinates               Weight
  0.000000  0.000000  0.000000      1.000000
  0.066667  0.000000  0.000000      8.000000
  0.133333  0.000000  0.000000      8.000000
  0.200000  0.000000  0.000000      8.000000
  0.266667  0.000000  0.000000      8.000000
  0.333333  0.000000  0.000000      8.000000
  0.400000  0.000000  0.000000      8.000000
  0.466667  0.000000  0.000000      8.000000
  0.066667  0.066667  0.000000      6.000000
  0.133333  0.066667  0.000000     24.000000
  0.200000  0.066667  0.000000     24.000000
  0.266667  0.066667  0.000000     24.000000
  0.333333  0.066667  0.000000     24.000000
  0.400000  0.066667  0.000000     24.000000
  0.466667  0.066667  0.000000     24.000000
 -0.466667  0.066667  0.000000     24.000000
 -0.400000  0.066667  0.000000     24.000000
 -0.333333  0.066667  0.000000     24.000000
 -0.266667  0.066667  0.000000     24.000000
 -0.200000  0.066667  0.000000     24.000000
 -0.133333  0.066667  0.000000     24.000000
 -0.066667  0.066667  0.000000     12.000000
  0.133333  0.133333  0.000000      6.000000
  0.200000  0.133333  0.000000     24.000000
  0.266667  0.133333  0.000000     24.000000
  0.333333  0.133333  0.000000     24.000000
  0.400000  0.133333  0.000000     24.000000
  0.466667  0.133333  0.000000     24.000000
 -0.466667  0.133333  0.000000     24.000000
 -0.400000  0.133333  0.000000     24.000000
 -0.333333  0.133333  0.000000     24.000000
 -0.266667  0.133333  0.000000     24.000000
 -0.200000  0.133333  0.000000     24.000000
 -0.133333  0.133333  0.000000     12.000000
  0.200000  0.200000  0.000000      6.000000
  0.266667  0.200000  0.000000     24.000000
  0.333333  0.200000  0.000000     24.000000
  0.400000  0.200000  0.000000     24.000000
  0.466667  0.200000  0.000000     24.000000
 -0.466667  0.200000  0.000000     24.000000
 -0.400000  0.200000  0.000000     24.000000
 -0.333333  0.200000  0.000000     24.000000
 -0.266667  0.200000  0.000000     24.000000
 -0.200000  0.200000  0.000000     12.000000
  0.266667  0.266667  0.000000      6.000000
  0.333333  0.266667  0.000000     24.000000
  0.400000  0.266667  0.000000     24.000000
  0.466667  0.266667  0.000000     24.000000
 -0.466667  0.266667  0.000000     24.000000
 -0.400000  0.266667  0.000000     24.000000
 -0.333333  0.266667  0.000000     24.000000
 -0.266667  0.266667  0.000000     12.000000
  0.333333  0.333333  0.000000      6.000000
  0.400000  0.333333  0.000000     24.000000
  0.466667  0.333333  0.000000     24.000000
 -0.466667  0.333333  0.000000     24.000000
 -0.400000  0.333333  0.000000     24.000000
 -0.333333  0.333333  0.000000     12.000000
  0.400000  0.400000  0.000000      6.000000
  0.466667  0.400000  0.000000     24.000000
 -0.466667  0.400000  0.000000     24.000000
 -0.400000  0.400000  0.000000     12.000000
  0.466667  0.466667  0.000000      6.000000
 -0.466667  0.466667  0.000000     12.000000
  0.200000  0.133333  0.066667     24.000000
  0.266667  0.133333  0.066667     48.000000
  0.333333  0.133333  0.066667     48.000000
  0.400000  0.133333  0.066667     48.000000
  0.466667  0.133333  0.066667     48.000000
 -0.466667  0.133333  0.066667     48.000000
  0.266667  0.200000  0.066667     24.000000
  0.333333  0.200000  0.066667     48.000000
  0.400000  0.200000  0.066667     48.000000
  0.466667  0.200000  0.066667     48.000000
 -0.466667  0.200000  0.066667     48.000000
 -0.400000  0.200000  0.066667     48.000000
 -0.333333  0.200000  0.066667     48.000000
 -0.266667  0.200000  0.066667     48.000000
 -0.200000  0.200000  0.066667     48.000000
 -0.133333  0.200000  0.066667     24.000000
  0.333333  0.266667  0.066667     24.000000
  0.400000  0.266667  0.066667     48.000000
  0.466667  0.266667  0.066667     48.000000
 -0.466667  0.266667  0.066667     48.000000
 -0.400000  0.266667  0.066667     48.000000
 -0.333333  0.266667  0.066667     48.000000
 -0.266667  0.266667  0.066667     48.000000
 -0.200000  0.266667  0.066667     24.000000
  0.400000  0.333333  0.066667     24.000000
  0.466667  0.333333  0.066667     48.000000
 -0.466667  0.333333  0.066667     48.000000
 -0.400000  0.333333  0.066667     48.000000
 -0.333333  0.333333  0.066667     48.000000
 -0.266667  0.333333  0.066667     24.000000
  0.466667  0.400000  0.066667     24.000000
 -0.466667  0.400000  0.066667     48.000000
 -0.400000  0.400000  0.066667     48.000000
 -0.333333  0.400000  0.066667     24.000000
 -0.466667  0.466667  0.066667     24.000000
 -0.400000  0.466667  0.066667     24.000000
  0.400000  0.266667  0.133333     24.000000
  0.466667  0.266667  0.133333     48.000000
 -0.466667  0.266667  0.133333     48.000000
 -0.400000  0.266667  0.133333     48.000000
  0.466667  0.333333  0.133333     24.000000
 -0.466667  0.333333  0.133333     48.000000
 -0.400000  0.333333  0.133333     48.000000
 -0.333333  0.333333  0.133333     48.000000
 -0.266667  0.333333  0.133333     48.000000
 -0.200000  0.333333  0.133333     24.000000
 -0.466667  0.400000  0.133333     24.000000
 -0.400000  0.400000  0.133333     48.000000
 -0.333333  0.400000  0.133333     48.000000
 -0.266667  0.400000  0.133333     24.000000
 -0.400000  0.466667  0.133333     24.000000
 -0.333333  0.466667  0.133333     24.000000
 -0.400000  0.400000  0.200000     24.000000
 -0.333333  0.400000  0.200000     48.000000
 -0.333333  0.466667  0.200000     24.000000
 -0.266667  0.466667  0.200000     24.000000
 
 Following cartesian coordinates:
            Coordinates               Weight
  0.000000  0.000000  0.000000      1.000000
  0.066667  0.066667 -0.066667      8.000000
  0.133333  0.133333 -0.133333      8.000000
  0.200000  0.200000 -0.200000      8.000000
  0.266667  0.266667 -0.266667      8.000000
  0.333333  0.333333 -0.333333      8.000000
  0.400000  0.400000 -0.400000      8.000000
  0.466667  0.466667 -0.466667      8.000000
  0.000000  0.133333  0.000000      6.000000
  0.066667  0.200000 -0.066667     24.000000
  0.133333  0.266667 -0.133333     24.000000
  0.200000  0.333333 -0.200000     24.000000
  0.266667  0.400000 -0.266667     24.000000
  0.333333  0.466667 -0.333333     24.000000
  0.400000  0.533333 -0.400000     24.000000
 -0.533333 -0.400000  0.533333     24.000000
 -0.466667 -0.333333  0.466667     24.000000
 -0.400000 -0.266667  0.400000     24.000000
 -0.333333 -0.200000  0.333333     24.000000
 -0.266667 -0.133333  0.266667     24.000000
 -0.200000 -0.066667  0.200000     24.000000
 -0.133333  0.000000  0.133333     12.000000
  0.000000  0.266667  0.000000      6.000000
  0.066667  0.333333 -0.066667     24.000000
  0.133333  0.400000 -0.133333     24.000000
  0.200000  0.466667 -0.200000     24.000000
  0.266667  0.533333 -0.266667     24.000000
  0.333333  0.600000 -0.333333     24.000000
 -0.600000 -0.333333  0.600000     24.000000
 -0.533333 -0.266667  0.533333     24.000000
 -0.466667 -0.200000  0.466667     24.000000
 -0.400000 -0.133333  0.400000     24.000000
 -0.333333 -0.066667  0.333333     24.000000
 -0.266667  0.000000  0.266667     12.000000
  0.000000  0.400000  0.000000      6.000000
  0.066667  0.466667 -0.066667     24.000000
  0.133333  0.533333 -0.133333     24.000000
  0.200000  0.600000 -0.200000     24.000000
  0.266667  0.666667 -0.266667     24.000000
 -0.666667 -0.266667  0.666667     24.000000
 -0.600000 -0.200000  0.600000     24.000000
 -0.533333 -0.133333  0.533333     24.000000
 -0.466667 -0.066667  0.466667     24.000000
 -0.400000  0.000000  0.400000     12.000000
  0.000000  0.533333  0.000000      6.000000
  0.066667  0.600000 -0.066667     24.000000
  0.133333  0.666667 -0.133333     24.000000
  0.200000  0.733333 -0.200000     24.000000
 -0.733333 -0.200000  0.733333     24.000000
 -0.666667 -0.133333  0.666667     24.000000
 -0.600000 -0.066667  0.600000     24.000000
 -0.533333  0.000000  0.533333     12.000000
  0.000000  0.666667  0.000000      6.000000
  0.066667  0.733333 -0.066667     24.000000
  0.133333  0.800000 -0.133333     24.000000
 -0.800000 -0.133333  0.800000     24.000000
 -0.733333 -0.066667  0.733333     24.000000
 -0.666667  0.000000  0.666667     12.000000
  0.000000  0.800000  0.000000      6.000000
  0.066667  0.866667 -0.066667     24.000000
 -0.866667 -0.066667  0.866667     24.000000
 -0.800000  0.000000  0.800000     12.000000
  0.000000  0.933333  0.000000      6.000000
 -0.933333  0.000000  0.933333     12.000000
  0.133333  0.266667 -0.000000     24.000000
  0.200000  0.333333 -0.066667     48.000000
  0.266667  0.400000 -0.133333     48.000000
  0.333333  0.466667 -0.200000     48.000000
  0.400000  0.533333 -0.266667     48.000000
 -0.533333 -0.400000  0.666667     48.000000
  0.133333  0.400000  0.000000     24.000000
  0.200000  0.466667 -0.066667     48.000000
  0.266667  0.533333 -0.133333     48.000000
  0.333333  0.600000 -0.200000     48.000000
 -0.600000 -0.333333  0.733333     48.000000
 -0.533333 -0.266667  0.666667     48.000000
 -0.466667 -0.200000  0.600000     48.000000
 -0.400000 -0.133333  0.533333     48.000000
 -0.333333 -0.066667  0.466667     48.000000
 -0.266667  0.000000  0.400000     24.000000
  0.133333  0.533333  0.000000     24.000000
  0.200000  0.600000 -0.066667     48.000000
  0.266667  0.666667 -0.133333     48.000000
 -0.666667 -0.266667  0.800000     48.000000
 -0.600000 -0.200000  0.733333     48.000000
 -0.533333 -0.133333  0.666667     48.000000
 -0.466667 -0.066667  0.600000     48.000000
 -0.400000  0.000000  0.533333     24.000000
  0.133333  0.666667 -0.000000     24.000000
  0.200000  0.733333 -0.066667     48.000000
 -0.733333 -0.200000  0.866667     48.000000
 -0.666667 -0.133333  0.800000     48.000000
 -0.600000 -0.066667  0.733333     48.000000
 -0.533333  0.000000  0.666667     24.000000
  0.133333  0.800000  0.000000     24.000000
 -0.800000 -0.133333  0.933333     48.000000
 -0.733333 -0.066667  0.866667     48.000000
 -0.666667  0.000000  0.800000     24.000000
 -0.866667 -0.066667  1.000000     24.000000
 -0.800000  0.000000  0.933333     24.000000
  0.266667  0.533333  0.000000     24.000000
  0.333333  0.600000 -0.066667     48.000000
 -0.600000 -0.333333  0.866667     48.000000
 -0.533333 -0.266667  0.800000     48.000000
  0.266667  0.666667  0.000000     24.000000
 -0.666667 -0.266667  0.933333     48.000000
 -0.600000 -0.200000  0.866667     48.000000
 -0.533333 -0.133333  0.800000     48.000000
 -0.466667 -0.066667  0.733333     48.000000
 -0.400000  0.000000  0.666667     24.000000
 -0.733333 -0.200000  1.000000     24.000000
 -0.666667 -0.133333  0.933333     48.000000
 -0.600000 -0.066667  0.866667     48.000000
 -0.533333  0.000000  0.800000     24.000000
 -0.733333 -0.066667  1.000000     24.000000
 -0.666667  0.000000  0.933333     24.000000
 -0.600000 -0.200000  1.000000     24.000000
 -0.533333 -0.133333  0.933333     48.000000
 -0.600000 -0.066667  1.000000     24.000000
 -0.533333  0.000000  0.933333     24.000000
 
 TETIRR: Found    484 inequivalent tetrahedra from    20250


--------------------------------------------------------------------------------------------------------




 Dimension of arrays:
   k-points           NKPTS =    120   k-points in BZ     NKDIM =    120   number of bands    NBANDS=      8
   number of dos      NEDOS =    301   number of ions     NIONS =      1
   non local maximal  LDIM  =      4   non local SUM 2l+1 LMDIM =      8
   total plane-waves  NPLWV =   1000
   max r-space proj   IRMAX =      1   max aug-charges    IRDMAX=   2454
   dimension x,y,z NGX =    10 NGY =   10 NGZ =   10
   dimension x,y,z NGXF=    20 NGYF=   20 NGZF=   20
   support grid    NGXF=    20 NGYF=   20 NGZF=   20
   ions per type =               1
   NGX,Y,Z   is equivalent  to a cutoff of   6.03,  6.03,  6.03 a.u.
   NGXF,Y,Z  is equivalent  to a cutoff of  12.06, 12.06, 12.06 a.u.

 SYSTEM =  fcc Si                                  
 POSCAR =  fcc:                                    

 Startparameter for this run:
   NWRITE =      2    write-flag & timer
   PREC   = normal    normal or accurate (medium, high low for compatibility)
   ISTART =      0    job   : 0-new  1-cont  2-samecut
   ICHARG =      2    charge: 1-file 2-atom 10-const
   ISPIN  =      1    spin polarized calculation?
   LNONCOLLINEAR =      F non collinear calculations
   LSORBIT =      F    spin-orbit coupling
   INIWAV =      1    electr: 0-lowe 1-rand  2-diag
   LASPH  =      F    aspherical Exc in radial PAW
   METAGGA=      F    non-selfconsistent MetaGGA calc.

 Electronic Relaxation 1
   ENCUT  =  240.0 eV  17.64 Ry    4.20 a.u.   3.48  3.48  3.48*2*pi/ulx,y,z
   ENINI  =  240.0     initial cutoff
   ENAUG  =  322.1 eV  augmentation charge cutoff
   NELM   =     60;   NELMIN=  2; NELMDL= -5     # of ELM steps 
   EDIFF  = 0.1E-03   stopping-criterion for ELM
   LREAL  =      F    real-space projection
   NLSPLINE    = F    spline interpolate recip. space projectors
   LCOMPAT=      F    compatible to vasp.4.4
   GGA_COMPAT  = T    GGA compatible to vasp.4.4-vasp.4.6
   LMAXPAW     = -100 max onsite density
   LMAXMIX     =    2 max onsite mixed and CHGCAR
   VOSKOWN=      0    Vosko Wilk Nusair interpolation
   ROPT   =    0.00000
 Ionic relaxation
   EDIFFG = 0.1E-02   stopping-criterion for IOM
   NSW    =      0    number of steps for IOM
   NBLOCK =      1;   KBLOCK =      1    inner block; outer block 
   IBRION =     -1    ionic relax: 0-MD 1-quasi-New 2-CG
   NFREE  =      0    steps in history (QN), initial steepest desc. (CG)
   ISIF   =      2    stress and relaxation
   IWAVPR =     10    prediction:  0-non 1-charg 2-wave 3-comb
   ISYM   =      2    0-nonsym 1-usesym 2-fastsym
   LCORR  =      T    Harris-Foulkes like correction to forces

   POTIM  = 0.5000    time-step for ionic-motion
   TEIN   =    0.0    initial temperature
   TEBEG  =    0.0;   TEEND  =   0.0 temperature during run
   SMASS  =  -3.00    Nose mass-parameter (am)
   estimated Nose-frequenzy (Omega)   =  0.10E-29 period in steps =****** mass=  -0.174E-27a.u.
   SCALEE = 1.0000    scale energy and forces
   NPACO  =    256;   APACO  = 16.0  distance and # of slots for P.C.
   PSTRESS=    0.0 pullay stress

  Mass of Ions in am
   POMASS =  28.09
  Ionic Valenz
   ZVAL   =   4.00
  Atomic Wigner-Seitz radii
   RWIGS  =  -1.00
  virtual crystal weights 
   VCA    =   1.00
   NELECT =       4.0000    total number of electrons
   NUPDOWN=      -1.0000    fix difference up-down

 DOS related values:
   EMIN   =  10.00;   EMAX   =-10.00  energy-range for DOS
   EFERMI =   0.00
   ISMEAR =    -5;   SIGMA  =   0.20  broadening in eV -4-tet -1-fermi 0-gaus

 Electronic relaxation 2 (details)
   IALGO  =     38    algorithm
   LDIAG  =      T    sub-space diagonalisation (order eigenvalues)
   LSUBROT=      F    optimize rotation matrix (better conditioning)
   TURBO    =      0    0=normal 1=particle mesh
   IRESTART =      0    0=no restart 2=restart with 2 vectors
   NREBOOT  =      0    no. of reboots
   NMIN     =      0    reboot dimension
   EREF     =   0.00    reference energy to select bands
   IMIX   =      4    mixing-type and parameters
     AMIX     =   0.40;   BMIX     =  1.00
     AMIX_MAG =   1.60;   BMIX_MAG =  1.00
     AMIN     =   0.10
     WC   =   100.;   INIMIX=   1;  MIXPRE=   1;  MAXMIX= -45

 Intra band minimization:
   WEIMIN = 0.0000     energy-eigenvalue tresh-hold
   EBREAK =  0.31E-05  absolut break condition
   DEPER  =   0.30     relativ break condition  

   TIME   =   0.40     timestep for ELM

  volume/ion in A,a.u.               =      14.83       100.08
  Fermi-wavevector in a.u.,A,eV,Ry     =   1.057751  1.998860 15.222711  1.118838
  Thomas-Fermi vector in A             =   2.193036
 
 Write flags
   LWAVE        =      T    write WAVECAR
   LDOWNSAMPLE  =      F    k-point downsampling of WAVECAR
   LCHARG       =      T    write CHGCAR
   LVTOT        =      F    write LOCPOT, total local potential
   LVHAR        =      F    write LOCPOT, Hartree potential only
   LELF         =      F    write electronic localiz. function (ELF)
   LORBIT       =     11    0 simple, 1 ext, 2 COOP (PROOUT), +10 PAW based schemes


 Dipole corrections
   LMONO  =      F    monopole corrections only (constant potential shift)
   LDIPOL =      F    correct potential (dipole corrections)
   IDIPOL =      0    1-x, 2-y, 3-z, 4-all directions 
   EPSILON=  1.0000000 bulk dielectric constant

 Exchange correlation treatment:
   GGA     =    --    GGA type
   LEXCH   =     8    internal setting for exchange type
   VOSKOWN=      0    Vosko Wilk Nusair interpolation
   LHFCALC =     F    Hartree Fock is set to
   LHFONE  =     F    Hartree Fock one center treatment
   AEXX    =    0.0000 exact exchange contribution

 Linear response parameters
   LEPSILON=     F    determine dielectric tensor
   LRPA    =     F    only Hartree local field effects (RPA)
   LNABLA  =     F    use nabla operator in PAW spheres
   LVEL    =     F    velocity operator in full k-point grid
   LINTERFAST=   F  fast interpolation
   KINTER  =     0    interpolate to denser k-point grid
   CSHIFT  =0.1000    complex shift for real part using Kramers Kronig
   OMEGAMAX=  -1.0    maximum frequency
   DEG_THRESHOLD= 0.2000000E-02 threshold for treating states as degnerate
   RTIME   =   -0.100 relaxation time in fs
  (WPLASMAI=    0.000 imaginary part of plasma frequency in eV, 0.658/RTIME)
   DFIELD  = 0.0000000 0.0000000 0.0000000 field for delta impulse in time
 
 Orbital magnetization related:
   ORBITALMAG=     F  switch on orbital magnetization
   LCHIMAG   =     F  perturbation theory with respect to B field
   DQ        =  0.001000  dq finite difference perturbation B field
   LLRAUG    =     F  two centre corrections for induced B field



--------------------------------------------------------------------------------------------------------


 Static calculation
 charge density and potential will be updated during run
 non-spin polarized calculation
 Variant of blocked Davidson
 Davidson routine will perform the subspace rotation
 perform sub-space diagonalisation
    after iterative eigenvector-optimisation
 modified Broyden-mixing scheme, WC =      100.0
 initial mixing is a Kerker type mixing with AMIX =  0.4000 and BMIX =      1.0000
 Hartree-type preconditioning will be used
 using additional bands            6
 reciprocal scheme for non local part
 use partial core corrections
 calculate Harris-corrections to forces 
   (improved forces if not selfconsistent)
 use gradient corrections 
 use of overlap-Matrix (Vanderbilt PP)
 Fermi weights with tetrahedron method with Bloechl corrections


--------------------------------------------------------------------------------------------------------


  energy-cutoff  :      240.00
  volume of cell :       14.83
      direct lattice vectors                 reciprocal lattice vectors
     1.950000000  1.950000000  0.000000000     0.256410256  0.256410256 -0.256410256
     0.000000000  1.950000000  1.950000000    -0.256410256  0.256410256  0.256410256
     1.950000000  0.000000000  1.950000000     0.256410256 -0.256410256  0.256410256

  length of vectors
     2.757716447  2.757716447  2.757716447     0.444115592  0.444115592  0.444115592


 
 k-points in units of 2pi/SCALE and weight: K-Points                                
   0.00000000  0.00000000  0.00000000       0.000
   0.06666667  0.06666667 -0.06666667       0.002
   0.13333333  0.13333333 -0.13333333       0.002
   0.20000000  0.20000000 -0.20000000       0.002
   0.26666667  0.26666667 -0.26666667       0.002
   0.33333333  0.33333333 -0.33333333       0.002
   0.40000000  0.40000000 -0.40000000       0.002
   0.46666667  0.46666667 -0.46666667       0.002
   0.00000000  0.13333333  0.00000000       0.002
   0.06666667  0.20000000 -0.06666667       0.007
   0.13333333  0.26666667 -0.13333333       0.007
   0.20000000  0.33333333 -0.20000000       0.007
   0.26666667  0.40000000 -0.26666667       0.007
   0.33333333  0.46666667 -0.33333333       0.007
   0.40000000  0.53333333 -0.40000000       0.007
  -0.53333333 -0.40000000  0.53333333       0.007
  -0.46666667 -0.33333333  0.46666667       0.007
  -0.40000000 -0.26666667  0.40000000       0.007
  -0.33333333 -0.20000000  0.33333333       0.007
  -0.26666667 -0.13333333  0.26666667       0.007
  -0.20000000 -0.06666667  0.20000000       0.007
  -0.13333333  0.00000000  0.13333333       0.004
   0.00000000  0.26666667  0.00000000       0.002
   0.06666667  0.33333333 -0.06666667       0.007
   0.13333333  0.40000000 -0.13333333       0.007
   0.20000000  0.46666667 -0.20000000       0.007
   0.26666667  0.53333333 -0.26666667       0.007
   0.33333333  0.60000000 -0.33333333       0.007
  -0.60000000 -0.33333333  0.60000000       0.007
  -0.53333333 -0.26666667  0.53333333       0.007
  -0.46666667 -0.20000000  0.46666667       0.007
  -0.40000000 -0.13333333  0.40000000       0.007
  -0.33333333 -0.06666667  0.33333333       0.007
  -0.26666667  0.00000000  0.26666667       0.004
   0.00000000  0.40000000  0.00000000       0.002
   0.06666667  0.46666667 -0.06666667       0.007
   0.13333333  0.53333333 -0.13333333       0.007
   0.20000000  0.60000000 -0.20000000       0.007
   0.26666667  0.66666667 -0.26666667       0.007
  -0.66666667 -0.26666667  0.66666667       0.007
  -0.60000000 -0.20000000  0.60000000       0.007
  -0.53333333 -0.13333333  0.53333333       0.007
  -0.46666667 -0.06666667  0.46666667       0.007
  -0.40000000  0.00000000  0.40000000       0.004
   0.00000000  0.53333333  0.00000000       0.002
   0.06666667  0.60000000 -0.06666667       0.007
   0.13333333  0.66666667 -0.13333333       0.007
   0.20000000  0.73333333 -0.20000000       0.007
  -0.73333333 -0.20000000  0.73333333       0.007
  -0.66666667 -0.13333333  0.66666667       0.007
  -0.60000000 -0.06666667  0.60000000       0.007
  -0.53333333  0.00000000  0.53333333       0.004
   0.00000000  0.66666667  0.00000000       0.002
   0.06666667  0.73333333 -0.06666667       0.007
   0.13333333  0.80000000 -0.13333333       0.007
  -0.80000000 -0.13333333  0.80000000       0.007
  -0.73333333 -0.06666667  0.73333333       0.007
  -0.66666667  0.00000000  0.66666667       0.004
   0.00000000  0.80000000  0.00000000       0.002
   0.06666667  0.86666667 -0.06666667       0.007
  -0.86666667 -0.06666667  0.86666667       0.007
  -0.80000000  0.00000000  0.80000000       0.004
   0.00000000  0.93333333  0.00000000       0.002
  -0.93333333  0.00000000  0.93333333       0.004
   0.13333333  0.26666667 -0.00000000       0.007
   0.20000000  0.33333333 -0.06666667       0.014
   0.26666667  0.40000000 -0.13333333       0.014
   0.33333333  0.46666667 -0.20000000       0.014
   0.40000000  0.53333333 -0.26666667       0.014
  -0.53333333 -0.40000000  0.66666667       0.014
   0.13333333  0.40000000  0.00000000       0.007
   0.20000000  0.46666667 -0.06666667       0.014
   0.26666667  0.53333333 -0.13333333       0.014
   0.33333333  0.60000000 -0.20000000       0.014
  -0.60000000 -0.33333333  0.73333333       0.014
  -0.53333333 -0.26666667  0.66666667       0.014
  -0.46666667 -0.20000000  0.60000000       0.014
  -0.40000000 -0.13333333  0.53333333       0.014
  -0.33333333 -0.06666667  0.46666667       0.014
  -0.26666667  0.00000000  0.40000000       0.007
   0.13333333  0.53333333  0.00000000       0.007
   0.20000000  0.60000000 -0.06666667       0.014
   0.26666667  0.66666667 -0.13333333       0.014
  -0.66666667 -0.26666667  0.80000000       0.014
  -0.60000000 -0.20000000  0.73333333       0.014
  -0.53333333 -0.13333333  0.66666667       0.014
  -0.46666667 -0.06666667  0.60000000       0.014
  -0.40000000  0.00000000  0.53333333       0.007
   0.13333333  0.66666667 -0.00000000       0.007
   0.20000000  0.73333333 -0.06666667       0.014
  -0.73333333 -0.20000000  0.86666667       0.014
  -0.66666667 -0.13333333  0.80000000       0.014
  -0.60000000 -0.06666667  0.73333333       0.014
  -0.53333333  0.00000000  0.66666667       0.007
   0.13333333  0.80000000  0.00000000       0.007
  -0.80000000 -0.13333333  0.93333333       0.014
  -0.73333333 -0.06666667  0.86666667       0.014
  -0.66666667  0.00000000  0.80000000       0.007
  -0.86666667 -0.06666667  1.00000000       0.007
  -0.80000000  0.00000000  0.93333333       0.007
   0.26666667  0.53333333  0.00000000       0.007
   0.33333333  0.60000000 -0.06666667       0.014
  -0.60000000 -0.33333333  0.86666667       0.014
  -0.53333333 -0.26666667  0.80000000       0.014
   0.26666667  0.66666667  0.00000000       0.007
  -0.66666667 -0.26666667  0.93333333       0.014
  -0.60000000 -0.20000000  0.86666667       0.014
  -0.53333333 -0.13333333  0.80000000       0.014
  -0.46666667 -0.06666667  0.73333333       0.014
  -0.40000000  0.00000000  0.66666667       0.007
  -0.73333333 -0.20000000  1.00000000       0.007
  -0.66666667 -0.13333333  0.93333333       0.014
  -0.60000000 -0.06666667  0.86666667       0.014
  -0.53333333  0.00000000  0.80000000       0.007
  -0.73333333 -0.06666667  1.00000000       0.007
  -0.66666667  0.00000000  0.93333333       0.007
  -0.60000000 -0.20000000  1.00000000       0.007
  -0.53333333 -0.13333333  0.93333333       0.014
  -0.60000000 -0.06666667  1.00000000       0.007
  -0.53333333  0.00000000  0.93333333       0.007
 
 k-points in reciprocal lattice and weights: K-Points                                
   0.00000000  0.00000000  0.00000000       0.000
   0.06666667  0.00000000  0.00000000       0.002
   0.13333333  0.00000000  0.00000000       0.002
   0.20000000  0.00000000  0.00000000       0.002
   0.26666667  0.00000000  0.00000000       0.002
   0.33333333  0.00000000  0.00000000       0.002
   0.40000000  0.00000000  0.00000000       0.002
   0.46666667  0.00000000  0.00000000       0.002
   0.06666667  0.06666667  0.00000000       0.002
   0.13333333  0.06666667  0.00000000       0.007
   0.20000000  0.06666667  0.00000000       0.007
   0.26666667  0.06666667  0.00000000       0.007
   0.33333333  0.06666667  0.00000000       0.007
   0.40000000  0.06666667  0.00000000       0.007
   0.46666667  0.06666667  0.00000000       0.007
  -0.46666667  0.06666667  0.00000000       0.007
  -0.40000000  0.06666667  0.00000000       0.007
  -0.33333333  0.06666667  0.00000000       0.007
  -0.26666667  0.06666667  0.00000000       0.007
  -0.20000000  0.06666667  0.00000000       0.007
  -0.13333333  0.06666667  0.00000000       0.007
  -0.06666667  0.06666667  0.00000000       0.004
   0.13333333  0.13333333  0.00000000       0.002
   0.20000000  0.13333333  0.00000000       0.007
   0.26666667  0.13333333  0.00000000       0.007
   0.33333333  0.13333333  0.00000000       0.007
   0.40000000  0.13333333  0.00000000       0.007
   0.46666667  0.13333333  0.00000000       0.007
  -0.46666667  0.13333333  0.00000000       0.007
  -0.40000000  0.13333333  0.00000000       0.007
  -0.33333333  0.13333333  0.00000000       0.007
  -0.26666667  0.13333333  0.00000000       0.007
  -0.20000000  0.13333333  0.00000000       0.007
  -0.13333333  0.13333333  0.00000000       0.004
   0.20000000  0.20000000  0.00000000       0.002
   0.26666667  0.20000000  0.00000000       0.007
   0.33333333  0.20000000  0.00000000       0.007
   0.40000000  0.20000000  0.00000000       0.007
   0.46666667  0.20000000  0.00000000       0.007
  -0.46666667  0.20000000  0.00000000       0.007
  -0.40000000  0.20000000  0.00000000       0.007
  -0.33333333  0.20000000  0.00000000       0.007
  -0.26666667  0.20000000  0.00000000       0.007
  -0.20000000  0.20000000  0.00000000       0.004
   0.26666667  0.26666667  0.00000000       0.002
   0.33333333  0.26666667  0.00000000       0.007
   0.40000000  0.26666667  0.00000000       0.007
   0.46666667  0.26666667  0.00000000       0.007
  -0.46666667  0.26666667  0.00000000       0.007
  -0.40000000  0.26666667  0.00000000       0.007
  -0.33333333  0.26666667  0.00000000       0.007
  -0.26666667  0.26666667  0.00000000       0.004
   0.33333333  0.33333333  0.00000000       0.002
   0.40000000  0.33333333  0.00000000       0.007
   0.46666667  0.33333333  0.00000000       0.007
  -0.46666667  0.33333333  0.00000000       0.007
  -0.40000000  0.33333333  0.00000000       0.007
  -0.33333333  0.33333333  0.00000000       0.004
   0.40000000  0.40000000  0.00000000       0.002
   0.46666667  0.40000000  0.00000000       0.007
  -0.46666667  0.40000000  0.00000000       0.007
  -0.40000000  0.40000000  0.00000000       0.004
   0.46666667  0.46666667  0.00000000       0.002
  -0.46666667  0.46666667  0.00000000       0.004
   0.20000000  0.13333333  0.06666667       0.007
   0.26666667  0.13333333  0.06666667       0.014
   0.33333333  0.13333333  0.06666667       0.014
   0.40000000  0.13333333  0.06666667       0.014
   0.46666667  0.13333333  0.06666667       0.014
  -0.46666667  0.13333333  0.06666667       0.014
   0.26666667  0.20000000  0.06666667       0.007
   0.33333333  0.20000000  0.06666667       0.014
   0.40000000  0.20000000  0.06666667       0.014
   0.46666667  0.20000000  0.06666667       0.014
  -0.46666667  0.20000000  0.06666667       0.014
  -0.40000000  0.20000000  0.06666667       0.014
  -0.33333333  0.20000000  0.06666667       0.014
  -0.26666667  0.20000000  0.06666667       0.014
  -0.20000000  0.20000000  0.06666667       0.014
  -0.13333333  0.20000000  0.06666667       0.007
   0.33333333  0.26666667  0.06666667       0.007
   0.40000000  0.26666667  0.06666667       0.014
   0.46666667  0.26666667  0.06666667       0.014
  -0.46666667  0.26666667  0.06666667       0.014
  -0.40000000  0.26666667  0.06666667       0.014
  -0.33333333  0.26666667  0.06666667       0.014
  -0.26666667  0.26666667  0.06666667       0.014
  -0.20000000  0.26666667  0.06666667       0.007
   0.40000000  0.33333333  0.06666667       0.007
   0.46666667  0.33333333  0.06666667       0.014
  -0.46666667  0.33333333  0.06666667       0.014
  -0.40000000  0.33333333  0.06666667       0.014
  -0.33333333  0.33333333  0.06666667       0.014
  -0.26666667  0.33333333  0.06666667       0.007
   0.46666667  0.40000000  0.06666667       0.007
  -0.46666667  0.40000000  0.06666667       0.014
  -0.40000000  0.40000000  0.06666667       0.014
  -0.33333333  0.40000000  0.06666667       0.007
  -0.46666667  0.46666667  0.06666667       0.007
  -0.40000000  0.46666667  0.06666667       0.007
   0.40000000  0.26666667  0.13333333       0.007
   0.46666667  0.26666667  0.13333333       0.014
  -0.46666667  0.26666667  0.13333333       0.014
  -0.40000000  0.26666667  0.13333333       0.014
   0.46666667  0.33333333  0.13333333       0.007
  -0.46666667  0.33333333  0.13333333       0.014
  -0.40000000  0.33333333  0.13333333       0.014
  -0.33333333  0.33333333  0.13333333       0.014
  -0.26666667  0.33333333  0.13333333       0.014
  -0.20000000  0.33333333  0.13333333       0.007
  -0.46666667  0.40000000  0.13333333       0.007
  -0.40000000  0.40000000  0.13333333       0.014
  -0.33333333  0.40000000  0.13333333       0.014
  -0.26666667  0.40000000  0.13333333       0.007
  -0.40000000  0.46666667  0.13333333       0.007
  -0.33333333  0.46666667  0.13333333       0.007
  -0.40000000  0.40000000  0.20000000       0.007
  -0.33333333  0.40000000  0.20000000       0.014
  -0.33333333  0.46666667  0.20000000       0.007
  -0.26666667  0.46666667  0.20000000       0.007
 
 position of ions in fractional coordinates (direct lattice) 
   0.00000000  0.00000000  0.00000000
 
 position of ions in cartesian coordinates  (Angst):
   0.00000000  0.00000000  0.00000000
 


--------------------------------------------------------------------------------------------------------


 k-point  1 :   0.0000 0.0000 0.0000  plane waves:     137
 k-point  2 :   0.0667 0.0000 0.0000  plane waves:     128
 k-point  3 :   0.1333 0.0000 0.0000  plane waves:     128
 k-point  4 :   0.2000 0.0000 0.0000  plane waves:     129
 k-point  5 :   0.2667 0.0000 0.0000  plane waves:     132
 k-point  6 :   0.3333 0.0000 0.0000  plane waves:     126
 k-point  7 :   0.4000 0.0000 0.0000  plane waves:     123
 k-point  8 :   0.4667 0.0000 0.0000  plane waves:     120
 k-point  9 :   0.0667 0.0667 0.0000  plane waves:     125
 k-point 10 :   0.1333 0.0667 0.0000  plane waves:     127
 k-point 11 :   0.2000 0.0667 0.0000  plane waves:     127
 k-point 12 :   0.2667 0.0667 0.0000  plane waves:     131
 k-point 13 :   0.3333 0.0667 0.0000  plane waves:     129
 k-point 14 :   0.4000 0.0667 0.0000  plane waves:     125
 k-point 15 :   0.4667 0.0667 0.0000  plane waves:     125
 k-point 16 :  -0.4667 0.0667 0.0000  plane waves:     129
 k-point 17 :  -0.4000 0.0667 0.0000  plane waves:     126
 k-point 18 :  -0.3333 0.0667 0.0000  plane waves:     129
 k-point 19 :  -0.2667 0.0667 0.0000  plane waves:     133
 k-point 20 :  -0.2000 0.0667 0.0000  plane waves:     130
 k-point 21 :  -0.1333 0.0667 0.0000  plane waves:     125
 k-point 22 :  -0.0667 0.0667 0.0000  plane waves:     127
 k-point 23 :   0.1333 0.1333 0.0000  plane waves:     125
 k-point 24 :   0.2000 0.1333 0.0000  plane waves:     129
 k-point 25 :   0.2667 0.1333 0.0000  plane waves:     132
 k-point 26 :   0.3333 0.1333 0.0000  plane waves:     130
 k-point 27 :   0.4000 0.1333 0.0000  plane waves:     130
 k-point 28 :   0.4667 0.1333 0.0000  plane waves:     125
 k-point 29 :  -0.4667 0.1333 0.0000  plane waves:     125
 k-point 30 :  -0.4000 0.1333 0.0000  plane waves:     127
 k-point 31 :  -0.3333 0.1333 0.0000  plane waves:     128
 k-point 32 :  -0.2667 0.1333 0.0000  plane waves:     130
 k-point 33 :  -0.2000 0.1333 0.0000  plane waves:     131
 k-point 34 :  -0.1333 0.1333 0.0000  plane waves:     133
 k-point 35 :   0.2000 0.2000 0.0000  plane waves:     129
 k-point 36 :   0.2667 0.2000 0.0000  plane waves:     130
 k-point 37 :   0.3333 0.2000 0.0000  plane waves:     130
 k-point 38 :   0.4000 0.2000 0.0000  plane waves:     124
 k-point 39 :   0.4667 0.2000 0.0000  plane waves:     126
 k-point 40 :  -0.4667 0.2000 0.0000  plane waves:     125
 k-point 41 :  -0.4000 0.2000 0.0000  plane waves:     125
 k-point 42 :  -0.3333 0.2000 0.0000  plane waves:     127
 k-point 43 :  -0.2667 0.2000 0.0000  plane waves:     129
 k-point 44 :  -0.2000 0.2000 0.0000  plane waves:     131
 k-point 45 :   0.2667 0.2667 0.0000  plane waves:     129
 k-point 46 :   0.3333 0.2667 0.0000  plane waves:     128
 k-point 47 :   0.4000 0.2667 0.0000  plane waves:     126
 k-point 48 :   0.4667 0.2667 0.0000  plane waves:     124
 k-point 49 :  -0.4667 0.2667 0.0000  plane waves:     125
 k-point 50 :  -0.4000 0.2667 0.0000  plane waves:     123
 k-point 51 :  -0.3333 0.2667 0.0000  plane waves:     126
 k-point 52 :  -0.2667 0.2667 0.0000  plane waves:     126
 k-point 53 :   0.3333 0.3333 0.0000  plane waves:     129
 k-point 54 :   0.4000 0.3333 0.0000  plane waves:     127
 k-point 55 :   0.4667 0.3333 0.0000  plane waves:     122
 k-point 56 :  -0.4667 0.3333 0.0000  plane waves:     124
 k-point 57 :  -0.4000 0.3333 0.0000  plane waves:     122
 k-point 58 :  -0.3333 0.3333 0.0000  plane waves:     122
 k-point 59 :   0.4000 0.4000 0.0000  plane waves:     121
 k-point 60 :   0.4667 0.4000 0.0000  plane waves:     119
 k-point 61 :  -0.4667 0.4000 0.0000  plane waves:     118
 k-point 62 :  -0.4000 0.4000 0.0000  plane waves:     120
 k-point 63 :   0.4667 0.4667 0.0000  plane waves:     116
 k-point 64 :  -0.4667 0.4667 0.0000  plane waves:     116
 k-point 65 :   0.2000 0.1333 0.0667  plane waves:     129
 k-point 66 :   0.2667 0.1333 0.0667  plane waves:     131
 k-point 67 :   0.3333 0.1333 0.0667  plane waves:     133
 k-point 68 :   0.4000 0.1333 0.0667  plane waves:     129
 k-point 69 :   0.4667 0.1333 0.0667  plane waves:     125
 k-point 70 :  -0.4667 0.1333 0.0667  plane waves:     125
 k-point 71 :   0.2667 0.2000 0.0667  plane waves:     131
 k-point 72 :   0.3333 0.2000 0.0667  plane waves:     132
 k-point 73 :   0.4000 0.2000 0.0667  plane waves:     128
 k-point 74 :   0.4667 0.2000 0.0667  plane waves:     126
 k-point 75 :  -0.4667 0.2000 0.0667  plane waves:     122
 k-point 76 :  -0.4000 0.2000 0.0667  plane waves:     124
 k-point 77 :  -0.3333 0.2000 0.0667  plane waves:     126
 k-point 78 :  -0.2667 0.2000 0.0667  plane waves:     130
 k-point 79 :  -0.2000 0.2000 0.0667  plane waves:     129
 k-point 80 :  -0.1333 0.2000 0.0667  plane waves:     132
 k-point 81 :   0.3333 0.2667 0.0667  plane waves:     128
 k-point 82 :   0.4000 0.2667 0.0667  plane waves:     126
 k-point 83 :   0.4667 0.2667 0.0667  plane waves:     124
 k-point 84 :  -0.4667 0.2667 0.0667  plane waves:     124
 k-point 85 :  -0.4000 0.2667 0.0667  plane waves:     122
 k-point 86 :  -0.3333 0.2667 0.0667  plane waves:     126
 k-point 87 :  -0.2667 0.2667 0.0667  plane waves:     127
 k-point 88 :  -0.2000 0.2667 0.0667  plane waves:     127
 k-point 89 :   0.4000 0.3333 0.0667  plane waves:     129
 k-point 90 :   0.4667 0.3333 0.0667  plane waves:     126
 k-point 91 :  -0.4667 0.3333 0.0667  plane waves:     126
 k-point 92 :  -0.4000 0.3333 0.0667  plane waves:     121
 k-point 93 :  -0.3333 0.3333 0.0667  plane waves:     121
 k-point 94 :  -0.2667 0.3333 0.0667  plane waves:     126
 k-point 95 :   0.4667 0.4000 0.0667  plane waves:     124
 k-point 96 :  -0.4667 0.4000 0.0667  plane waves:     125
 k-point 97 :  -0.4000 0.4000 0.0667  plane waves:     124
 k-point 98 :  -0.3333 0.4000 0.0667  plane waves:     121
 k-point 99 :  -0.4667 0.4667 0.0667  plane waves:     117
 k-point ** :  -0.4000 0.4667 0.0667  plane waves:     120
 k-point ** :   0.4000 0.2667 0.1333  plane waves:     127
 k-point ** :   0.4667 0.2667 0.1333  plane waves:     126
 k-point ** :  -0.4667 0.2667 0.1333  plane waves:     123
 k-point ** :  -0.4000 0.2667 0.1333  plane waves:     123
 k-point ** :   0.4667 0.3333 0.1333  plane waves:     126
 k-point ** :  -0.4667 0.3333 0.1333  plane waves:     124
 k-point ** :  -0.4000 0.3333 0.1333  plane waves:     119
 k-point ** :  -0.3333 0.3333 0.1333  plane waves:     120
 k-point ** :  -0.2667 0.3333 0.1333  plane waves:     123
 k-point ** :  -0.2000 0.3333 0.1333  plane waves:     125
 k-point ** :  -0.4667 0.4000 0.1333  plane waves:     125
 k-point ** :  -0.4000 0.4000 0.1333  plane waves:     123
 k-point ** :  -0.3333 0.4000 0.1333  plane waves:     122
 k-point ** :  -0.2667 0.4000 0.1333  plane waves:     123
 k-point ** :  -0.4000 0.4667 0.1333  plane waves:     122
 k-point ** :  -0.3333 0.4667 0.1333  plane waves:     122
 k-point ** :  -0.4000 0.4000 0.2000  plane waves:     123
 k-point ** :  -0.3333 0.4000 0.2000  plane waves:     118
 k-point ** :  -0.3333 0.4667 0.2000  plane waves:     116
 k-point ** :  -0.2667 0.4667 0.2000  plane waves:     116

 maximum and minimum number of plane-waves per node :        38       27

 maximum number of plane-waves:       137
 maximum index in each direction: 
   IXMAX=    3   IYMAX=    3   IZMAX=    3
   IXMIN=   -3   IYMIN=   -3   IZMIN=   -3


 parallel 3D FFT for wavefunctions:
    minimum data exchange during FFTs selected (reduces bandwidth)
 parallel 3D FFT for charge:
    minimum data exchange during FFTs selected (reduces bandwidth)


 total amount of memory used by VASP MPI-rank0    30530. kBytes
=======================================================================

   base      :      30000. kBytes
   nonl-proj :        277. kBytes
   fftplans  :         29. kBytes
   grid      :         53. kBytes
   one-center:          3. kBytes
   wavefun   :        168. kBytes
 
     INWAV:  cpu time    0.0000: real time    0.0002
 Broyden mixing: mesh for mixing (old mesh)
   NGX =  7   NGY =  7   NGZ =  7
  (NGX  = 20   NGY  = 20   NGZ  = 20)
  gives a total of    343 points

 initial charge density was supplied:
 charge density of overlapping atoms calculated
 number of electron       4.0000000 magnetization 
 keeping initial charge density in first step


--------------------------------------------------------------------------------------------------------


 Maximum index for augmentation-charges          331 (set IRDMAX)


--------------------------------------------------------------------------------------------------------


 First call to EWALD:  gamma=   0.721
 Maximum number of real-space cells 3x 3x 3
 Maximum number of reciprocal cells 3x 3x 3

    FEWALD:  cpu time    0.0020: real time    0.0020


--------------------------------------- Iteration      1(   1)  ---------------------------------------


    POTLOK:  cpu time    0.0023: real time    0.0045
    SETDIJ:  cpu time    0.0015: real time    0.0016
     EDDAV:  cpu time    0.1656: real time    0.1656
 BZINTS: Fermi energy: 10.518859;  4.000000 electrons
         Band energy:  17.976321;  BLOECHL correction: -0.142384
       DOS:  cpu time    0.0078: real time    0.0078
    --------------------------------------------
      LOOP:  cpu time    0.1772: real time    0.1795

 eigenvalue-minimisations  :  2200
 total energy-change (2. order) :-0.4051151E+01  (-0.1150016E+03)
 number of electron       4.0000000 magnetization 
 augmentation part        4.0000000 magnetization 

 Free energy of the ion-electron system (eV)
  ---------------------------------------------------
  alpha Z        PSCENC =         2.26996938
  Ewald energy   TEWEN  =      -135.42777035
  -Hartree energ DENC   =        -0.65300110
  -exchange      EXHF   =         0.00000000
  -V(xc)+E(xc)   XCENC  =        -8.87078791
  PAW double counting   =        32.97760406      -15.38426339
  entropy T*S    EENTRO =         0.00000000
  eigenvalues    EBANDS =        17.97632133
  atomic energy  EATOM  =       103.06077658
  Solvation  Ediel_sol  =         0.00000000
  ---------------------------------------------------
  free energy    TOTEN  =        -4.05115141 eV

  energy without entropy =       -4.05115141  energy(sigma->0) =       -4.05115141


--------------------------------------------------------------------------------------------------------




--------------------------------------- Iteration      1(   2)  ---------------------------------------


     EDDAV:  cpu time    0.2141: real time    0.2154
 BZINTS: Fermi energy:  9.967627;  4.000000 electrons
         Band energy:  17.144199;  BLOECHL correction: -0.112987
       DOS:  cpu time    0.0072: real time    0.0072
    --------------------------------------------
      LOOP:  cpu time    0.2212: real time    0.2225

 eigenvalue-minimisations  :  2872
 total energy-change (2. order) :-0.8321227E+00  (-0.8144973E+00)
 number of electron       4.0000000 magnetization 
 augmentation part        4.0000000 magnetization 

 Free energy of the ion-electron system (eV)
  ---------------------------------------------------
  alpha Z        PSCENC =         2.26996938
  Ewald energy   TEWEN  =      -135.42777035
  -Hartree energ DENC   =        -0.65300110
  -exchange      EXHF   =         0.00000000
  -V(xc)+E(xc)   XCENC  =        -8.87078791
  PAW double counting   =        32.97760406      -15.38426339
  entropy T*S    EENTRO =         0.00000000
  eigenvalues    EBANDS =        17.14419864
  atomic energy  EATOM  =       103.06077658
  Solvation  Ediel_sol  =         0.00000000
  ---------------------------------------------------
  free energy    TOTEN  =        -4.88327411 eV

  energy without entropy =       -4.88327411  energy(sigma->0) =       -4.88327411


--------------------------------------------------------------------------------------------------------




--------------------------------------- Iteration      1(   3)  ---------------------------------------


     EDDAV:  cpu time    0.1622: real time    0.1623
 BZINTS: Fermi energy:  9.965558;  4.000000 electrons
         Band energy:  17.141479;  BLOECHL correction: -0.112945
       DOS:  cpu time    0.0072: real time    0.0072
    --------------------------------------------
      LOOP:  cpu time    0.1694: real time    0.1695

 eigenvalue-minimisations  :  2200
 total energy-change (2. order) :-0.2719306E-02  (-0.2729867E-02)
 number of electron       4.0000000 magnetization 
 augmentation part        4.0000000 magnetization 

 Free energy of the ion-electron system (eV)
  ---------------------------------------------------
  alpha Z        PSCENC =         2.26996938
  Ewald energy   TEWEN  =      -135.42777035
  -Hartree energ DENC   =        -0.65300110
  -exchange      EXHF   =         0.00000000
  -V(xc)+E(xc)   XCENC  =        -8.87078791
  PAW double counting   =        32.97760406      -15.38426339
  entropy T*S    EENTRO =         0.00000000
  eigenvalues    EBANDS =        17.14147933
  atomic energy  EATOM  =       103.06077658
  Solvation  Ediel_sol  =         0.00000000
  ---------------------------------------------------
  free energy    TOTEN  =        -4.88599341 eV

  energy without entropy =       -4.88599341  energy(sigma->0) =       -4.88599341


--------------------------------------------------------------------------------------------------------




--------------------------------------- Iteration      1(   4)  ---------------------------------------


     EDDAV:  cpu time    0.2360: real time    0.2361
 BZINTS: Fermi energy:  9.965557;  4.000000 electrons
         Band energy:  17.141478;  BLOECHL correction: -0.112945
       DOS:  cpu time    0.0071: real time    0.0071
    --------------------------------------------
      LOOP:  cpu time    0.2432: real time    0.2432

 eigenvalue-minimisations  :  3160
 total energy-change (2. order) :-0.1450216E-05  (-0.1441262E-05)
 number of electron       4.0000000 magnetization 
 augmentation part        4.0000000 magnetization 

 Free energy of the ion-electron system (eV)
  ---------------------------------------------------
  alpha Z        PSCENC =         2.26996938
  Ewald energy   TEWEN  =      -135.42777035
  -Hartree energ DENC   =        -0.65300110
  -exchange      EXHF   =         0.00000000
  -V(xc)+E(xc)   XCENC  =        -8.87078791
  PAW double counting   =        32.97760406      -15.38426339
  entropy T*S    EENTRO =         0.00000000
  eigenvalues    EBANDS =        17.14147788
  atomic energy  EATOM  =       103.06077658
  Solvation  Ediel_sol  =         0.00000000
  ---------------------------------------------------
  free energy    TOTEN  =        -4.88599486 eV

  energy without entropy =       -4.88599486  energy(sigma->0) =       -4.88599486


--------------------------------------------------------------------------------------------------------




--------------------------------------- Iteration      1(   5)  ---------------------------------------


     EDDAV:  cpu time    0.1342: real time    0.1343
 BZINTS: Fermi energy:  9.965557;  4.000000 electrons
         Band energy:  17.141478;  BLOECHL correction: -0.112945
       DOS:  cpu time    0.0064: real time    0.0064
    CHARGE:  cpu time    0.0020: real time    0.0020
    MIXING:  cpu time    0.0003: real time    0.0003
    --------------------------------------------
      LOOP:  cpu time    0.1428: real time    0.1429

 eigenvalue-minimisations  :  2040
 total energy-change (2. order) :-0.4743583E-09  (-0.8029602E-10)
 number of electron       4.0000010 magnetization 
 augmentation part       -0.2420926 magnetization 

 Broyden mixing:
  rms(total) = 0.76889E-01    rms(broyden)= 0.76875E-01
  rms(prec ) = 0.30522E+00
  weight for this iteration     100.00

 Free energy of the ion-electron system (eV)
  ---------------------------------------------------
  alpha Z        PSCENC =         2.26996938
  Ewald energy   TEWEN  =      -135.42777035
  -Hartree energ DENC   =        -0.65300110
  -exchange      EXHF   =         0.00000000
  -V(xc)+E(xc)   XCENC  =        -8.87078791
  PAW double counting   =        32.97760406      -15.38426339
  entropy T*S    EENTRO =         0.00000000
  eigenvalues    EBANDS =        17.14147788
  atomic energy  EATOM  =       103.06077658
  Solvation  Ediel_sol  =         0.00000000
  ---------------------------------------------------
  free energy    TOTEN  =        -4.88599486 eV

  energy without entropy =       -4.88599486  energy(sigma->0) =       -4.88599486


--------------------------------------------------------------------------------------------------------




--------------------------------------- Iteration      1(   6)  ---------------------------------------


    POTLOK:  cpu time    0.0009: real time    0.0010
    SETDIJ:  cpu time    0.0011: real time    0.0011
     EDDAV:  cpu time    0.1405: real time    0.1405
 BZINTS: Fermi energy:  9.941450;  4.000000 electrons
         Band energy:  17.054798;  BLOECHL correction: -0.112721
       DOS:  cpu time    0.0066: real time    0.0066
    CHARGE:  cpu time    0.0021: real time    0.0021
    MIXING:  cpu time    0.0003: real time    0.0003
    --------------------------------------------
      LOOP:  cpu time    0.1514: real time    0.1515

 eigenvalue-minimisations  :  2136
 total energy-change (2. order) : 0.1268637E-01  (-0.4000271E-03)
 number of electron       4.0000010 magnetization 
 augmentation part       -0.2443216 magnetization 

 Broyden mixing:
  rms(total) = 0.45950E-01    rms(broyden)= 0.45949E-01
  rms(prec ) = 0.18224E+00
  weight for this iteration     100.00

 eigenvalues of (default mixing * dielectric matrix)
  average eigenvalue GAMMA=   2.4757
  2.4757

 Free energy of the ion-electron system (eV)
  ---------------------------------------------------
  alpha Z        PSCENC =         2.26996938
  Ewald energy   TEWEN  =      -135.42777035
  -Hartree energ DENC   =        -0.57405773
  -exchange      EXHF   =         0.00000000
  -V(xc)+E(xc)   XCENC  =        -8.85170657
  PAW double counting   =        33.33957983      -15.74489714
  entropy T*S    EENTRO =         0.00000000
  eigenvalues    EBANDS =        17.05479750
  atomic energy  EATOM  =       103.06077658
  Solvation  Ediel_sol  =         0.00000000
  ---------------------------------------------------
  free energy    TOTEN  =        -4.87330850 eV

  energy without entropy =       -4.87330850  energy(sigma->0) =       -4.87330850


--------------------------------------------------------------------------------------------------------




--------------------------------------- Iteration      1(   7)  ---------------------------------------


    POTLOK:  cpu time    0.0015: real time    0.0016
    SETDIJ:  cpu time    0.0010: real time    0.0010
     EDDAV:  cpu time    0.1432: real time    0.1432
 BZINTS: Fermi energy:  9.910288;  4.000000 electrons
         Band energy:  16.944831;  BLOECHL correction: -0.112417
       DOS:  cpu time    0.0066: real time    0.0066
    CHARGE:  cpu time    0.0020: real time    0.0020
    MIXING:  cpu time    0.0002: real time    0.0002
    --------------------------------------------
      LOOP:  cpu time    0.1544: real time    0.1545

 eigenvalue-minimisations  :  2208
 total energy-change (2. order) : 0.7295288E-02  (-0.8858555E-03)
 number of electron       4.0000011 magnetization 
 augmentation part       -0.2476977 magnetization 

 Broyden mixing:
  rms(total) = 0.25469E-02    rms(broyden)= 0.25453E-02
  rms(prec ) = 0.79511E-02
  weight for this iteration     100.00

 eigenvalues of (default mixing * dielectric matrix)
  average eigenvalue GAMMA=   2.4899
  2.4899  2.4899

 Free energy of the ion-electron system (eV)
  ---------------------------------------------------
  alpha Z        PSCENC =         2.26996938
  Ewald energy   TEWEN  =      -135.42777035
  -Hartree energ DENC   =        -0.48681032
  -exchange      EXHF   =         0.00000000
  -V(xc)+E(xc)   XCENC  =        -8.81914017
  PAW double counting   =        33.92748687      -16.33535627
  entropy T*S    EENTRO =         0.00000000
  eigenvalues    EBANDS =        16.94483108
  atomic energy  EATOM  =       103.06077658
  Solvation  Ediel_sol  =         0.00000000
  ---------------------------------------------------
  free energy    TOTEN  =        -4.86601321 eV

  energy without entropy =       -4.86601321  energy(sigma->0) =       -4.86601321


--------------------------------------------------------------------------------------------------------




--------------------------------------- Iteration      1(   8)  ---------------------------------------


    POTLOK:  cpu time    0.0012: real time    0.0013
    SETDIJ:  cpu time    0.0010: real time    0.0010
     EDDAV:  cpu time    0.1558: real time    0.1558
 BZINTS: Fermi energy:  9.912856;  4.000000 electrons
         Band energy:  16.954564;  BLOECHL correction: -0.112438
       DOS:  cpu time    0.0064: real time    0.0064
    --------------------------------------------
      LOOP:  cpu time    0.1644: real time    0.1645

 eigenvalue-minimisations  :  2288
 total energy-change (2. order) : 0.7962816E-05  (-0.3028304E-05)
 number of electron       4.0000011 magnetization 
 augmentation part       -0.2476977 magnetization 

 Free energy of the ion-electron system (eV)
  ---------------------------------------------------
  alpha Z        PSCENC =         2.26996938
  Ewald energy   TEWEN  =      -135.42777035
  -Hartree energ DENC   =        -0.49220600
  -exchange      EXHF   =         0.00000000
  -V(xc)+E(xc)   XCENC  =        -8.81712355
  PAW double counting   =        34.03454129      -16.44875632
  entropy T*S    EENTRO =         0.00000000
  eigenvalues    EBANDS =        16.95456373
  atomic energy  EATOM  =       103.06077658
  Solvation  Ediel_sol  =         0.00000000
  ---------------------------------------------------
  free energy    TOTEN  =        -4.86600525 eV

  energy without entropy =       -4.86600525  energy(sigma->0) =       -4.86600525


--------------------------------------------------------------------------------------------------------




 average (electrostatic) potential at core
  the test charge radii are     0.9892
  (the norm of the test charge is              1.0000)
       1 -80.2383
 
 
 
 E-fermi :   9.9129     XC(G=0): -11.0960     alpha+bet :-16.1732


 k-point     1 :       0.0000    0.0000    0.0000
  band No.  band energies     occupation 
      1      -4.3780      2.00000
      2      20.6954      0.00000
      3      20.6956      0.00000
      4      20.6956      0.00000
      5      21.7715      0.00000
      6      21.7716      0.00000
      7      21.7716      0.00000
      8      26.9782      0.00000

 k-point     2 :       0.0667    0.0000    0.0000
  band No.  band energies     occupation 
      1      -4.2504      2.00000
      2      18.7122      0.00000
      3      20.1233      0.00000
      4      20.1235      0.00000
      5      22.5322      0.00000
      6      22.5323      0.00000
      7      22.6906      0.00000
      8      28.0213      0.00000

 k-point     3 :       0.1333    0.0000    0.0000
  band No.  band energies     occupation 
      1      -3.8690      2.00000
      2      15.9440      0.00000
      3      19.3917      0.00000
      4      19.3918      0.00000
      5      22.9496      0.00000
      6      23.5819      0.00000
      7      23.5822      0.00000
      8      26.9737      0.00000

 k-point     4 :       0.2000    0.0000    0.0000
  band No.  band energies     occupation 
      1      -3.2351      2.00000
      2      13.1568      0.00000
      3      18.8219      0.00000
      4      18.8221      0.00000
      5      22.8677      0.00000
      6      23.8278      0.00000
      7      23.8285      0.00000
      8      26.9196      0.00000

 k-point     5 :       0.2667    0.0000    0.0000
  band No.  band energies     occupation 
      1      -2.3513      2.00000
      2      10.4968      0.36573
      3      18.4396      0.00000
      4      18.4398      0.00000
      5      22.7655      0.00000
      6      22.9767      0.00000
      7      22.9774      0.00000
      8      28.1408      0.00000

 k-point     6 :       0.3333    0.0000    0.0000
  band No.  band energies     occupation 
      1      -1.2209      2.00000
      2       8.0156      2.08193
      3      18.2390      0.00000
      4      18.2392      0.00000
      5      22.0031      0.00000
      6      22.0037      0.00000
      7      22.7713      0.00000
      8      27.0086      0.00000

 k-point     7 :       0.4000    0.0000    0.0000
  band No.  band energies     occupation 
      1       0.1478      2.00000
      2       5.7374      2.00000
      3      18.1763      0.00000
      4      18.1764      0.00000
      5      21.2293      0.00000
      6      21.2298      0.00000
      7      22.8605      0.00000
      8      26.1161      0.00000

 k-point     8 :       0.4667    0.0000    0.0000
  band No.  band energies     occupation 
      1       1.7175      2.00000
      2       3.7104      2.00000
      3      18.1860      0.00000
      4      18.1861      0.00000
      5      20.7925      0.00000
      6      20.7930      0.00000
      7      22.9630      0.00000
      8      25.5949      0.00000

 k-point     9 :       0.0667    0.0667    0.0000
  band No.  band energies     occupation 
      1      -4.2079      2.00000
      2      19.1686      0.00000
      3      19.1687      0.00000
      4      20.2937      0.00000
      5      20.8896      0.00000
      6      23.5605      0.00000
      7      23.5605      0.00000
      8      26.8720      0.00000

 k-point    10 :       0.1333    0.0667    0.0000
  band No.  band energies     occupation 
      1      -3.9113      2.00000
      2      16.9339      0.00000
      3      18.3456      0.00000
      4      19.8403      0.00000
      5      21.2839      0.00000
      6      24.2500      0.00000
      7      24.6851      0.00000
      8      25.4025      0.00000

 k-point    11 :       0.2000    0.0667    0.0000
  band No.  band energies     occupation 
      1      -3.3616      2.00000
      2      14.1635      0.00000
      3      17.7179      0.00000
      4      19.2202      0.00000
      5      21.9749      0.00000
      6      24.0733      0.00000
      7      24.8846      0.00000
      8      25.3068      0.00000

 k-point    12 :       0.2667    0.0667    0.0000
  band No.  band energies     occupation 
      1      -2.5612      2.00000
      2      11.4647     -0.12428
      3      17.2973      0.00000
      4      18.6990      0.00000
      5      21.4850      0.00000
      6      23.8371      0.00000
      7      24.6857      0.00000
      8      25.8894      0.00000

 k-point    13 :       0.3333    0.0667    0.0000
  band No.  band energies     occupation 
      1      -1.5131      2.00000
      2       8.9241      1.92871
      3      17.0892      0.00000
      4      18.2492      0.00000
      5      20.6671      0.00000
      6      23.6746      0.00000
      7      23.8007      0.00000
      8      27.4504      0.00000

 k-point    14 :       0.4000    0.0667    0.0000
  band No.  band energies     occupation 
      1      -0.2226      2.00000
      2       6.5781      2.00000
      3      17.0875      0.00000
      4      17.7805      0.00000
      5      20.1460      0.00000
      6      22.7321      0.00000
      7      23.8305      0.00000
      8      27.3260      0.00000

 k-point    15 :       0.4667    0.0667    0.0000
  band No.  band energies     occupation 
      1       1.2907      2.00000
      2       4.4567      2.00000
      3      17.2672      0.00000
      4      17.2810      0.00000
      5      20.0894      0.00000
      6      21.9670      0.00000
      7      23.8448      0.00000
      8      26.8056      0.00000

 k-point    16 :      -0.4667    0.0667    0.0000
  band No.  band energies     occupation 
      1       2.3163      2.00000
      2       3.2782      2.00000
      3      16.8060      0.00000
      4      17.6470      0.00000
      5      20.4068      0.00000
      6      21.4583      0.00000
      7      23.7779      0.00000
      8      26.7200      0.00000

 k-point    17 :      -0.4000    0.0667    0.0000
  band No.  band energies     occupation 
      1       0.7642      2.00000
      2       5.1352      2.00000
      3      16.4843      0.00000
      4      18.1498      0.00000
      5      21.0399      0.00000
      6      21.2680      0.00000
      7      23.6435      0.00000
      8      27.0996      0.00000

 k-point    18 :      -0.3333    0.0667    0.0000
  band No.  band energies     occupation 
      1      -0.6794      2.00000
      2       7.3363      2.00000
      3      16.3461      0.00000
      4      18.7045      0.00000
      5      21.4325      0.00000
      6      21.9116      0.00000
      7      23.5086      0.00000
      8      27.8132      0.00000

 k-point    19 :      -0.2667    0.0667    0.0000
  band No.  band energies     occupation 
      1      -1.8899      2.00000
      2       9.7503      1.12930
      3      16.4149      0.00000
      4      19.2470      0.00000
      5      21.9861      0.00000
      6      22.9717      0.00000
      7      23.4521      0.00000
      8      27.5268      0.00000

 k-point    20 :      -0.2000    0.0667    0.0000
  band No.  band energies     occupation 
      1      -2.8557      2.00000
      2      12.3488     -0.00468
      3      16.6928      0.00000
      4      19.7888      0.00000
      5      22.7653      0.00000
      6      23.4651      0.00000
      7      24.1131      0.00000
      8      25.8922      0.00000

 k-point    21 :      -0.1333    0.0667    0.0000
  band No.  band energies     occupation 
      1      -3.5728      2.00000
      2      15.0900      0.00000
      3      17.1842      0.00000
      4      20.3666      0.00000
      5      22.8582      0.00000
      6      23.4241      0.00000
      7      24.7019      0.00000
      8      25.5332      0.00000

 k-point    22 :      -0.0667    0.0667    0.0000
  band No.  band energies     occupation 
      1      -4.0384      2.00000
      2      17.7680      0.00000
      3      17.9534      0.00000
      4      20.7675      0.00000
      5      22.1260      0.00000
      6      23.0713      0.00000
      7      24.0193      0.00000
      8      26.6473      0.00000

 k-point    23 :       0.1333    0.1333    0.0000
  band No.  band energies     occupation 
      1      -3.6995      2.00000
      2      17.4498      0.00000
      3      17.4499      0.00000
      4      19.2236      0.00000
      5      19.2542      0.00000
      6      23.6081      0.00000
      7      25.8964      0.00000
      8      25.8964      0.00000

 k-point    24 :       0.2000    0.1333    0.0000
  band No.  band energies     occupation 
      1      -3.2347      2.00000
      2      15.3120      0.00000
      3      16.7513      0.00000
      4      18.4999      0.00000
      5      19.6781      0.00000
      6      22.2536      0.00000
      7      26.6039      0.00000
      8      26.8498      0.00000

 k-point    25 :       0.2667    0.1333    0.0000
  band No.  band energies     occupation 
      1      -2.5187      2.00000
      2      12.6342      0.00000
      3      16.2664      0.00000
      4      17.7619      0.00000
      5      19.6581      0.00000
      6      22.5280      0.00000
      7      26.6238      0.00000
      8      26.7550      0.00000

 k-point    26 :       0.3333    0.1333    0.0000
  band No.  band energies     occupation 
      1      -1.5539      2.00000
      2      10.0551      0.80951
      3      15.9992      0.00000
      4      16.9516      0.00000
      5      19.0902      0.00000
      6      23.9594      0.00000
      7      25.6819      0.00000
      8      26.9499      0.00000

 k-point    27 :       0.4000    0.1333    0.0000
  band No.  band energies     occupation 
      1      -0.3453      2.00000
      2       7.6508      2.00730
      3      15.9446      0.00000
      4      16.0785      0.00000
      5      18.8154      0.00000
      6      24.6949      0.00000
      7      25.1600      0.00000
      8      27.6946      0.00000

 k-point    28 :       0.4667    0.1333    0.0000
  band No.  band energies     occupation 
      1       1.0961      2.00000
      2       5.4554      2.00000
      3      15.2703      0.00000
      4      16.1091      0.00000
      5      18.9008      0.00000
      6      23.8655      0.00000
      7      25.5487      0.00000
      8      29.1643      0.00000

 k-point    29 :      -0.4667    0.1333    0.0000
  band No.  band energies     occupation 
      1       2.6494      2.00000
      2       3.5984      2.00000
      3      14.6144      0.00000
      4      16.4827      0.00000
      5      19.2790      0.00000
      6      23.2342      0.00000
      7      25.4694      0.00000
      8      29.2749      0.00000

 k-point    30 :      -0.4000    0.1333    0.0000
  band No.  band energies     occupation 
      1       1.6215      2.00000
      2       4.7775      2.00000
      3      14.1530      0.00000
      4      17.0534      0.00000
      5      19.9098      0.00000
      6      22.8068      0.00000
      7      25.2464      0.00000
      8      29.5658      0.00000

 k-point    31 :      -0.3333    0.1333    0.0000
  band No.  band energies     occupation 
      1       0.1102      2.00000
      2       6.8928      2.00000
      3      13.9059      0.00000
      4      17.8038      0.00000
      5      20.7716      0.00000
      6      22.6457      0.00000
      7      25.0220      0.00000
      8      29.1905      0.00000

 k-point    32 :      -0.2667    0.1333    0.0000
  band No.  band energies     occupation 
      1      -1.1781      2.00000
      2       9.2284      1.68358
      3      13.8814      0.00000
      4      18.6951      0.00000
      5      21.8573      0.00000
      6      22.7660      0.00000
      7      24.8218      0.00000
      8      27.0107      0.00000

 k-point    33 :      -0.2000    0.1333    0.0000
  band No.  band energies     occupation 
      1      -2.2249      2.00000
      2      11.7416     -0.09001
      3      14.0936      0.00000
      4      19.6414      0.00000
      5      23.0938      0.00000
      6      23.1337      0.00000
      7      24.6012      0.00000
      8      25.1681      0.00000

 k-point    34 :      -0.1333    0.1333    0.0000
  band No.  band energies     occupation 
      1      -3.0241      2.00000
      2      14.1908      0.00000
      3      14.7357      0.00000
      4      20.4261      0.00000
      5      23.1075      0.00000
      6      24.1593      0.00000
      7      24.2890      0.00000
      8      24.4692      0.00000

 k-point    35 :       0.2000    0.2000    0.0000
  band No.  band energies     occupation 
      1      -2.8550      2.00000
      2      15.9826      0.00000
      3      15.9827      0.00000
      4      17.5060      0.00000
      5      17.6970      0.00000
      6      20.5775      0.00000
      7      28.2892      0.00000
      8      28.2892      0.00000

 k-point    36 :       0.2667    0.2000    0.0000
  band No.  band energies     occupation 
      1      -2.2240      2.00000
      2      13.9376      0.00000
      3      15.4270      0.00000
      4      16.4455      0.00000
      5      17.9167      0.00000
      6      20.0893      0.00000
      7      28.6657      0.00000
      8      29.0135      0.00000

 k-point    37 :       0.3333    0.2000    0.0000
  band No.  band energies     occupation 
      1      -1.3438      2.00000
      2      11.3856     -0.12081
      3      15.0862      0.00000
      4      15.2698      0.00000
      5      17.8080      0.00000
      6      21.3076      0.00000
      7      27.8860      0.00000
      8      29.1809      0.00000

 k-point    38 :       0.4000    0.2000    0.0000
  band No.  band energies     occupation 
      1      -0.2183      2.00000
      2       8.9449      1.92327
      3      14.1411      0.00000
      4      14.9697      0.00000
      5      17.6796      0.00000
      6      23.1878      0.00000
      7      26.9292      0.00000
      8      29.1487      0.00000

 k-point    39 :       0.4667    0.2000    0.0000
  band No.  band energies     occupation 
      1       1.1437      2.00000
      2       6.6893      2.00000
      3      13.1610      0.00000
      4      15.0716      0.00000
      5      17.7690      0.00000
      6      25.1597      0.00000
      7      26.0384      0.00000
      8      29.0193      0.00000

 k-point    40 :      -0.4667    0.2000    0.0000
  band No.  band energies     occupation 
      1       2.7091      2.00000
      2       4.6734      2.00000
      3      12.3788     -0.01230
      4      15.3912      0.00000
      5      18.1154      0.00000
      6      25.3381      0.00000
      7      26.6712      0.00000
      8      29.3486      0.00000

 k-point    41 :      -0.4000    0.2000    0.0000
  band No.  band energies     occupation 
      1       2.7084      2.00000
      2       4.6724      2.00000
      3      11.8135     -0.08185
      4      15.9234      0.00000
      5      18.7030      0.00000
      6      24.8378      0.00000
      7      26.9781      0.00000
      8      30.5381      0.00000

 k-point    42 :      -0.3333    0.2000    0.0000
  band No.  band energies     occupation 
      1       1.1427      2.00000
      2       6.6833      2.00000
      3      11.4790     -0.10686
      4      16.6595      0.00000
      5      19.5206      0.00000
      6      24.5583      0.00000
      7      26.7424      0.00000
      8      29.0125      0.00000

 k-point    43 :      -0.2667    0.2000    0.0000
  band No.  band energies     occupation 
      1      -0.2196      2.00000
      2       8.9180      2.04602
      3      11.3932     -0.03828
      4      17.5781      0.00000
      5      20.5581      0.00000
      6      24.4913      0.00000
      7      26.3186      0.00000
      8      26.7546      0.00000

 k-point    44 :      -0.2000    0.2000    0.0000
  band No.  band energies     occupation 
      1      -1.3449      2.00000
      2      11.0678     -0.13340
      3      11.8160      0.00000
      4      18.6316      0.00000
      5      21.7733      0.00000
      6      24.6588      0.00000
      7      24.7713      0.00000
      8      25.6409      0.00000

 k-point    45 :       0.2667    0.2667    0.0000
  band No.  band energies     occupation 
      1      -1.6776      2.00000
      2      14.7958      0.00000
      3      14.7959      0.00000
      4      14.8945      0.00000
      5      16.3777      0.00000
      6      18.6864      0.00000
      7      30.5977      0.00000
      8      30.5980      0.00000

 k-point    46 :       0.3333    0.2667    0.0000
  band No.  band energies     occupation 
      1      -0.8832      2.00000
      2      12.7935      0.00000
      3      13.6089      0.00000
      4      14.3863      0.00000
      5      16.6560      0.00000
      6      18.8392      0.00000
      7      30.1822      0.00000
      8      31.2831      0.00000

 k-point    47 :       0.4000    0.2667    0.0000
  band No.  band energies     occupation 
      1       0.1568      2.00000
      2      10.4186      0.41883
      3      12.2873      0.00000
      4      14.1979      0.00000
      5      16.7292      0.00000
      6      20.4279      0.00000
      7      29.3023      0.00000
      8      31.3184      0.00000

 k-point    48 :       0.4667    0.2667    0.0000
  band No.  band energies     occupation 
      1       1.4363      2.00000
      2       8.1362      2.08993
      3      11.1718     -0.08396
      4      14.2304      0.00000
      5      16.8211      0.00000
      6      22.5300      0.00000
      7      28.4150      0.00000
      8      30.9647      0.00000

 k-point    49 :      -0.4667    0.2667    0.0000
  band No.  band energies     occupation 
      1       2.9380      2.00000
      2       6.0474      2.00000
      3      10.2798      0.54072
      4      14.4837      0.00000
      5      17.1166      0.00000
      6      24.8370      0.00000
      7      27.6611      0.00000
      8      30.4138      0.00000

 k-point    50 :      -0.4000    0.2667    0.0000
  band No.  band energies     occupation 
      1       3.9712      2.00000
      2       4.8619      2.00000
      3       9.6229      1.28054
      4      14.9550      0.00000
      5      17.6463      0.00000
      6      27.0822      0.00000
      7      27.0928      0.00000
      8      29.8281      0.00000

 k-point    51 :      -0.3333    0.2667    0.0000
  band No.  band energies     occupation 
      1       2.4126      2.00000
      2       6.6922      2.00000
      3       9.2218      1.70505
      4      15.6385      0.00000
      5      18.4060      0.00000
      6      26.7001      0.00000
      7      28.3661      0.00000
      8      29.0917      0.00000

 k-point    52 :      -0.2667    0.2667    0.0000
  band No.  band energies     occupation 
      1       0.9804      2.00000
      2       8.5312      2.00000
      3       9.3644      1.24774
      4      16.5235      0.00000
      5      19.3856      0.00000
      6      26.3074      0.00000
      7      27.0243      0.00000
      8      27.6445      0.00000

 k-point    53 :       0.3333    0.3333    0.0000
  band No.  band energies     occupation 
      1      -0.1747      2.00000
      2      11.8872     -0.06584
      3      13.9038      0.00000
      4      13.9039      0.00000
      5      15.3843      0.00000
      6      17.5838      0.00000
      7      32.2022      0.00000
      8      32.7116      0.00000

 k-point    54 :       0.4000    0.3333    0.0000
  band No.  band energies     occupation 
      1       0.7790      2.00000
      2      10.4562      0.38213
      3      12.1658      0.00000
      4      13.6424      0.00000
      5      15.8139      0.00000
      6      18.0295      0.00000
      7      31.6906      0.00000
      8      33.2818      0.00000

 k-point    55 :       0.4667    0.3333    0.0000
  band No.  band energies     occupation 
      1       1.9724      2.00000
      2       9.1549      2.01998
      3       9.9942      0.48625
      4      13.6030      0.00000
      5      16.0538      0.00000
      6      19.8408      0.00000
      7      30.8870      0.00000
      8      33.0862      0.00000

 k-point    56 :      -0.4667    0.3333    0.0000
  band No.  band energies     occupation 
      1       3.3926      2.00000
      2       7.5469      2.00000
      3       8.4814      2.15734
      4      13.7852      0.00000
      5      16.3234      0.00000
      6      22.1255      0.00000
      7      30.1040      0.00000
      8      32.4008      0.00000

 k-point    57 :      -0.4000    0.3333    0.0000
  band No.  band energies     occupation 
      1       4.9451      2.00000
      2       5.7538      2.00000
      3       7.6817      2.02261
      4      14.1885      0.00000
      5      16.7943      0.00000
      6      24.6354      0.00000
      7      29.4495      0.00000
      8      31.4276      0.00000

 k-point    58 :      -0.3333    0.3333    0.0000
  band No.  band energies     occupation 
      1       3.9051      2.00000
      2       6.6168      2.00000
      3       7.4926      2.00000
      4      14.8088      0.00000
      5      17.4892      0.00000
      6      27.1478      0.00000
      7      28.6499      0.00000
      8      29.8072      0.00000

 k-point    59 :       0.4000    0.4000    0.0000
  band No.  band energies     occupation 
      1       1.6457      2.00000
      2       8.9632      1.90310
      3      13.3079      0.00000
      4      13.3080      0.00000
      5      14.7181      0.00000
      6      16.9177      0.00000
      7      33.4839      0.00000
      8      34.6629      0.00000

 k-point    60 :       0.4667    0.4000    0.0000
  band No.  band energies     occupation 
      1       2.7484      2.00000
      2       7.6610      2.02966
      3      11.6775     -0.14634
      4      13.1951      0.00000
      5      15.3179      0.00000
      6      17.5599      0.00000
      7      33.2135      0.00000
      8      34.9620      0.00000

 k-point    61 :      -0.4667    0.4000    0.0000
  band No.  band energies     occupation 
      1       4.0691      2.00000
      2       6.5936      2.00000
      3       9.5723      1.46655
      4      13.3051      0.00000
      5      15.7213      0.00000
      6      19.5442      0.00000
      7      32.4973      0.00000
      8      34.3145      0.00000

 k-point    62 :      -0.4000    0.4000    0.0000
  band No.  band energies     occupation 
      1       5.3363      2.00000
      2       5.9843      2.00000
      3       7.6565      2.00000
      4      13.6368      0.00000
      5      16.1634      0.00000
      6      21.9992      0.00000
      7      31.4458      0.00000
      8      32.9390      0.00000

 k-point    63 :       0.4667    0.4667    0.0000
  band No.  band energies     occupation 
      1       3.7481      2.00000
      2       6.2916      2.00000
      3      13.0089      0.00000
      4      13.0090      0.00000
      5      14.3823      0.00000
      6      16.5935      0.00000
      7      34.4483      0.00000
      8      36.0157      0.00000

 k-point    64 :      -0.4667    0.4667    0.0000
  band No.  band energies     occupation 
      1       4.6953      2.00000
      2       5.4307      2.00000
      3      11.5184     -0.14111
      4      13.0456      0.00000
      5      15.1527      0.00000
      6      17.4061      0.00000
      7      34.0920      0.00000
      8      35.7137      0.00000

 k-point    65 :       0.2000    0.1333    0.0667
  band No.  band energies     occupation 
      1      -3.5305      2.00000
      2      16.0042      0.00000
      3      16.3365      0.00000
      4      20.0721      0.00000
      5      20.9487      0.00000
      6      23.9108      0.00000
      7      25.1562      0.00000
      8      25.5125      0.00000

 k-point    66 :       0.2667    0.1333    0.0667
  band No.  band energies     occupation 
      1      -2.8976      2.00000
      2      13.4256      0.00000
      3      15.6385      0.00000
      4      19.4751      0.00000
      5      21.3719      0.00000
      6      23.3905      0.00000
      7      25.3999      0.00000
      8      25.6020      0.00000

 k-point    67 :       0.3333    0.1333    0.0667
  band No.  band energies     occupation 
      1      -2.0150      2.00000
      2      10.7957      0.09628
      3      15.2808      0.00000
      4      18.6375      0.00000
      5      20.9442      0.00000
      6      23.8993      0.00000
      7      24.8565      0.00000
      8      26.0286      0.00000

 k-point    68 :       0.4000    0.1333    0.0667
  band No.  band energies     occupation 
      1      -0.8864      2.00000
      2       8.3261      2.14560
      3      15.1486      0.00000
      4      17.7433      0.00000
      5      20.6077      0.00000
      6      23.2018      0.00000
      7      25.0467      0.00000
      8      27.4287      0.00000

 k-point    69 :       0.4667    0.1333    0.0667
  band No.  band energies     occupation 
      1       0.4804      2.00000
      2       6.0557      2.00000
      3      15.2231      0.00000
      4      16.9189      0.00000
      5      20.5412      0.00000
      6      22.3520      0.00000
      7      25.2012      0.00000
      8      28.7921      0.00000

 k-point    70 :      -0.4667    0.1333    0.0667
  band No.  band energies     occupation 
      1       2.0487      2.00000
      2       4.0323      2.00000
      3      15.4431      0.00000
      4      16.3054      0.00000
      5      20.6460      0.00000
      6      21.7782      0.00000
      7      25.2867      0.00000
      8      28.5308      0.00000

 k-point    71 :       0.2667    0.2000    0.0667
  band No.  band energies     occupation 
      1      -2.6867      2.00000
      2      14.4706      0.00000
      3      14.8832      0.00000
      4      18.1550      0.00000
      5      19.4856      0.00000
      6      21.3101      0.00000
      7      27.1043      0.00000
      8      27.7243      0.00000

 k-point    72 :       0.3333    0.2000    0.0667
  band No.  band energies     occupation 
      1      -1.8885      2.00000
      2      12.0338     -0.03572
      3      14.2898      0.00000
      4      17.0558      0.00000
      5      19.6908      0.00000
      6      21.9363      0.00000
      7      26.3999      0.00000
      8      28.1812      0.00000

 k-point    73 :       0.4000    0.2000    0.0667
  band No.  band energies     occupation 
      1      -0.8433      2.00000
      2       9.5358      1.37654
      3      14.0644      0.00000
      4      15.9164      0.00000
      5      19.5292      0.00000
      6      23.5485      0.00000
      7      25.5109      0.00000
      8      28.3442      0.00000

 k-point    74 :       0.4667    0.2000    0.0667
  band No.  band energies     occupation 
      1       0.4426      2.00000
      2       7.2084      2.00000
      3      14.0044      0.00000
      4      14.9727      0.00000
      5      19.5366      0.00000
      6      24.1315      0.00000
      7      25.8171      0.00000
      8      28.5693      0.00000

 k-point    75 :      -0.4667    0.2000    0.0667
  band No.  band energies     occupation 
      1       1.9524      2.00000
      2       5.0981      2.00000
      3      13.7547      0.00000
      4      14.6352      0.00000
      5      19.7714      0.00000
      6      23.4956      0.00000
      7      26.9337      0.00000
      8      29.3898      0.00000

 k-point    76 :      -0.4000    0.2000    0.0667
  band No.  band energies     occupation 
      1       2.9815      2.00000
      2       3.9175      2.00000
      3      13.2343      0.00000
      4      14.9976      0.00000
      5      20.2199      0.00000
      6      22.9443      0.00000
      7      27.1249      0.00000
      8      30.5115      0.00000

 k-point    77 :      -0.3333    0.2000    0.0667
  band No.  band energies     occupation 
      1       1.4265      2.00000
      2       5.7728      2.00000
      3      12.8504      0.00000
      4      15.6633      0.00000
      5      20.8478      0.00000
      6      22.6381      0.00000
      7      26.8731      0.00000
      8      29.3439      0.00000

 k-point    78 :      -0.2667    0.2000    0.0667
  band No.  band energies     occupation 
      1      -0.0128      2.00000
      2       7.9575      2.05257
      3      12.6791      0.00000
      4      16.5464      0.00000
      5      21.5411      0.00000
      6      22.6642      0.00000
      7      26.0820      0.00000
      8      27.8116      0.00000

 k-point    79 :      -0.2000    0.2000    0.0667
  band No.  band energies     occupation 
      1      -1.2193      2.00000
      2      10.3349      0.52915
      3      12.7467      0.00000
      4      17.6066      0.00000
      5      22.0692      0.00000
      6      23.0993      0.00000
      7      24.6977      0.00000
      8      27.1465      0.00000

 k-point    80 :      -0.1333    0.2000    0.0667
  band No.  band energies     occupation 
      1      -2.1825      2.00000
      2      12.6370      0.00000
      3      13.2817      0.00000
      4      18.7435      0.00000
      5      22.1686      0.00000
      6      22.8214      0.00000
      7      24.6795      0.00000
      8      26.5384      0.00000

 k-point    81 :       0.3333    0.2667    0.0667
  band No.  band energies     occupation 
      1      -1.5106      2.00000
      2      13.2340      0.00000
      3      13.6370      0.00000
      4      15.3356      0.00000
      5      18.2516      0.00000
      6      19.7632      0.00000
      7      28.5065      0.00000
      8      30.2678      0.00000

 k-point    82 :       0.4000    0.2667    0.0667
  band No.  band energies     occupation 
      1      -0.5502      2.00000
      2      10.9312      0.02579
      3      13.1170      0.00000
      4      14.1146      0.00000
      5      18.5450      0.00000
      6      20.9232      0.00000
      7      27.6535      0.00000
      8      30.7220      0.00000

 k-point    83 :       0.4667    0.2667    0.0667
  band No.  band energies     occupation 
      1       0.6524      2.00000
      2       8.5782      2.09989
      3      12.5718     -0.00118
      4      13.4459      0.00000
      5      18.5845      0.00000
      6      22.8786      0.00000
      7      26.7569      0.00000
      8      30.6577      0.00000

 k-point    84 :      -0.4667    0.2667    0.0667
  band No.  band energies     occupation 
      1       2.0866      2.00000
      2       6.4062      2.00000
      3      11.7363     -0.08912
      4      13.5081      0.00000
      5      18.7858      0.00000
      6      24.8222      0.00000
      7      26.1878      0.00000
      8      30.3122      0.00000

 k-point    85 :      -0.4000    0.2667    0.0667
  band No.  band energies     occupation 
      1       3.6425      2.00000
      2       4.5517      2.00000
      3      11.0328     -0.02712
      4      13.8927      0.00000
      5      19.2078      0.00000
      6      25.0026      0.00000
      7      27.5300      0.00000
      8      29.7053      0.00000

 k-point    86 :      -0.3333    0.2667    0.0667
  band No.  band energies     occupation 
      1       2.6093      2.00000
      2       5.7287      2.00000
      3      10.5455      0.26405
      4      14.5181      0.00000
      5      19.8415      0.00000
      6      24.6186      0.00000
      7      28.2438      0.00000
      8      29.1652      0.00000

 k-point    87 :      -0.2667    0.2667    0.0667
  band No.  band energies     occupation 
      1       1.1039      2.00000
      2       7.8055      2.00000
      3      10.3069      0.29367
      4      15.3659      0.00000
      5      20.6789      0.00000
      6      24.3743      0.00000
      7      26.4088      0.00000
      8      29.1233      0.00000

 k-point    88 :      -0.2000    0.2667    0.0667
  band No.  band energies     occupation 
      1      -0.1775      2.00000
      2       9.8025      1.56906
      3      10.5929     -0.00898
      4      16.4141      0.00000
      5      21.6731      0.00000
      6      24.0299      0.00000
      7      24.7290      0.00000
      8      28.3603      0.00000

 k-point    89 :       0.4000    0.3333    0.0667
  band No.  band energies     occupation 
      1      -0.0091      2.00000
      2      11.9097     -0.10062
      3      12.2987      0.00000
      4      13.0713      0.00000
      5      17.2951      0.00000
      6      18.7858      0.00000
      7      29.9517      0.00000
      8      32.5570      0.00000

 k-point    90 :       0.4667    0.3333    0.0667
  band No.  band energies     occupation 
      1       1.1086      2.00000
      2      10.0585      1.11226
      3      10.8948     -0.12428
      4      12.6183      0.00000
      5      17.7431      0.00000
      6      20.2006      0.00000
      7      29.1243      0.00000
      8      32.8412      0.00000

 k-point    91 :      -0.4667    0.3333    0.0667
  band No.  band energies     occupation 
      1       2.4603      2.00000
      2       7.9107      2.00323
      3       9.8214      1.00921
      4      12.6833      0.00000
      5      17.9544      0.00000
      6      22.3596      0.00000
      7      28.3102      0.00000
      8      32.2445      0.00000

 k-point    92 :      -0.4000    0.3333    0.0667
  band No.  band energies     occupation 
      1       4.0154      2.00000
      2       5.9289      2.00000
      3       8.9987      1.90799
      4      13.0114      0.00000
      5      18.3325      0.00000
      6      24.7354      0.00000
      7      27.6806      0.00000
      8      30.9532      0.00000

 k-point    93 :      -0.3333    0.3333    0.0667
  band No.  band energies     occupation 
      1       4.0145      2.00000
      2       5.9100      2.00000
      3       8.4353      2.11344
      4      13.5755      0.00000
      5      18.9200      0.00000
      6      26.5759      0.00000
      7      27.7020      0.00000
      8      28.9924      0.00000

 k-point    94 :      -0.2667    0.3333    0.0667
  band No.  band energies     occupation 
      1       2.4560      2.00000
      2       7.5750      2.00000
      3       8.4206      2.25243
      4      14.3638      0.00000
      5      19.7103      0.00000
      6      26.4906      0.00000
      7      26.6187      0.00000
      8      29.6861      0.00000

 k-point    95 :       0.4667    0.4000    0.0667
  band No.  band energies     occupation 
      1       1.8090      2.00000
      2       9.1021      1.92314
      3      11.6734     -0.11293
      4      12.3255      0.00000
      5      16.6600      0.00000
      6      18.1665      0.00000
      7      31.5328      0.00000
      8      34.5795      0.00000

 k-point    96 :      -0.4667    0.4000    0.0667
  band No.  band energies     occupation 
      1       3.0723      2.00000
      2       7.9424      2.00435
      3       9.7573      1.30635
      4      12.1140      0.00000
      5      17.2659      0.00000
      6      19.7604      0.00000
      7      30.7986      0.00000
      8      33.7754      0.00000

 k-point    97 :      -0.4000    0.4000    0.0667
  band No.  band energies     occupation 
      1       4.5446      2.00000
      2       6.9345      2.00000
      3       7.8366      2.00000
      4      12.3604      0.00000
      5      17.6439      0.00000
      6      22.0972      0.00000
      7      30.0885      0.00000
      8      31.8538      0.00000

 k-point    98 :      -0.3333    0.4000    0.0667
  band No.  band energies     occupation 
      1       5.5694      2.00000
      2       5.9767      2.00000
      3       6.9567      2.00000
      4      12.8527      0.00000
      5      18.1814      0.00000
      6      24.6477      0.00000
      7      29.4949      0.00000
      8      29.5167      0.00000

 k-point    99 :      -0.4667    0.4667    0.0667
  band No.  band energies     occupation 
      1       3.9091      2.00000
      2       6.4462      2.00000
      3      11.3595     -0.30614
      4      12.0015      0.00000
      5      16.3418      0.00000
      6      17.8636      0.00000
      7      33.1277      0.00000
      8      34.7052      0.00000

 k-point   100 :      -0.4000    0.4667    0.0667
  band No.  band energies     occupation 
      1       5.0157      2.00000
      2       5.7374      2.00000
      3       9.5791      1.61266
      4      11.9541      0.00000
      5      17.1095      0.00000
      6      19.6178      0.00000
      7      32.3426      0.00000
      8      32.8034      0.00000

 k-point   101 :       0.4000    0.2667    0.1333
  band No.  band energies     occupation 
      1      -1.0097      2.00000
      2      11.3812     -0.23568
      3      12.0620      0.00000
      4      15.8008      0.00000
      5      21.0064      0.00000
      6      21.8208      0.00000
      7      25.5214      0.00000
      8      29.4108      0.00000

 k-point   102 :       0.4667    0.2667    0.1333
  band No.  band energies     occupation 
      1       0.1135      2.00000
      2       9.2274      1.86186
      3      11.6552     -0.01374
      4      14.6085      0.00000
      5      21.2292      0.00000
      6      23.1216      0.00000
      7      24.8036      0.00000
      8      29.9637      0.00000

 k-point   103 :      -0.4667    0.2667    0.1333
  band No.  band energies     occupation 
      1       1.4734      2.00000
      2       6.9989      2.00000
      3      11.7186     -0.09076
      4      13.6228      0.00000
      5      21.2910      0.00000
      6      23.2475      0.00000
      7      25.9557      0.00000
      8      30.0546      0.00000

 k-point   104 :      -0.4000    0.2667    0.1333
  band No.  band energies     occupation 
      1       3.0374      2.00000
      2       4.9913      2.00000
      3      11.9461     -0.07026
      4      12.9346      0.00000
      5      21.4219      0.00000
      6      22.7875      0.00000
      7      27.9447      0.00000
      8      29.5220      0.00000

 k-point   105 :       0.4667    0.3333    0.1333
  band No.  band energies     occupation 
      1       0.4878      2.00000
      2      10.4334      0.68256
      3      11.0521     -0.00502
      4      12.7836      0.00000
      5      20.0827      0.00000
      6      21.0477      0.00000
      7      26.7719      0.00000
      8      32.1078      0.00000

 k-point   106 :      -0.4667    0.3333    0.1333
  band No.  band energies     occupation 
      1       1.7647      2.00000
      2       8.4233      2.06119
      3      10.7231      0.02344
      4      11.7548      0.00000
      5      20.5255      0.00000
      6      22.7412      0.00000
      7      25.9565      0.00000
      8      32.1664      0.00000

 k-point   107 :      -0.4000    0.3333    0.1333
  band No.  band energies     occupation 
      1       3.2645      2.00000
      2       6.3585      2.00000
      3      10.4173      0.53624
      4      11.4109     -0.00000
      5      20.8200      0.00000
      6      24.3491      0.00000
      7      25.9070      0.00000
      8      30.6553      0.00000

 k-point   108 :      -0.3333    0.3333    0.1333
  band No.  band energies     occupation 
      1       4.2994      2.00000
      2       5.1762      2.00000
      3       9.8771      1.13505
      4      11.7883     -0.00066
      5      21.2672      0.00000
      6      24.2199      0.00000
      7      27.5446      0.00000
      8      28.7822      0.00000

 k-point   109 :      -0.2667    0.3333    0.1333
  band No.  band energies     occupation 
      1       2.7410      2.00000
      2       7.0071      2.00000
      3       9.5031      1.47885
      4      12.4921     -0.00000
      5      21.8667      0.00000
      6      23.8692      0.00000
      7      26.0239      0.00000
      8      30.2261      0.00000

 k-point   110 :      -0.2000    0.3333    0.1333
  band No.  band energies     occupation 
      1       1.3117      2.00000
      2       8.8497      2.00878
      3       9.6409      0.81043
      4      13.4418      0.00000
      5      22.4585      0.00000
      6      23.1714      0.00000
      7      24.5710      0.00000
      8      31.4335      0.00000

 k-point   111 :      -0.4667    0.4000    0.1333
  band No.  band energies     occupation 
      1       2.2991      2.00000
      2       9.4323      1.99060
      3       9.8003      1.07173
      4      10.8377      0.00000
      5      19.4649      0.00000
      6      20.5130      0.00000
      7      28.3445      0.00000
      8      33.3864      0.00000

 k-point   112 :      -0.4000    0.4000    0.1333
  band No.  band energies     occupation 
      1       3.7166      2.00000
      2       7.8542      2.00000
      3       8.7034      2.09364
      4      10.5889     -0.00802
      5      20.0815      0.00000
      6      22.4068      0.00000
      7      27.5861      0.00000
      8      31.3748      0.00000

 k-point   113 :      -0.3333    0.4000    0.1333
  band No.  band energies     occupation 
      1       5.2696      2.00000
      2       6.0644      2.00000
      3       7.9625      2.04003
      4      10.9527     -0.07818
      5      20.5378      0.00000
      6      24.7212      0.00000
      7      26.9923      0.00000
      8      29.0468      0.00000

 k-point   114 :      -0.2667    0.4000    0.1333
  band No.  band energies     occupation 
      1       4.2298      2.00000
      2       6.9365      2.00000
      3       7.7788      2.00000
      4      11.5990     -0.09131
      5      21.1506      0.00000
      6      25.9571      0.00000
      7      26.0720      0.00000
      8      28.3701      0.00000

 k-point   115 :      -0.4000    0.4667    0.1333
  band No.  band energies     occupation 
      1       4.3899      2.00000
      2       6.8975      2.00000
      3       9.4822      1.94288
      4      10.3932      0.01842
      5      19.1423      0.00000
      6      20.2425      0.00000
      7      30.1295      0.00000
      8      31.9843      0.00000

 k-point   116 :      -0.3333    0.4667    0.1333
  band No.  band energies     occupation 
      1       5.6564      2.00000
      2       6.2981      2.00000
      3       7.9105      2.00000
      4      10.3941      0.15363
      5      19.9363      0.00000
      6      22.2854      0.00000
      7      29.2191      0.00000
      8      29.7331      0.00000

 k-point   117 :      -0.4000    0.4000    0.2000
  band No.  band energies     occupation 
      1       3.1105      2.00000
      2       8.2128      2.00000
      3       8.9126      2.10531
      4      10.6328     -0.03702
      5      22.5821      0.00000
      6      22.8368      0.00000
      7      25.2996      0.00000
      8      30.8648      0.00000

 k-point   118 :      -0.3333    0.4000    0.2000
  band No.  band energies     occupation 
      1       4.6615      2.00000
      2       6.5315      2.00000
      3       8.8583      2.07482
      4       9.9090      0.54263
      5      22.8423      0.00000
      6      24.0303      0.00000
      7      25.7292      0.00000
      8      28.6284      0.00000

 k-point   119 :      -0.3333    0.4667    0.2000
  band No.  band energies     occupation 
      1       5.1819      2.00000
      2       7.5370      2.00000
      3       7.8946      2.00000
      4       9.0519      1.91353
      5      22.2955      0.00000
      6      22.8148      0.00000
      7      26.8447      0.00000
      8      29.0304      0.00000

 k-point   120 :      -0.2667    0.4667    0.2000
  band No.  band energies     occupation 
      1       6.2114      2.00000
      2       6.6170      2.00000
      3       7.4070      2.00000
      4       9.1241      1.88131
      5      22.9410      0.00000
      6      24.7608      0.00000
      7      25.6802      0.00000
      8      27.4673      0.00000


--------------------------------------------------------------------------------------------------------


 soft charge-density along one line, spin component           1
         0         1         2         3         4         5         6         7         8         9
 total charge-density along one line
 
 pseudopotential strength for first ion, spin component:           1
 18.006  -0.003   0.000  -0.000  -0.000  -0.000  -0.000  -0.000
 -0.003   0.005   0.000   0.000  -0.000  -0.000  -0.000   0.000
  0.000   0.000   4.102  -0.000  -0.000  -0.006   0.000   0.000
 -0.000   0.000  -0.000   4.102  -0.000   0.000  -0.006   0.000
 -0.000  -0.000  -0.000  -0.000   4.102   0.000   0.000  -0.006
 -0.000  -0.000  -0.006   0.000   0.000   0.005  -0.000  -0.000
 -0.000  -0.000   0.000  -0.006   0.000  -0.000   0.005  -0.000
 -0.000   0.000   0.000   0.000  -0.006  -0.000  -0.000   0.005
 total augmentation occupancy for first ion, spin component:           1
  1.765  -0.288   0.000   0.000   0.000   0.000   0.000   0.000
 -0.288   1.087   0.000   0.000   0.000   0.000   0.000   0.000
  0.000   0.000   0.751   0.000  -0.000  -0.486  -0.000   0.000
  0.000   0.000   0.000   0.751  -0.000   0.000  -0.486  -0.000
  0.000   0.000  -0.000  -0.000   0.751   0.000   0.000  -0.486
  0.000   0.000  -0.486   0.000   0.000   0.411  -0.000   0.000
  0.000   0.000  -0.000  -0.486   0.000  -0.000   0.411   0.000
  0.000   0.000   0.000  -0.000  -0.486   0.000   0.000   0.411


------------------------ aborting loop because EDIFF is reached ----------------------------------------


 


 total charge     
 
# of ion       s       p       d       tot
------------------------------------------
    1        0.853   0.699   0.000   1.552
 
    CHARGE:  cpu time    0.0018: real time    0.0018
    FORLOC:  cpu time    0.0000: real time    0.0000
    FORNL :  cpu time    0.0023: real time    0.0023
    STRESS:  cpu time    0.0149: real time    0.0149
    FORCOR:  cpu time    0.0008: real time    0.0008
    FORHAR:  cpu time    0.0003: real time    0.0003
    MIXING:  cpu time    0.0001: real time    0.0001
    OFIELD:  cpu time    0.0000: real time    0.0000

  FORCE on cell =-STRESS in cart. coord.  units (eV):
  Direction    XX          YY          ZZ          XY          YZ          ZX
  --------------------------------------------------------------------------------------
  Alpha Z     2.26997     2.26997     2.26997
  Ewald     -45.14259   -45.14259   -45.14259    -0.00000     0.00000    -0.00000
  Hartree     0.16418     0.16418     0.16418    -0.00000    -0.00000    -0.00000
  E(xc)     -12.63450   -12.63450   -12.63450    -0.00000    -0.00000    -0.00000
  Local      -5.27847    -5.27848    -5.27847     0.00003     0.00003     0.00004
  n-local    39.06399    37.23844    39.34284    -0.55732     0.56158     0.95072
  augment    -6.30998    -6.30998    -6.30998    -0.00005    -0.00005    -0.00005
  Kinetic    20.76133    39.51549    24.33308     9.85634    -8.51917   -16.26677
  Fock        0.00000     0.00000     0.00000     0.00000     0.00000     0.00000
  -------------------------------------------------------------------------------------
  Total      -0.17968    -0.17968    -0.17968    -0.00000     0.00000    -0.00000
  in kB     -19.41240   -19.41240   -19.41240    -0.00000     0.00000    -0.00000
  external pressure =      -19.41 kB  Pullay stress =        0.00 kB


 VOLUME and BASIS-vectors are now :
 -----------------------------------------------------------------------------
  energy-cutoff  :      240.00
  volume of cell :       14.83
      direct lattice vectors                 reciprocal lattice vectors
     1.950000000  1.950000000  0.000000000     0.256410256  0.256410256 -0.256410256
     0.000000000  1.950000000  1.950000000    -0.256410256  0.256410256  0.256410256
     1.950000000  0.000000000  1.950000000     0.256410256 -0.256410256  0.256410256

  length of vectors
     2.757716447  2.757716447  2.757716447     0.444115592  0.444115592  0.444115592


 FORCES acting on ions
    electron-ion (+dipol)            ewald-force                    non-local-force                 convergence-correction
 -----------------------------------------------------------------------------------------------
   0.876E-15 -.579E-15 -.429E-15   0.262E-15 0.141E-15 0.191E-15   0.662E-23 0.827E-23 -.662E-23   -.762E-16 -.246E-16 0.116E-15
 -----------------------------------------------------------------------------------------------
   0.876E-15 -.579E-15 -.429E-15   0.262E-15 0.141E-15 0.191E-15   0.662E-23 0.827E-23 -.662E-23   -.762E-16 -.246E-16 0.116E-15
 
 
 POSITION                                       TOTAL-FORCE (eV/Angst)
 -----------------------------------------------------------------------------------
      0.00000      0.00000      0.00000         0.000000      0.000000      0.000000
 -----------------------------------------------------------------------------------
    total drift:                                0.000000     -0.000000     -0.000000


--------------------------------------------------------------------------------------------------------



  FREE ENERGIE OF THE ION-ELECTRON SYSTEM (eV)
  ---------------------------------------------------
  free  energy   TOTEN  =        -4.86600525 eV

  energy  without entropy=       -4.86600525  energy(sigma->0) =       -4.86600525
 


--------------------------------------------------------------------------------------------------------


    POTLOK:  cpu time    0.0020: real time    0.0020


--------------------------------------------------------------------------------------------------------


 writing wavefunctions
     LOOP+:  cpu time    1.4687: real time    1.5035
    4ORBIT:  cpu time    0.0000: real time    0.0000
 


 total charge     
 
# of ion       s       p       d       tot
------------------------------------------
    1        0.853   0.699   0.000   1.552
 
 BZINTS: Fermi energy:  9.912856;  4.000000 electrons
         Band energy:  16.954564;  BLOECHL correction: -0.112438

 total amount of memory used by VASP MPI-rank0    30530. kBytes
=======================================================================

   base      :      30000. kBytes
   nonl-proj :        277. kBytes
   fftplans  :         29. kBytes
   grid      :         53. kBytes
   one-center:          3. kBytes
   wavefun   :        168. kBytes
 
  
  
 General timing and accounting informations for this job:
 ========================================================
  
                  Total CPU time used (sec):        2.443
                            User time (sec):        1.729
                          System time (sec):        0.715
                         Elapsed time (sec):        2.550
  
                   Maximum memory used (kb):       26708.
                   Average memory used (kb):           0.
  
                          Minor page faults:         7643
                          Major page faults:           17
                 Voluntary context switches:          527
