PROCAR lm decomposed
# of k-points:  120         # of bands:    8         # of ions:    1

 k-point     1 :    0.00000000 0.00000000 0.00000000     weight = 0.00029630

band     1 # energy   -4.37799424 # occ.  2.00000000
 
ion      s     py     pz     px    dxy    dyz    dz2    dxz  x2-y2    tot
    1  0.384  0.000  0.000  0.000  0.000  0.000  0.000  0.000  0.000  0.384
 
band     2 # energy   20.69540507 # occ.  0.00000000
 
ion      s     py     pz     px    dxy    dyz    dz2    dxz  x2-y2    tot
    1  0.000  0.226  0.225  0.225  0.000  0.000  0.000  0.000  0.000  0.677
 
band     3 # energy   20.69558337 # occ.  0.00000000
 
ion      s     py     pz     px    dxy    dyz    dz2    dxz  x2-y2    tot
    1  0.000  0.451  0.112  0.115  0.000  0.000  0.000  0.000  0.000  0.678
 
band     4 # energy   20.69558353 # occ.  0.00000000
 
ion      s     py     pz     px    dxy    dyz    dz2    dxz  x2-y2    tot
    1  0.000  0.000  0.340  0.337  0.000  0.000  0.000  0.000  0.000  0.678
 
band     5 # energy   21.77145716 # occ.  0.00000000
 
ion      s     py     pz     px    dxy    dyz    dz2    dxz  x2-y2    tot
    1  0.000  0.000  0.000  0.000  0.000  0.000  0.000  0.000  0.000  0.000
 
band     6 # energy   21.77157218 # occ.  0.00000000
 
ion      s     py     pz     px    dxy    dyz    dz2    dxz  x2-y2    tot
    1  0.000  0.000  0.000  0.000  0.000  0.000  0.000  0.000  0.000  0.000
 
band     7 # energy   21.77157256 # occ.  0.00000000
 
ion      s     py     pz     px    dxy    dyz    dz2    dxz  x2-y2    tot
    1  0.000  0.000  0.000  0.000  0.000  0.000  0.000  0.000  0.000  0.000
 
band     8 # energy   26.97816049 # occ.  0.00000000
 
ion      s     py     pz     px    dxy    dyz    dz2    dxz  x2-y2    tot
    1  0.000  0.000  0.000  0.000  0.000  0.000  0.000  0.000  0.000  0.000
 

 k-point     2 :    0.06666667 0.00000000 0.00000000     weight = 0.00237037

band     1 # energy   -4.25041239 # occ.  2.00000000
 
ion      s     py     pz     px    dxy    dyz    dz2    dxz  x2-y2    tot
    1  0.382  0.001  0.001  0.001  0.000  0.000  0.000  0.000  0.000  0.385
 
band     2 # energy   18.71219101 # occ.  0.00000000
 
ion      s     py     pz     px    dxy    dyz    dz2    dxz  x2-y2    tot
    1  0.015  0.131  0.131  0.131  0.000  0.000  0.000  0.000  0.000  0.407
 
band     3 # energy   20.12329051 # occ.  0.00000000
 
ion      s     py     pz     px    dxy    dyz    dz2    dxz  x2-y2    tot
    1  0.000  0.086  0.342  0.085  0.000  0.000  0.000  0.000  0.000  0.513
 
band     4 # energy   20.12345723 # occ.  0.00000000
 
ion      s     py     pz     px    dxy    dyz    dz2    dxz  x2-y2    tot
    1  0.000  0.256  0.000  0.257  0.000  0.000  0.000  0.000  0.000  0.513
 
band     5 # energy   22.53215914 # occ.  0.00000000
 
ion      s     py     pz     px    dxy    dyz    dz2    dxz  x2-y2    tot
    1  0.000  0.029  0.114  0.028  0.000  0.000  0.000  0.000  0.000  0.171
 
band     6 # energy   22.53229705 # occ.  0.00000000
 
ion      s     py     pz     px    dxy    dyz    dz2    dxz  x2-y2    tot
    1  0.000  0.086  0.000  0.086  0.000  0.000  0.000  0.000  0.000  0.171
 
band     7 # energy   22.69056796 # occ.  0.00000000
 
ion      s     py     pz     px    dxy    dyz    dz2    dxz  x2-y2    tot
    1  0.014  0.081  0.081  0.081  0.000  0.000  0.000  0.000  0.000  0.257
 
band     8 # energy   28.02134496 # occ.  0.00000000
 
ion      s     py     pz     px    dxy    dyz    dz2    dxz  x2-y2    tot
    1  0.001  0.002  0.002  0.002  0.000  0.000  0.000  0.000  0.000  0.007
 

 k-point     3 :    0.13333333 0.00000000 0.00000000     weight = 0.00237037

band     1 # energy   -3.86900508 # occ.  2.00000000
 
ion      s     py     pz     px    dxy    dyz    dz2    dxz  x2-y2    tot
    1  0.373  0.004  0.004  0.004  0.000  0.000  0.000  0.000  0.000  0.386
 
band     2 # energy   15.94396169 # occ.  0.00000000
 
ion      s     py     pz     px    dxy    dyz    dz2    dxz  x2-y2    tot
    1  0.039  0.109  0.109  0.109  0.000  0.000  0.000  0.000  0.000  0.366
 
band     3 # energy   19.39166436 # occ.  0.00000000
 
ion      s     py     pz     px    dxy    dyz    dz2    dxz  x2-y2    tot
    1  0.000  0.079  0.314  0.078  0.000  0.000  0.000  0.000  0.000  0.471
 
band     4 # energy   19.39183331 # occ.  0.00000000
 
ion      s     py     pz     px    dxy    dyz    dz2    dxz  x2-y2    tot
    1  0.000  0.235  0.000  0.236  0.000  0.000  0.000  0.000  0.000  0.471
 
band     5 # energy   22.94962978 # occ.  0.00000000
 
ion      s     py     pz     px    dxy    dyz    dz2    dxz  x2-y2    tot
    1  0.058  0.069  0.069  0.069  0.000  0.000  0.000  0.000  0.000  0.264
 
band     6 # energy   23.58186652 # occ.  0.00000000
 
ion      s     py     pz     px    dxy    dyz    dz2    dxz  x2-y2    tot
    1  0.000  0.038  0.152  0.038  0.000  0.000  0.000  0.000  0.000  0.228
 
band     7 # energy   23.58224139 # occ.  0.00000000
 
ion      s     py     pz     px    dxy    dyz    dz2    dxz  x2-y2    tot
    1  0.000  0.114  0.000  0.114  0.000  0.000  0.000  0.000  0.000  0.228
 
band     8 # energy   26.97373052 # occ.  0.00000000
 
ion      s     py     pz     px    dxy    dyz    dz2    dxz  x2-y2    tot
    1  0.000  0.000  0.000  0.000  0.000  0.000  0.000  0.000  0.000  0.000
 

 k-point     4 :    0.20000000 0.00000000 0.00000000     weight = 0.00237037

band     1 # energy   -3.23509147 # occ.  2.00000000
 
ion      s     py     pz     px    dxy    dyz    dz2    dxz  x2-y2    tot
    1  0.359  0.009  0.009  0.009  0.000  0.000  0.000  0.000  0.000  0.387
 
band     2 # energy   13.15679478 # occ.  0.00000000
 
ion      s     py     pz     px    dxy    dyz    dz2    dxz  x2-y2    tot
    1  0.066  0.098  0.098  0.098  0.000  0.000  0.000  0.000  0.000  0.359
 
band     3 # energy   18.82191864 # occ.  0.00000000
 
ion      s     py     pz     px    dxy    dyz    dz2    dxz  x2-y2    tot
    1  0.000  0.079  0.317  0.079  0.000  0.000  0.000  0.000  0.000  0.475
 
band     4 # energy   18.82209129 # occ.  0.00000000
 
ion      s     py     pz     px    dxy    dyz    dz2    dxz  x2-y2    tot
    1  0.000  0.237  0.000  0.238  0.000  0.000  0.000  0.000  0.000  0.475
 
band     5 # energy   22.86769299 # occ.  0.00000000
 
ion      s     py     pz     px    dxy    dyz    dz2    dxz  x2-y2    tot
    1  0.109  0.047  0.047  0.047  0.000  0.000  0.000  0.000  0.000  0.248
 
band     6 # energy   23.82777751 # occ.  0.00000000
 
ion      s     py     pz     px    dxy    dyz    dz2    dxz  x2-y2    tot
    1  0.000  0.032  0.129  0.032  0.000  0.000  0.000  0.000  0.000  0.193
 
band     7 # energy   23.82850104 # occ.  0.00000000
 
ion      s     py     pz     px    dxy    dyz    dz2    dxz  x2-y2    tot
    1  0.000  0.096  0.000  0.097  0.000  0.000  0.000  0.000  0.000  0.193
 
band     8 # energy   26.91961210 # occ.  0.00000000
 
ion      s     py     pz     px    dxy    dyz    dz2    dxz  x2-y2    tot
    1  0.000  0.004  0.009  0.022  0.000  0.000  0.000  0.000  0.000  0.035
 

 k-point     5 :    0.26666667 0.00000000 0.00000000     weight = 0.00237037

band     1 # energy   -2.35133127 # occ.  2.00000000
 
ion      s     py     pz     px    dxy    dyz    dz2    dxz  x2-y2    tot
    1  0.341  0.016  0.016  0.016  0.000  0.000  0.000  0.000  0.000  0.389
 
band     2 # energy   10.49680904 # occ.  0.36572758
 
ion      s     py     pz     px    dxy    dyz    dz2    dxz  x2-y2    tot
    1  0.094  0.089  0.089  0.089  0.000  0.000  0.000  0.000  0.000  0.361
 
band     3 # energy   18.43962718 # occ.  0.00000000
 
ion      s     py     pz     px    dxy    dyz    dz2    dxz  x2-y2    tot
    1  0.000  0.083  0.330  0.082  0.000  0.000  0.000  0.000  0.000  0.495
 
band     4 # energy   18.43979945 # occ.  0.00000000
 
ion      s     py     pz     px    dxy    dyz    dz2    dxz  x2-y2    tot
    1  0.000  0.248  0.000  0.248  0.000  0.000  0.000  0.000  0.000  0.496
 
band     5 # energy   22.76554395 # occ.  0.00000000
 
ion      s     py     pz     px    dxy    dyz    dz2    dxz  x2-y2    tot
    1  0.155  0.027  0.027  0.027  0.000  0.000  0.000  0.000  0.000  0.237
 
band     6 # energy   22.97668162 # occ.  0.00000000
 
ion      s     py     pz     px    dxy    dyz    dz2    dxz  x2-y2    tot
    1  0.000  0.021  0.086  0.021  0.000  0.000  0.000  0.000  0.000  0.128
 
band     7 # energy   22.97736514 # occ.  0.00000000
 
ion      s     py     pz     px    dxy    dyz    dz2    dxz  x2-y2    tot
    1  0.000  0.064  0.000  0.064  0.000  0.000  0.000  0.000  0.000  0.128
 
band     8 # energy   28.14078581 # occ.  0.00000000
 
ion      s     py     pz     px    dxy    dyz    dz2    dxz  x2-y2    tot
    1  0.009  0.032  0.032  0.032  0.000  0.000  0.000  0.000  0.000  0.106
 

 k-point     6 :    0.33333333 0.00000000 0.00000000     weight = 0.00237037

band     1 # energy   -1.22086623 # occ.  2.00000000
 
ion      s     py     pz     px    dxy    dyz    dz2    dxz  x2-y2    tot
    1  0.322  0.024  0.024  0.024  0.000  0.000  0.000  0.000  0.000  0.393
 
band     2 # energy    8.01561668 # occ.  2.08193086
 
ion      s     py     pz     px    dxy    dyz    dz2    dxz  x2-y2    tot
    1  0.122  0.081  0.081  0.081  0.000  0.000  0.000  0.000  0.000  0.366
 
band     3 # energy   18.23900795 # occ.  0.00000000
 
ion      s     py     pz     px    dxy    dyz    dz2    dxz  x2-y2    tot
    1  0.000  0.089  0.353  0.088  0.000  0.000  0.000  0.000  0.000  0.530
 
band     4 # energy   18.23915859 # occ.  0.00000000
 
ion      s     py     pz     px    dxy    dyz    dz2    dxz  x2-y2    tot
    1  0.000  0.265  0.000  0.265  0.000  0.000  0.000  0.000  0.000  0.530
 
band     5 # energy   22.00312026 # occ.  0.00000000
 
ion      s     py     pz     px    dxy    dyz    dz2    dxz  x2-y2    tot
    1  0.000  0.014  0.056  0.014  0.000  0.000  0.000  0.000  0.000  0.084
 
band     6 # energy   22.00368366 # occ.  0.00000000
 
ion      s     py     pz     px    dxy    dyz    dz2    dxz  x2-y2    tot
    1  0.000  0.042  0.000  0.042  0.000  0.000  0.000  0.000  0.000  0.084
 
band     7 # energy   22.77128017 # occ.  0.00000000
 
ion      s     py     pz     px    dxy    dyz    dz2    dxz  x2-y2    tot
    1  0.195  0.013  0.013  0.013  0.000  0.000  0.000  0.000  0.000  0.235
 
band     8 # energy   27.00857933 # occ.  0.00000000
 
ion      s     py     pz     px    dxy    dyz    dz2    dxz  x2-y2    tot
    1  0.017  0.022  0.022  0.022  0.000  0.000  0.000  0.000  0.000  0.082
 

 k-point     7 :    0.40000000 0.00000000 0.00000000     weight = 0.00237037

band     1 # energy    0.14775791 # occ.  2.00000000
 
ion      s     py     pz     px    dxy    dyz    dz2    dxz  x2-y2    tot
    1  0.305  0.031  0.031  0.031  0.000  0.000  0.000  0.000  0.000  0.397
 
band     2 # energy    5.73735745 # occ.  2.00000000
 
ion      s     py     pz     px    dxy    dyz    dz2    dxz  x2-y2    tot
    1  0.146  0.075  0.075  0.075  0.000  0.000  0.000  0.000  0.000  0.369
 
band     3 # energy   18.17625955 # occ.  0.00000000
 
ion      s     py     pz     px    dxy    dyz    dz2    dxz  x2-y2    tot
    1  0.000  0.096  0.382  0.095  0.000  0.000  0.000  0.000  0.000  0.574
 
band     4 # energy   18.17639271 # occ.  0.00000000
 
ion      s     py     pz     px    dxy    dyz    dz2    dxz  x2-y2    tot
    1  0.000  0.287  0.000  0.287  0.000  0.000  0.000  0.000  0.000  0.574
 
band     5 # energy   21.22928000 # occ.  0.00000000
 
ion      s     py     pz     px    dxy    dyz    dz2    dxz  x2-y2    tot
    1  0.000  0.007  0.029  0.007  0.000  0.000  0.000  0.000  0.000  0.043
 
band     6 # energy   21.22984038 # occ.  0.00000000
 
ion      s     py     pz     px    dxy    dyz    dz2    dxz  x2-y2    tot
    1  0.000  0.021  0.000  0.021  0.000  0.000  0.000  0.000  0.000  0.043
 
band     7 # energy   22.86050912 # occ.  0.00000000
 
ion      s     py     pz     px    dxy    dyz    dz2    dxz  x2-y2    tot
    1  0.230  0.005  0.005  0.005  0.000  0.000  0.000  0.000  0.000  0.245
 
band     8 # energy   26.11614718 # occ.  0.00000000
 
ion      s     py     pz     px    dxy    dyz    dz2    dxz  x2-y2    tot
    1  0.014  0.013  0.013  0.013  0.000  0.000  0.000  0.000  0.000  0.055
 

 k-point     8 :    0.46666667 0.00000000 0.00000000     weight = 0.00237037

band     1 # energy    1.71753159 # occ.  2.00000000
 
ion      s     py     pz     px    dxy    dyz    dz2    dxz  x2-y2    tot
    1  0.327  0.028  0.028  0.028  0.000  0.000  0.000  0.000  0.000  0.413
 
band     2 # energy    3.71042378 # occ.  2.00000000
 
ion      s     py     pz     px    dxy    dyz    dz2    dxz  x2-y2    tot
    1  0.127  0.077  0.077  0.077  0.000  0.000  0.000  0.000  0.000  0.358
 
band     3 # energy   18.18603224 # occ.  0.00000000
 
ion      s     py     pz     px    dxy    dyz    dz2    dxz  x2-y2    tot
    1  0.000  0.102  0.409  0.102  0.000  0.000  0.000  0.000  0.000  0.613
 
band     4 # energy   18.18614915 # occ.  0.00000000
 
ion      s     py     pz     px    dxy    dyz    dz2    dxz  x2-y2    tot
    1  0.000  0.306  0.000  0.307  0.000  0.000  0.000  0.000  0.000  0.613
 
band     5 # energy   20.79247737 # occ.  0.00000000
 
ion      s     py     pz     px    dxy    dyz    dz2    dxz  x2-y2    tot
    1  0.000  0.001  0.004  0.001  0.000  0.000  0.000  0.000  0.000  0.006
 
band     6 # energy   20.79304642 # occ.  0.00000000
 
ion      s     py     pz     px    dxy    dyz    dz2    dxz  x2-y2    tot
    1  0.000  0.003  0.000  0.003  0.000  0.000  0.000  0.000  0.000  0.006
 
band     7 # energy   22.96296976 # occ.  0.00000000
 
ion      s     py     pz     px    dxy    dyz    dz2    dxz  x2-y2    tot
    1  0.259  0.001  0.001  0.001  0.000  0.000  0.000  0.000  0.000  0.260
 
band     8 # energy   25.59494838 # occ.  0.00000000
 
ion      s     py     pz     px    dxy    dyz    dz2    dxz  x2-y2    tot
    1  0.003  0.009  0.009  0.009  0.000  0.000  0.000  0.000  0.000  0.029
 

 k-point     9 :    0.06666667 0.06666667 0.00000000     weight = 0.00177778

band     1 # energy   -4.20790538 # occ.  2.00000000
 
ion      s     py     pz     px    dxy    dyz    dz2    dxz  x2-y2    tot
    1  0.381  0.004  0.000  0.000  0.000  0.000  0.000  0.000  0.000  0.385
 
band     2 # energy   19.16862700 # occ.  0.00000000
 
ion      s     py     pz     px    dxy    dyz    dz2    dxz  x2-y2    tot
    1  0.000  0.000  0.222  0.222  0.000  0.000  0.000  0.000  0.000  0.444
 
band     3 # energy   19.16873851 # occ.  0.00000000
 
ion      s     py     pz     px    dxy    dyz    dz2    dxz  x2-y2    tot
    1  0.000  0.000  0.222  0.222  0.000  0.000  0.000  0.000  0.000  0.444
 
band     4 # energy   20.29371638 # occ.  0.00000000
 
ion      s     py     pz     px    dxy    dyz    dz2    dxz  x2-y2    tot
    1  0.037  0.641  0.000  0.000  0.000  0.000  0.000  0.000  0.000  0.678
 
band     5 # energy   20.88959718 # occ.  0.00000000
 
ion      s     py     pz     px    dxy    dyz    dz2    dxz  x2-y2    tot
    1  0.000  0.000  0.000  0.000  0.000  0.000  0.000  0.000  0.000  0.000
 
band     6 # energy   23.56046027 # occ.  0.00000000
 
ion      s     py     pz     px    dxy    dyz    dz2    dxz  x2-y2    tot
    1  0.000  0.000  0.119  0.119  0.000  0.000  0.000  0.000  0.000  0.238
 
band     7 # energy   23.56047471 # occ.  0.00000000
 
ion      s     py     pz     px    dxy    dyz    dz2    dxz  x2-y2    tot
    1  0.000  0.000  0.119  0.119  0.000  0.000  0.000  0.000  0.000  0.238
 
band     8 # energy   26.87195325 # occ.  0.00000000
 
ion      s     py     pz     px    dxy    dyz    dz2    dxz  x2-y2    tot
    1  0.002  0.016  0.000  0.000  0.000  0.000  0.000  0.000  0.000  0.018
 

 k-point    10 :    0.13333333 0.06666667 0.00000000     weight = 0.00711111

band     1 # energy   -3.91129157 # occ.  2.00000000
 
ion      s     py     pz     px    dxy    dyz    dz2    dxz  x2-y2    tot
    1  0.374  0.010  0.001  0.001  0.000  0.000  0.000  0.000  0.000  0.386
 
band     2 # energy   16.93389712 # occ.  0.00000000
 
ion      s     py     pz     px    dxy    dyz    dz2    dxz  x2-y2    tot
    1  0.025  0.069  0.141  0.141  0.000  0.000  0.000  0.000  0.000  0.377
 
band     3 # energy   18.34557344 # occ.  0.00000000
 
ion      s     py     pz     px    dxy    dyz    dz2    dxz  x2-y2    tot
    1  0.000  0.000  0.216  0.216  0.000  0.000  0.000  0.000  0.000  0.432
 
band     4 # energy   19.84029213 # occ.  0.00000000
 
ion      s     py     pz     px    dxy    dyz    dz2    dxz  x2-y2    tot
    1  0.041  0.424  0.015  0.015  0.000  0.000  0.000  0.000  0.000  0.496
 
band     5 # energy   21.28390811 # occ.  0.00000000
 
ion      s     py     pz     px    dxy    dyz    dz2    dxz  x2-y2    tot
    1  0.003  0.106  0.069  0.069  0.000  0.000  0.000  0.000  0.000  0.248
 
band     6 # energy   24.24997753 # occ.  0.00000000
 
ion      s     py     pz     px    dxy    dyz    dz2    dxz  x2-y2    tot
    1  0.022  0.010  0.097  0.097  0.000  0.000  0.000  0.000  0.000  0.226
 
band     7 # energy   24.68509257 # occ.  0.00000000
 
ion      s     py     pz     px    dxy    dyz    dz2    dxz  x2-y2    tot
    1  0.000  0.000  0.128  0.128  0.000  0.000  0.000  0.000  0.000  0.256
 
band     8 # energy   25.40253254 # occ.  0.00000000
 
ion      s     py     pz     px    dxy    dyz    dz2    dxz  x2-y2    tot
    1  0.003  0.013  0.000  0.000  0.000  0.000  0.000  0.000  0.000  0.016
 

 k-point    11 :    0.20000000 0.06666667 0.00000000     weight = 0.00711111

band     1 # energy   -3.36157711 # occ.  2.00000000
 
ion      s     py     pz     px    dxy    dyz    dz2    dxz  x2-y2    tot
    1  0.362  0.017  0.004  0.004  0.000  0.000  0.000  0.000  0.000  0.387
 
band     2 # energy   14.16352663 # occ.  0.00000000
 
ion      s     py     pz     px    dxy    dyz    dz2    dxz  x2-y2    tot
    1  0.053  0.073  0.116  0.116  0.000  0.000  0.000  0.000  0.000  0.358
 
band     3 # energy   17.71790499 # occ.  0.00000000
 
ion      s     py     pz     px    dxy    dyz    dz2    dxz  x2-y2    tot
    1  0.000  0.000  0.219  0.219  0.000  0.000  0.000  0.000  0.000  0.437
 
band     4 # energy   19.22017221 # occ.  0.00000000
 
ion      s     py     pz     px    dxy    dyz    dz2    dxz  x2-y2    tot
    1  0.050  0.386  0.023  0.023  0.000  0.000  0.000  0.000  0.000  0.482
 
band     5 # energy   21.97492290 # occ.  0.00000000
 
ion      s     py     pz     px    dxy    dyz    dz2    dxz  x2-y2    tot
    1  0.000  0.114  0.077  0.077  0.000  0.000  0.000  0.000  0.000  0.268
 
band     6 # energy   24.07326040 # occ.  0.00000000
 
ion      s     py     pz     px    dxy    dyz    dz2    dxz  x2-y2    tot
    1  0.027  0.004  0.078  0.078  0.000  0.000  0.000  0.000  0.000  0.188
 
band     7 # energy   24.88462547 # occ.  0.00000000
 
ion      s     py     pz     px    dxy    dyz    dz2    dxz  x2-y2    tot
    1  0.040  0.005  0.002  0.002  0.000  0.000  0.000  0.000  0.000  0.048
 
band     8 # energy   25.30679935 # occ.  0.00000000
 
ion      s     py     pz     px    dxy    dyz    dz2    dxz  x2-y2    tot
    1  0.000  0.000  0.121  0.121  0.000  0.000  0.000  0.000  0.000  0.241
 

 k-point    12 :    0.26666667 0.06666667 0.00000000     weight = 0.00711111

band     1 # energy   -2.56115078 # occ.  2.00000000
 
ion      s     py     pz     px    dxy    dyz    dz2    dxz  x2-y2    tot
    1  0.345  0.025  0.009  0.009  0.000  0.000  0.000  0.000  0.000  0.389
 
band     2 # energy   11.46474259 # occ. -0.12427686
 
ion      s     py     pz     px    dxy    dyz    dz2    dxz  x2-y2    tot
    1  0.082  0.070  0.104  0.104  0.000  0.000  0.000  0.000  0.000  0.359
 
band     3 # energy   17.29731542 # occ.  0.00000000
 
ion      s     py     pz     px    dxy    dyz    dz2    dxz  x2-y2    tot
    1  0.000  0.000  0.224  0.224  0.000  0.000  0.000  0.000  0.000  0.448
 
band     4 # energy   18.69903879 # occ.  0.00000000
 
ion      s     py     pz     px    dxy    dyz    dz2    dxz  x2-y2    tot
    1  0.057  0.385  0.036  0.036  0.000  0.000  0.000  0.000  0.000  0.514
 
band     5 # energy   21.48502976 # occ.  0.00000000
 
ion      s     py     pz     px    dxy    dyz    dz2    dxz  x2-y2    tot
    1  0.002  0.065  0.024  0.024  0.000  0.000  0.000  0.000  0.000  0.115
 
band     6 # energy   23.83711026 # occ.  0.00000000
 
ion      s     py     pz     px    dxy    dyz    dz2    dxz  x2-y2    tot
    1  0.070  0.004  0.099  0.099  0.000  0.000  0.000  0.000  0.000  0.272
 
band     7 # energy   24.68566944 # occ.  0.00000000
 
ion      s     py     pz     px    dxy    dyz    dz2    dxz  x2-y2    tot
    1  0.000  0.000  0.090  0.090  0.000  0.000  0.000  0.000  0.000  0.180
 
band     8 # energy   25.88940135 # occ.  0.00000000
 
ion      s     py     pz     px    dxy    dyz    dz2    dxz  x2-y2    tot
    1  0.033  0.018  0.012  0.012  0.000  0.000  0.000  0.000  0.000  0.074
 

 k-point    13 :    0.33333333 0.06666667 0.00000000     weight = 0.00711111

band     1 # energy   -1.51313398 # occ.  2.00000000
 
ion      s     py     pz     px    dxy    dyz    dz2    dxz  x2-y2    tot
    1  0.326  0.035  0.015  0.015  0.000  0.000  0.000  0.000  0.000  0.391
 
band     2 # energy    8.92406377 # occ.  1.92871303
 
ion      s     py     pz     px    dxy    dyz    dz2    dxz  x2-y2    tot
    1  0.111  0.064  0.095  0.095  0.000  0.000  0.000  0.000  0.000  0.365
 
band     3 # energy   17.08921763 # occ.  0.00000000
 
ion      s     py     pz     px    dxy    dyz    dz2    dxz  x2-y2    tot
    1  0.000  0.000  0.231  0.231  0.000  0.000  0.000  0.000  0.000  0.461
 
band     4 # energy   18.24923449 # occ.  0.00000000
 
ion      s     py     pz     px    dxy    dyz    dz2    dxz  x2-y2    tot
    1  0.060  0.395  0.052  0.052  0.000  0.000  0.000  0.000  0.000  0.558
 
band     5 # energy   20.66711079 # occ.  0.00000000
 
ion      s     py     pz     px    dxy    dyz    dz2    dxz  x2-y2    tot
    1  0.005  0.019  0.004  0.004  0.000  0.000  0.000  0.000  0.000  0.033
 
band     6 # energy   23.67459318 # occ.  0.00000000
 
ion      s     py     pz     px    dxy    dyz    dz2    dxz  x2-y2    tot
    1  0.000  0.000  0.077  0.077  0.000  0.000  0.000  0.000  0.000  0.154
 
band     7 # energy   23.80069721 # occ.  0.00000000
 
ion      s     py     pz     px    dxy    dyz    dz2    dxz  x2-y2    tot
    1  0.119  0.014  0.075  0.074  0.000  0.000  0.000  0.000  0.000  0.283
 
band     8 # energy   27.45042418 # occ.  0.00000000
 
ion      s     py     pz     px    dxy    dyz    dz2    dxz  x2-y2    tot
    1  0.007  0.006  0.042  0.042  0.000  0.000  0.000  0.000  0.000  0.096
 

 k-point    14 :    0.40000000 0.06666667 0.00000000     weight = 0.00711111

band     1 # energy   -0.22264780 # occ.  2.00000000
 
ion      s     py     pz     px    dxy    dyz    dz2    dxz  x2-y2    tot
    1  0.308  0.045  0.022  0.022  0.000  0.000  0.000  0.000  0.000  0.396
 
band     2 # energy    6.57811170 # occ.  2.00000000
 
ion      s     py     pz     px    dxy    dyz    dz2    dxz  x2-y2    tot
    1  0.138  0.058  0.086  0.086  0.000  0.000  0.000  0.000  0.000  0.369
 
band     3 # energy   17.08750636 # occ.  0.00000000
 
ion      s     py     pz     px    dxy    dyz    dz2    dxz  x2-y2    tot
    1  0.000  0.000  0.239  0.239  0.000  0.000  0.000  0.000  0.000  0.478
 
band     4 # energy   17.78053783 # occ.  0.00000000
 
ion      s     py     pz     px    dxy    dyz    dz2    dxz  x2-y2    tot
    1  0.056  0.387  0.063  0.063  0.000  0.000  0.000  0.000  0.000  0.569
 
band     5 # energy   20.14595431 # occ.  0.00000000
 
ion      s     py     pz     px    dxy    dyz    dz2    dxz  x2-y2    tot
    1  0.012  0.000  0.000  0.000  0.000  0.000  0.000  0.000  0.000  0.012
 
band     6 # energy   22.73212446 # occ.  0.00000000
 
ion      s     py     pz     px    dxy    dyz    dz2    dxz  x2-y2    tot
    1  0.000  0.000  0.068  0.068  0.000  0.000  0.000  0.000  0.000  0.136
 
band     7 # energy   23.83048910 # occ.  0.00000000
 
ion      s     py     pz     px    dxy    dyz    dz2    dxz  x2-y2    tot
    1  0.155  0.028  0.053  0.053  0.000  0.000  0.000  0.000  0.000  0.290
 
band     8 # energy   27.32598496 # occ.  0.00000000
 
ion      s     py     pz     px    dxy    dyz    dz2    dxz  x2-y2    tot
    1  0.005  0.004  0.022  0.022  0.000  0.000  0.000  0.000  0.000  0.053
 

 k-point    15 :    0.46666667 0.06666667 0.00000000     weight = 0.00711111

band     1 # energy    1.29068591 # occ.  2.00000000
 
ion      s     py     pz     px    dxy    dyz    dz2    dxz  x2-y2    tot
    1  0.305  0.050  0.025  0.025  0.000  0.000  0.000  0.000  0.000  0.404
 
band     2 # energy    4.45665716 # occ.  2.00000000
 
ion      s     py     pz     px    dxy    dyz    dz2    dxz  x2-y2    tot
    1  0.145  0.056  0.082  0.082  0.000  0.000  0.000  0.000  0.000  0.366
 
band     3 # energy   17.26722493 # occ.  0.00000000
 
ion      s     py     pz     px    dxy    dyz    dz2    dxz  x2-y2    tot
    1  0.049  0.350  0.068  0.068  0.000  0.000  0.000  0.000  0.000  0.536
 
band     4 # energy   17.28102350 # occ.  0.00000000
 
ion      s     py     pz     px    dxy    dyz    dz2    dxz  x2-y2    tot
    1  0.000  0.000  0.251  0.251  0.000  0.000  0.000  0.000  0.000  0.501
 
band     5 # energy   20.08941108 # occ.  0.00000000
 
ion      s     py     pz     px    dxy    dyz    dz2    dxz  x2-y2    tot
    1  0.020  0.011  0.007  0.007  0.000  0.000  0.000  0.000  0.000  0.046
 
band     6 # energy   21.96698941 # occ.  0.00000000
 
ion      s     py     pz     px    dxy    dyz    dz2    dxz  x2-y2    tot
    1  0.000  0.000  0.057  0.058  0.000  0.000  0.000  0.000  0.000  0.115
 
band     7 # energy   23.84483160 # occ.  0.00000000
 
ion      s     py     pz     px    dxy    dyz    dz2    dxz  x2-y2    tot
    1  0.184  0.047  0.034  0.034  0.000  0.000  0.000  0.000  0.000  0.297
 
band     8 # energy   26.80558729 # occ.  0.00000000
 
ion      s     py     pz     px    dxy    dyz    dz2    dxz  x2-y2    tot
    1  0.002  0.008  0.008  0.008  0.000  0.000  0.000  0.000  0.000  0.026
 

 k-point    16 :   -0.46666667 0.06666667 0.00000000     weight = 0.00711111

band     1 # energy    2.31625379 # occ.  2.00000000
 
ion      s     py     pz     px    dxy    dyz    dz2    dxz  x2-y2    tot
    1  0.402  0.003  0.017  0.017  0.000  0.000  0.000  0.000  0.000  0.439
 
band     2 # energy    3.27817042 # occ.  2.00000000
 
ion      s     py     pz     px    dxy    dyz    dz2    dxz  x2-y2    tot
    1  0.049  0.106  0.088  0.088  0.000  0.000  0.000  0.000  0.000  0.332
 
band     3 # energy   16.80604101 # occ.  0.00000000
 
ion      s     py     pz     px    dxy    dyz    dz2    dxz  x2-y2    tot
    1  0.044  0.309  0.071  0.071  0.000  0.000  0.000  0.000  0.000  0.495
 
band     4 # energy   17.64704845 # occ.  0.00000000
 
ion      s     py     pz     px    dxy    dyz    dz2    dxz  x2-y2    tot
    1  0.000  0.000  0.265  0.265  0.000  0.000  0.000  0.000  0.000  0.530
 
band     5 # energy   20.40682364 # occ.  0.00000000
 
ion      s     py     pz     px    dxy    dyz    dz2    dxz  x2-y2    tot
    1  0.025  0.026  0.018  0.018  0.000  0.000  0.000  0.000  0.000  0.087
 
band     6 # energy   21.45825276 # occ.  0.00000000
 
ion      s     py     pz     px    dxy    dyz    dz2    dxz  x2-y2    tot
    1  0.000  0.000  0.043  0.043  0.000  0.000  0.000  0.000  0.000  0.087
 
band     7 # energy   23.77793352 # occ.  0.00000000
 
ion      s     py     pz     px    dxy    dyz    dz2    dxz  x2-y2    tot
    1  0.192  0.066  0.018  0.018  0.000  0.000  0.000  0.000  0.000  0.294
 
band     8 # energy   26.71995164 # occ.  0.00000000
 
ion      s     py     pz     px    dxy    dyz    dz2    dxz  x2-y2    tot
    1  0.001  0.018  0.003  0.003  0.000  0.000  0.000  0.000  0.000  0.026
 

 k-point    17 :   -0.40000000 0.06666667 0.00000000     weight = 0.00711111

band     1 # energy    0.76422337 # occ.  2.00000000
 
ion      s     py     pz     px    dxy    dyz    dz2    dxz  x2-y2    tot
    1  0.301  0.018  0.040  0.040  0.000  0.000  0.000  0.000  0.000  0.400
 
band     2 # energy    5.13520936 # occ.  2.00000000
 
ion      s     py     pz     px    dxy    dyz    dz2    dxz  x2-y2    tot
    1  0.148  0.094  0.064  0.064  0.000  0.000  0.000  0.000  0.000  0.369
 
band     3 # energy   16.48430919 # occ.  0.00000000
 
ion      s     py     pz     px    dxy    dyz    dz2    dxz  x2-y2    tot
    1  0.040  0.274  0.075  0.075  0.000  0.000  0.000  0.000  0.000  0.465
 
band     4 # energy   18.14978024 # occ.  0.00000000
 
ion      s     py     pz     px    dxy    dyz    dz2    dxz  x2-y2    tot
    1  0.000  0.000  0.286  0.286  0.000  0.000  0.000  0.000  0.000  0.573
 
band     5 # energy   21.03985700 # occ.  0.00000000
 
ion      s     py     pz     px    dxy    dyz    dz2    dxz  x2-y2    tot
    1  0.025  0.034  0.029  0.029  0.000  0.000  0.000  0.000  0.000  0.117
 
band     6 # energy   21.26798984 # occ.  0.00000000
 
ion      s     py     pz     px    dxy    dyz    dz2    dxz  x2-y2    tot
    1  0.000  0.000  0.021  0.021  0.000  0.000  0.000  0.000  0.000  0.043
 
band     7 # energy   23.64347118 # occ.  0.00000000
 
ion      s     py     pz     px    dxy    dyz    dz2    dxz  x2-y2    tot
    1  0.178  0.087  0.006  0.006  0.000  0.000  0.000  0.000  0.000  0.278
 
band     8 # energy   27.09956369 # occ.  0.00000000
 
ion      s     py     pz     px    dxy    dyz    dz2    dxz  x2-y2    tot
    1  0.006  0.037  0.003  0.003  0.000  0.000  0.000  0.000  0.000  0.048
 

 k-point    18 :   -0.33333333 0.06666667 0.00000000     weight = 0.00711111

band     1 # energy   -0.67944002 # occ.  2.00000000
 
ion      s     py     pz     px    dxy    dyz    dz2    dxz  x2-y2    tot
    1  0.313  0.014  0.033  0.033  0.000  0.000  0.000  0.000  0.000  0.393
 
band     2 # energy    7.33633416 # occ.  2.00000000
 
ion      s     py     pz     px    dxy    dyz    dz2    dxz  x2-y2    tot
    1  0.129  0.102  0.068  0.068  0.000  0.000  0.000  0.000  0.000  0.368
 
band     3 # energy   16.34607844 # occ.  0.00000000
 
ion      s     py     pz     px    dxy    dyz    dz2    dxz  x2-y2    tot
    1  0.038  0.245  0.081  0.081  0.000  0.000  0.000  0.000  0.000  0.444
 
band     4 # energy   18.70447469 # occ.  0.00000000
 
ion      s     py     pz     px    dxy    dyz    dz2    dxz  x2-y2    tot
    1  0.000  0.000  0.303  0.303  0.000  0.000  0.000  0.000  0.000  0.607
 
band     5 # energy   21.43246306 # occ.  0.00000000
 
ion      s     py     pz     px    dxy    dyz    dz2    dxz  x2-y2    tot
    1  0.000  0.000  0.003  0.003  0.000  0.000  0.000  0.000  0.000  0.006
 
band     6 # energy   21.91159990 # occ.  0.00000000
 
ion      s     py     pz     px    dxy    dyz    dz2    dxz  x2-y2    tot
    1  0.024  0.037  0.038  0.038  0.000  0.000  0.000  0.000  0.000  0.137
 
band     7 # energy   23.50856361 # occ.  0.00000000
 
ion      s     py     pz     px    dxy    dyz    dz2    dxz  x2-y2    tot
    1  0.153  0.114  0.001  0.001  0.000  0.000  0.000  0.000  0.000  0.269
 
band     8 # energy   27.81319990 # occ.  0.00000000
 
ion      s     py     pz     px    dxy    dyz    dz2    dxz  x2-y2    tot
    1  0.006  0.065  0.005  0.005  0.000  0.000  0.000  0.000  0.000  0.080
 

 k-point    19 :   -0.26666667 0.06666667 0.00000000     weight = 0.00711111

band     1 # energy   -1.88993007 # occ.  2.00000000
 
ion      s     py     pz     px    dxy    dyz    dz2    dxz  x2-y2    tot
    1  0.332  0.009  0.024  0.024  0.000  0.000  0.000  0.000  0.000  0.390
 
band     2 # energy    9.75028588 # occ.  1.12929504
 
ion      s     py     pz     px    dxy    dyz    dz2    dxz  x2-y2    tot
    1  0.101  0.112  0.075  0.075  0.000  0.000  0.000  0.000  0.000  0.363
 
band     3 # energy   16.41491660 # occ.  0.00000000
 
ion      s     py     pz     px    dxy    dyz    dz2    dxz  x2-y2    tot
    1  0.036  0.219  0.088  0.088  0.000  0.000  0.000  0.000  0.000  0.432
 
band     4 # energy   19.24696253 # occ.  0.00000000
 
ion      s     py     pz     px    dxy    dyz    dz2    dxz  x2-y2    tot
    1  0.000  0.000  0.305  0.305  0.000  0.000  0.000  0.000  0.000  0.610
 
band     5 # energy   21.98606905 # occ.  0.00000000
 
ion      s     py     pz     px    dxy    dyz    dz2    dxz  x2-y2    tot
    1  0.000  0.000  0.003  0.003  0.000  0.000  0.000  0.000  0.000  0.006
 
band     6 # energy   22.97165028 # occ.  0.00000000
 
ion      s     py     pz     px    dxy    dyz    dz2    dxz  x2-y2    tot
    1  0.023  0.033  0.046  0.046  0.000  0.000  0.000  0.000  0.000  0.150
 
band     7 # energy   23.45210376 # occ.  0.00000000
 
ion      s     py     pz     px    dxy    dyz    dz2    dxz  x2-y2    tot
    1  0.118  0.155  0.000  0.000  0.000  0.000  0.000  0.000  0.000  0.273
 
band     8 # energy   27.52678056 # occ.  0.00000000
 
ion      s     py     pz     px    dxy    dyz    dz2    dxz  x2-y2    tot
    1  0.000  0.000  0.043  0.043  0.000  0.000  0.000  0.000  0.000  0.086
 

 k-point    20 :   -0.20000000 0.06666667 0.00000000     weight = 0.00711111

band     1 # energy   -2.85566019 # occ.  2.00000000
 
ion      s     py     pz     px    dxy    dyz    dz2    dxz  x2-y2    tot
    1  0.351  0.004  0.016  0.016  0.000  0.000  0.000  0.000  0.000  0.388
 
band     2 # energy   12.34880441 # occ. -0.00467948
 
ion      s     py     pz     px    dxy    dyz    dz2    dxz  x2-y2    tot
    1  0.071  0.126  0.080  0.080  0.000  0.000  0.000  0.000  0.000  0.357
 
band     3 # energy   16.69281823 # occ.  0.00000000
 
ion      s     py     pz     px    dxy    dyz    dz2    dxz  x2-y2    tot
    1  0.033  0.193  0.097  0.097  0.000  0.000  0.000  0.000  0.000  0.420
 
band     4 # energy   19.78883875 # occ.  0.00000000
 
ion      s     py     pz     px    dxy    dyz    dz2    dxz  x2-y2    tot
    1  0.000  0.000  0.297  0.297  0.000  0.000  0.000  0.000  0.000  0.594
 
band     5 # energy   22.76529684 # occ.  0.00000000
 
ion      s     py     pz     px    dxy    dyz    dz2    dxz  x2-y2    tot
    1  0.000  0.000  0.026  0.026  0.000  0.000  0.000  0.000  0.000  0.052
 
band     6 # energy   23.46507936 # occ.  0.00000000
 
ion      s     py     pz     px    dxy    dyz    dz2    dxz  x2-y2    tot
    1  0.078  0.203  0.004  0.004  0.000  0.000  0.000  0.000  0.000  0.290
 
band     7 # energy   24.11314269 # occ.  0.00000000
 
ion      s     py     pz     px    dxy    dyz    dz2    dxz  x2-y2    tot
    1  0.020  0.046  0.056  0.056  0.000  0.000  0.000  0.000  0.000  0.177
 
band     8 # energy   25.89217325 # occ.  0.00000000
 
ion      s     py     pz     px    dxy    dyz    dz2    dxz  x2-y2    tot
    1  0.000  0.000  0.032  0.032  0.000  0.000  0.000  0.000  0.000  0.063
 

 k-point    21 :   -0.13333333 0.06666667 0.00000000     weight = 0.00711111

band     1 # energy   -3.57280481 # occ.  2.00000000
 
ion      s     py     pz     px    dxy    dyz    dz2    dxz  x2-y2    tot
    1  0.367  0.001  0.010  0.010  0.000  0.000  0.000  0.000  0.000  0.387
 
band     2 # energy   15.09003007 # occ.  0.00000000
 
ion      s     py     pz     px    dxy    dyz    dz2    dxz  x2-y2    tot
    1  0.042  0.152  0.082  0.082  0.000  0.000  0.000  0.000  0.000  0.359
 
band     3 # energy   17.18416112 # occ.  0.00000000
 
ion      s     py     pz     px    dxy    dyz    dz2    dxz  x2-y2    tot
    1  0.030  0.161  0.112  0.112  0.000  0.000  0.000  0.000  0.000  0.415
 
band     4 # energy   20.36655160 # occ.  0.00000000
 
ion      s     py     pz     px    dxy    dyz    dz2    dxz  x2-y2    tot
    1  0.000  0.000  0.304  0.304  0.000  0.000  0.000  0.000  0.000  0.608
 
band     5 # energy   22.85823416 # occ.  0.00000000
 
ion      s     py     pz     px    dxy    dyz    dz2    dxz  x2-y2    tot
    1  0.000  0.000  0.049  0.049  0.000  0.000  0.000  0.000  0.000  0.098
 
band     6 # energy   23.42412902 # occ.  0.00000000
 
ion      s     py     pz     px    dxy    dyz    dz2    dxz  x2-y2    tot
    1  0.027  0.286  0.005  0.005  0.000  0.000  0.000  0.000  0.000  0.322
 
band     7 # energy   24.70185626 # occ.  0.00000000
 
ion      s     py     pz     px    dxy    dyz    dz2    dxz  x2-y2    tot
    1  0.039  0.040  0.070  0.070  0.000  0.000  0.000  0.000  0.000  0.220
 
band     8 # energy   25.53319237 # occ.  0.00000000
 
ion      s     py     pz     px    dxy    dyz    dz2    dxz  x2-y2    tot
    1  0.000  0.000  0.001  0.001  0.000  0.000  0.000  0.000  0.000  0.002
 

 k-point    22 :   -0.06666667 0.06666667 0.00000000     weight = 0.00355556

band     1 # energy   -4.03839922 # occ.  2.00000000
 
ion      s     py     pz     px    dxy    dyz    dz2    dxz  x2-y2    tot
    1  0.377  0.000  0.004  0.004  0.000  0.000  0.000  0.000  0.000  0.386
 
band     2 # energy   17.76800010 # occ.  0.00000000
 
ion      s     py     pz     px    dxy    dyz    dz2    dxz  x2-y2    tot
    1  0.000  0.330  0.000  0.000  0.000  0.000  0.000  0.000  0.000  0.330
 
band     3 # energy   17.95335350 # occ.  0.00000000
 
ion      s     py     pz     px    dxy    dyz    dz2    dxz  x2-y2    tot
    1  0.040  0.000  0.212  0.212  0.000  0.000  0.000  0.000  0.000  0.463
 
band     4 # energy   20.76751221 # occ.  0.00000000
 
ion      s     py     pz     px    dxy    dyz    dz2    dxz  x2-y2    tot
    1  0.000  0.000  0.348  0.348  0.000  0.000  0.000  0.000  0.000  0.696
 
band     5 # energy   22.12603304 # occ.  0.00000000
 
ion      s     py     pz     px    dxy    dyz    dz2    dxz  x2-y2    tot
    1  0.000  0.000  0.000  0.000  0.000  0.000  0.000  0.000  0.000  0.000
 
band     6 # energy   23.07130544 # occ.  0.00000000
 
ion      s     py     pz     px    dxy    dyz    dz2    dxz  x2-y2    tot
    1  0.000  0.334  0.000  0.000  0.000  0.000  0.000  0.000  0.000  0.334
 
band     7 # energy   24.01932842 # occ.  0.00000000
 
ion      s     py     pz     px    dxy    dyz    dz2    dxz  x2-y2    tot
    1  0.034  0.000  0.086  0.086  0.000  0.000  0.000  0.000  0.000  0.205
 
band     8 # energy   26.64731554 # occ.  0.00000000
 
ion      s     py     pz     px    dxy    dyz    dz2    dxz  x2-y2    tot
    1  0.000  0.000  0.002  0.002  0.000  0.000  0.000  0.000  0.000  0.004
 

 k-point    23 :    0.13333333 0.13333333 0.00000000     weight = 0.00177778

band     1 # energy   -3.69953536 # occ.  2.00000000
 
ion      s     py     pz     px    dxy    dyz    dz2    dxz  x2-y2    tot
    1  0.369  0.017  0.000  0.000  0.000  0.000  0.000  0.000  0.000  0.387
 
band     2 # energy   17.44983030 # occ.  0.00000000
 
ion      s     py     pz     px    dxy    dyz    dz2    dxz  x2-y2    tot
    1  0.000  0.000  0.213  0.213  0.000  0.000  0.000  0.000  0.000  0.427
 
band     3 # energy   17.44992726 # occ.  0.00000000
 
ion      s     py     pz     px    dxy    dyz    dz2    dxz  x2-y2    tot
    1  0.000  0.000  0.213  0.213  0.000  0.000  0.000  0.000  0.000  0.427
 
band     4 # energy   19.22364315 # occ.  0.00000000
 
ion      s     py     pz     px    dxy    dyz    dz2    dxz  x2-y2    tot
    1  0.118  0.567  0.000  0.000  0.000  0.000  0.000  0.000  0.000  0.685
 
band     5 # energy   19.25422415 # occ.  0.00000000
 
ion      s     py     pz     px    dxy    dyz    dz2    dxz  x2-y2    tot
    1  0.000  0.000  0.000  0.000  0.000  0.000  0.000  0.000  0.000  0.000
 
band     6 # energy   23.60808135 # occ.  0.00000000
 
ion      s     py     pz     px    dxy    dyz    dz2    dxz  x2-y2    tot
    1  0.005  0.015  0.000  0.000  0.000  0.000  0.000  0.000  0.000  0.020
 
band     7 # energy   25.89636380 # occ.  0.00000000
 
ion      s     py     pz     px    dxy    dyz    dz2    dxz  x2-y2    tot
    1  0.000  0.000  0.128  0.128  0.000  0.000  0.000  0.000  0.000  0.257
 
band     8 # energy   25.89638467 # occ.  0.00000000
 
ion      s     py     pz     px    dxy    dyz    dz2    dxz  x2-y2    tot
    1  0.000  0.000  0.128  0.128  0.000  0.000  0.000  0.000  0.000  0.257
 

 k-point    24 :    0.20000000 0.13333333 0.00000000     weight = 0.00711111

band     1 # energy   -3.23472536 # occ.  2.00000000
 
ion      s     py     pz     px    dxy    dyz    dz2    dxz  x2-y2    tot
    1  0.359  0.026  0.001  0.001  0.000  0.000  0.000  0.000  0.000  0.387
 
band     2 # energy   15.31204468 # occ.  0.00000000
 
ion      s     py     pz     px    dxy    dyz    dz2    dxz  x2-y2    tot
    1  0.034  0.047  0.146  0.146  0.000  0.000  0.000  0.000  0.000  0.373
 
band     3 # energy   16.75126463 # occ.  0.00000000
 
ion      s     py     pz     px    dxy    dyz    dz2    dxz  x2-y2    tot
    1  0.000  0.000  0.215  0.215  0.000  0.000  0.000  0.000  0.000  0.431
 
band     4 # energy   18.49991602 # occ.  0.00000000
 
ion      s     py     pz     px    dxy    dyz    dz2    dxz  x2-y2    tot
    1  0.103  0.367  0.003  0.003  0.000  0.000  0.000  0.000  0.000  0.477
 
band     5 # energy   19.67807799 # occ.  0.00000000
 
ion      s     py     pz     px    dxy    dyz    dz2    dxz  x2-y2    tot
    1  0.015  0.121  0.059  0.059  0.000  0.000  0.000  0.000  0.000  0.253
 
band     6 # energy   22.25361625 # occ.  0.00000000
 
ion      s     py     pz     px    dxy    dyz    dz2    dxz  x2-y2    tot
    1  0.014  0.000  0.011  0.011  0.000  0.000  0.000  0.000  0.000  0.036
 
band     7 # energy   26.60388007 # occ.  0.00000000
 
ion      s     py     pz     px    dxy    dyz    dz2    dxz  x2-y2    tot
    1  0.020  0.001  0.107  0.107  0.000  0.000  0.000  0.000  0.000  0.234
 
band     8 # energy   26.84975615 # occ.  0.00000000
 
ion      s     py     pz     px    dxy    dyz    dz2    dxz  x2-y2    tot
    1  0.000  0.000  0.124  0.124  0.000  0.000  0.000  0.000  0.000  0.248
 

 k-point    25 :    0.26666667 0.13333333 0.00000000     weight = 0.00711111

band     1 # energy   -2.51866335 # occ.  2.00000000
 
ion      s     py     pz     px    dxy    dyz    dz2    dxz  x2-y2    tot
    1  0.344  0.037  0.004  0.004  0.000  0.000  0.000  0.000  0.000  0.389
 
band     2 # energy   12.63419391 # occ.  0.00000000
 
ion      s     py     pz     px    dxy    dyz    dz2    dxz  x2-y2    tot
    1  0.066  0.053  0.121  0.121  0.000  0.000  0.000  0.000  0.000  0.362
 
band     3 # energy   16.26641739 # occ.  0.00000000
 
ion      s     py     pz     px    dxy    dyz    dz2    dxz  x2-y2    tot
    1  0.000  0.000  0.219  0.219  0.000  0.000  0.000  0.000  0.000  0.439
 
band     4 # energy   17.76189110 # occ.  0.00000000
 
ion      s     py     pz     px    dxy    dyz    dz2    dxz  x2-y2    tot
    1  0.118  0.377  0.014  0.014  0.000  0.000  0.000  0.000  0.000  0.523
 
band     5 # energy   19.65806161 # occ.  0.00000000
 
ion      s     py     pz     px    dxy    dyz    dz2    dxz  x2-y2    tot
    1  0.001  0.035  0.022  0.022  0.000  0.000  0.000  0.000  0.000  0.080
 
band     6 # energy   22.52800766 # occ.  0.00000000
 
ion      s     py     pz     px    dxy    dyz    dz2    dxz  x2-y2    tot
    1  0.015  0.028  0.077  0.077  0.000  0.000  0.000  0.000  0.000  0.196
 
band     7 # energy   26.62376293 # occ.  0.00000000
 
ion      s     py     pz     px    dxy    dyz    dz2    dxz  x2-y2    tot
    1  0.000  0.000  0.094  0.095  0.000  0.000  0.000  0.000  0.000  0.188
 
band     8 # energy   26.75500254 # occ.  0.00000000
 
ion      s     py     pz     px    dxy    dyz    dz2    dxz  x2-y2    tot
    1  0.058  0.004  0.069  0.068  0.000  0.000  0.000  0.000  0.000  0.199
 

 k-point    26 :    0.33333333 0.13333333 0.00000000     weight = 0.00711111

band     1 # energy   -1.55393021 # occ.  2.00000000
 
ion      s     py     pz     px    dxy    dyz    dz2    dxz  x2-y2    tot
    1  0.325  0.049  0.008  0.008  0.000  0.000  0.000  0.000  0.000  0.391
 
band     2 # energy   10.05506023 # occ.  0.80951049
 
ion      s     py     pz     px    dxy    dyz    dz2    dxz  x2-y2    tot
    1  0.097  0.049  0.109  0.109  0.000  0.000  0.000  0.000  0.000  0.364
 
band     3 # energy   15.99921978 # occ.  0.00000000
 
ion      s     py     pz     px    dxy    dyz    dz2    dxz  x2-y2    tot
    1  0.000  0.000  0.224  0.224  0.000  0.000  0.000  0.000  0.000  0.447
 
band     4 # energy   16.95162189 # occ.  0.00000000
 
ion      s     py     pz     px    dxy    dyz    dz2    dxz  x2-y2    tot
    1  0.113  0.364  0.025  0.025  0.000  0.000  0.000  0.000  0.000  0.528
 
band     5 # energy   19.09022343 # occ.  0.00000000
 
ion      s     py     pz     px    dxy    dyz    dz2    dxz  x2-y2    tot
    1  0.022  0.000  0.002  0.002  0.000  0.000  0.000  0.000  0.000  0.026
 
band     6 # energy   23.95936597 # occ.  0.00000000
 
ion      s     py     pz     px    dxy    dyz    dz2    dxz  x2-y2    tot
    1  0.001  0.045  0.123  0.123  0.000  0.000  0.000  0.000  0.000  0.292
 
band     7 # energy   25.68188947 # occ.  0.00000000
 
ion      s     py     pz     px    dxy    dyz    dz2    dxz  x2-y2    tot
    1  0.000  0.000  0.080  0.080  0.000  0.000  0.000  0.000  0.000  0.161
 
band     8 # energy   26.94993471 # occ.  0.00000000
 
ion      s     py     pz     px    dxy    dyz    dz2    dxz  x2-y2    tot
    1  0.094  0.008  0.024  0.024  0.000  0.000  0.000  0.000  0.000  0.150
 

 k-point    27 :    0.40000000 0.13333333 0.00000000     weight = 0.00711111

band     1 # energy   -0.34531189 # occ.  2.00000000
 
ion      s     py     pz     px    dxy    dyz    dz2    dxz  x2-y2    tot
    1  0.306  0.061  0.014  0.014  0.000  0.000  0.000  0.000  0.000  0.394
 
band     2 # energy    7.65076125 # occ.  2.00729518
 
ion      s     py     pz     px    dxy    dyz    dz2    dxz  x2-y2    tot
    1  0.126  0.044  0.099  0.099  0.000  0.000  0.000  0.000  0.000  0.368
 
band     3 # energy   15.94463535 # occ.  0.00000000
 
ion      s     py     pz     px    dxy    dyz    dz2    dxz  x2-y2    tot
    1  0.000  0.000  0.226  0.226  0.000  0.000  0.000  0.000  0.000  0.452
 
band     4 # energy   16.07852257 # occ.  0.00000000
 
ion      s     py     pz     px    dxy    dyz    dz2    dxz  x2-y2    tot
    1  0.099  0.324  0.034  0.034  0.000  0.000  0.000  0.000  0.000  0.491
 
band     5 # energy   18.81536988 # occ.  0.00000000
 
ion      s     py     pz     px    dxy    dyz    dz2    dxz  x2-y2    tot
    1  0.046  0.007  0.001  0.001  0.000  0.000  0.000  0.000  0.000  0.055
 
band     6 # energy   24.69486956 # occ.  0.00000000
 
ion      s     py     pz     px    dxy    dyz    dz2    dxz  x2-y2    tot
    1  0.000  0.000  0.077  0.077  0.000  0.000  0.000  0.000  0.000  0.154
 
band     7 # energy   25.16002697 # occ.  0.00000000
 
ion      s     py     pz     px    dxy    dyz    dz2    dxz  x2-y2    tot
    1  0.023  0.063  0.133  0.133  0.000  0.000  0.000  0.000  0.000  0.353
 
band     8 # energy   27.69463212 # occ.  0.00000000
 
ion      s     py     pz     px    dxy    dyz    dz2    dxz  x2-y2    tot
    1  0.088  0.005  0.001  0.001  0.000  0.000  0.000  0.000  0.000  0.094
 

 k-point    28 :    0.46666667 0.13333333 0.00000000     weight = 0.00711111

band     1 # energy    1.09613993 # occ.  2.00000000
 
ion      s     py     pz     px    dxy    dyz    dz2    dxz  x2-y2    tot
    1  0.293  0.071  0.018  0.018  0.000  0.000  0.000  0.000  0.000  0.400
 
band     2 # energy    5.45539804 # occ.  2.00000000
 
ion      s     py     pz     px    dxy    dyz    dz2    dxz  x2-y2    tot
    1  0.145  0.041  0.092  0.092  0.000  0.000  0.000  0.000  0.000  0.369
 
band     3 # energy   15.27025598 # occ.  0.00000000
 
ion      s     py     pz     px    dxy    dyz    dz2    dxz  x2-y2    tot
    1  0.090  0.285  0.040  0.040  0.000  0.000  0.000  0.000  0.000  0.455
 
band     4 # energy   16.10911678 # occ.  0.00000000
 
ion      s     py     pz     px    dxy    dyz    dz2    dxz  x2-y2    tot
    1  0.000  0.000  0.230  0.230  0.000  0.000  0.000  0.000  0.000  0.460
 
band     5 # energy   18.90081367 # occ.  0.00000000
 
ion      s     py     pz     px    dxy    dyz    dz2    dxz  x2-y2    tot
    1  0.060  0.016  0.007  0.007  0.000  0.000  0.000  0.000  0.000  0.091
 
band     6 # energy   23.86547349 # occ.  0.00000000
 
ion      s     py     pz     px    dxy    dyz    dz2    dxz  x2-y2    tot
    1  0.000  0.000  0.075  0.075  0.000  0.000  0.000  0.000  0.000  0.150
 
band     7 # energy   25.54873823 # occ.  0.00000000
 
ion      s     py     pz     px    dxy    dyz    dz2    dxz  x2-y2    tot
    1  0.080  0.084  0.090  0.090  0.000  0.000  0.000  0.000  0.000  0.344
 
band     8 # energy   29.16434405 # occ.  0.00000000
 
ion      s     py     pz     px    dxy    dyz    dz2    dxz  x2-y2    tot
    1  0.015  0.014  0.018  0.018  0.000  0.000  0.000  0.000  0.000  0.064
 

 k-point    29 :   -0.46666667 0.13333333 0.00000000     weight = 0.00711111

band     1 # energy    2.64944622 # occ.  2.00000000
 
ion      s     py     pz     px    dxy    dyz    dz2    dxz  x2-y2    tot
    1  0.390  0.045  0.003  0.003  0.000  0.000  0.000  0.000  0.000  0.441
 
band     2 # energy    3.59840627 # occ.  2.00000000
 
ion      s     py     pz     px    dxy    dyz    dz2    dxz  x2-y2    tot
    1  0.049  0.073  0.104  0.104  0.000  0.000  0.000  0.000  0.000  0.330
 
band     3 # energy   14.61438122 # occ.  0.00000000
 
ion      s     py     pz     px    dxy    dyz    dz2    dxz  x2-y2    tot
    1  0.086  0.252  0.047  0.047  0.000  0.000  0.000  0.000  0.000  0.433
 
band     4 # energy   16.48274647 # occ.  0.00000000
 
ion      s     py     pz     px    dxy    dyz    dz2    dxz  x2-y2    tot
    1  0.000  0.000  0.235  0.235  0.000  0.000  0.000  0.000  0.000  0.469
 
band     5 # energy   19.27900156 # occ.  0.00000000
 
ion      s     py     pz     px    dxy    dyz    dz2    dxz  x2-y2    tot
    1  0.066  0.019  0.016  0.016  0.000  0.000  0.000  0.000  0.000  0.117
 
band     6 # energy   23.23422529 # occ.  0.00000000
 
ion      s     py     pz     px    dxy    dyz    dz2    dxz  x2-y2    tot
    1  0.000  0.000  0.072  0.072  0.000  0.000  0.000  0.000  0.000  0.144
 
band     7 # energy   25.46944112 # occ.  0.00000000
 
ion      s     py     pz     px    dxy    dyz    dz2    dxz  x2-y2    tot
    1  0.106  0.109  0.051  0.051  0.000  0.000  0.000  0.000  0.000  0.317
 
band     8 # energy   29.27489142 # occ.  0.00000000
 
ion      s     py     pz     px    dxy    dyz    dz2    dxz  x2-y2    tot
    1  0.001  0.030  0.001  0.001  0.000  0.000  0.000  0.000  0.000  0.033
 

 k-point    30 :   -0.40000000 0.13333333 0.00000000     weight = 0.00711111

band     1 # energy    1.62149519 # occ.  2.00000000
 
ion      s     py     pz     px    dxy    dyz    dz2    dxz  x2-y2    tot
    1  0.297  0.009  0.049  0.049  0.000  0.000  0.000  0.000  0.000  0.404
 
band     2 # energy    4.77754209 # occ.  2.00000000
 
ion      s     py     pz     px    dxy    dyz    dz2    dxz  x2-y2    tot
    1  0.141  0.116  0.054  0.054  0.000  0.000  0.000  0.000  0.000  0.365
 
band     3 # energy   14.15296138 # occ.  0.00000000
 
ion      s     py     pz     px    dxy    dyz    dz2    dxz  x2-y2    tot
    1  0.084  0.223  0.056  0.056  0.000  0.000  0.000  0.000  0.000  0.419
 
band     4 # energy   17.05339833 # occ.  0.00000000
 
ion      s     py     pz     px    dxy    dyz    dz2    dxz  x2-y2    tot
    1  0.000  0.000  0.241  0.241  0.000  0.000  0.000  0.000  0.000  0.483
 
band     5 # energy   19.90977580 # occ.  0.00000000
 
ion      s     py     pz     px    dxy    dyz    dz2    dxz  x2-y2    tot
    1  0.065  0.016  0.026  0.026  0.000  0.000  0.000  0.000  0.000  0.134
 
band     6 # energy   22.80683125 # occ.  0.00000000
 
ion      s     py     pz     px    dxy    dyz    dz2    dxz  x2-y2    tot
    1  0.000  0.000  0.064  0.064  0.000  0.000  0.000  0.000  0.000  0.129
 
band     7 # energy   25.24635897 # occ.  0.00000000
 
ion      s     py     pz     px    dxy    dyz    dz2    dxz  x2-y2    tot
    1  0.106  0.138  0.025  0.025  0.000  0.000  0.000  0.000  0.000  0.293
 
band     8 # energy   29.56579656 # occ.  0.00000000
 
ion      s     py     pz     px    dxy    dyz    dz2    dxz  x2-y2    tot
    1  0.001  0.054  0.001  0.001  0.000  0.000  0.000  0.000  0.000  0.057
 

 k-point    31 :   -0.33333333 0.13333333 0.00000000     weight = 0.00711111

band     1 # energy    0.11015307 # occ.  2.00000000
 
ion      s     py     pz     px    dxy    dyz    dz2    dxz  x2-y2    tot
    1  0.301  0.007  0.044  0.044  0.000  0.000  0.000  0.000  0.000  0.396
 
band     2 # energy    6.89282342 # occ.  2.00000000
 
ion      s     py     pz     px    dxy    dyz    dz2    dxz  x2-y2    tot
    1  0.131  0.125  0.056  0.056  0.000  0.000  0.000  0.000  0.000  0.368
 
band     3 # energy   13.90588196 # occ.  0.00000000
 
ion      s     py     pz     px    dxy    dyz    dz2    dxz  x2-y2    tot
    1  0.083  0.195  0.066  0.066  0.000  0.000  0.000  0.000  0.000  0.410
 
band     4 # energy   17.80377858 # occ.  0.00000000
 
ion      s     py     pz     px    dxy    dyz    dz2    dxz  x2-y2    tot
    1  0.000  0.000  0.252  0.252  0.000  0.000  0.000  0.000  0.000  0.504
 
band     5 # energy   20.77155412 # occ.  0.00000000
 
ion      s     py     pz     px    dxy    dyz    dz2    dxz  x2-y2    tot
    1  0.060  0.012  0.036  0.036  0.000  0.000  0.000  0.000  0.000  0.145
 
band     6 # energy   22.64571723 # occ.  0.00000000
 
ion      s     py     pz     px    dxy    dyz    dz2    dxz  x2-y2    tot
    1  0.000  0.000  0.053  0.053  0.000  0.000  0.000  0.000  0.000  0.106
 
band     7 # energy   25.02198103 # occ.  0.00000000
 
ion      s     py     pz     px    dxy    dyz    dz2    dxz  x2-y2    tot
    1  0.089  0.175  0.010  0.010  0.000  0.000  0.000  0.000  0.000  0.284
 
band     8 # energy   29.19053403 # occ.  0.00000000
 
ion      s     py     pz     px    dxy    dyz    dz2    dxz  x2-y2    tot
    1  0.000  0.000  0.039  0.039  0.000  0.000  0.000  0.000  0.000  0.078
 

 k-point    32 :   -0.26666667 0.13333333 0.00000000     weight = 0.00711111

band     1 # energy   -1.17808027 # occ.  2.00000000
 
ion      s     py     pz     px    dxy    dyz    dz2    dxz  x2-y2    tot
    1  0.319  0.004  0.035  0.035  0.000  0.000  0.000  0.000  0.000  0.392
 
band     2 # energy    9.22841482 # occ.  1.68358349
 
ion      s     py     pz     px    dxy    dyz    dz2    dxz  x2-y2    tot
    1  0.102  0.141  0.060  0.060  0.000  0.000  0.000  0.000  0.000  0.363
 
band     3 # energy   13.88140218 # occ.  0.00000000
 
ion      s     py     pz     px    dxy    dyz    dz2    dxz  x2-y2    tot
    1  0.082  0.165  0.079  0.079  0.000  0.000  0.000  0.000  0.000  0.406
 
band     4 # energy   18.69510250 # occ.  0.00000000
 
ion      s     py     pz     px    dxy    dyz    dz2    dxz  x2-y2    tot
    1  0.000  0.000  0.271  0.271  0.000  0.000  0.000  0.000  0.000  0.542
 
band     5 # energy   21.85728144 # occ.  0.00000000
 
ion      s     py     pz     px    dxy    dyz    dz2    dxz  x2-y2    tot
    1  0.054  0.008  0.046  0.046  0.000  0.000  0.000  0.000  0.000  0.153
 
band     6 # energy   22.76602819 # occ.  0.00000000
 
ion      s     py     pz     px    dxy    dyz    dz2    dxz  x2-y2    tot
    1  0.000  0.000  0.034  0.034  0.000  0.000  0.000  0.000  0.000  0.068
 
band     7 # energy   24.82183719 # occ.  0.00000000
 
ion      s     py     pz     px    dxy    dyz    dz2    dxz  x2-y2    tot
    1  0.061  0.227  0.002  0.002  0.000  0.000  0.000  0.000  0.000  0.293
 
band     8 # energy   27.01067949 # occ.  0.00000000
 
ion      s     py     pz     px    dxy    dyz    dz2    dxz  x2-y2    tot
    1  0.000  0.000  0.046  0.046  0.000  0.000  0.000  0.000  0.000  0.092
 

 k-point    33 :   -0.20000000 0.13333333 0.00000000     weight = 0.00711111

band     1 # energy   -2.22487703 # occ.  2.00000000
 
ion      s     py     pz     px    dxy    dyz    dz2    dxz  x2-y2    tot
    1  0.338  0.001  0.025  0.025  0.000  0.000  0.000  0.000  0.000  0.389
 
band     2 # energy   11.74163995 # occ. -0.09000901
 
ion      s     py     pz     px    dxy    dyz    dz2    dxz  x2-y2    tot
    1  0.066  0.170  0.057  0.057  0.000  0.000  0.000  0.000  0.000  0.350
 
band     3 # energy   14.09356015 # occ.  0.00000000
 
ion      s     py     pz     px    dxy    dyz    dz2    dxz  x2-y2    tot
    1  0.083  0.125  0.100  0.100  0.000  0.000  0.000  0.000  0.000  0.409
 
band     4 # energy   19.64141044 # occ.  0.00000000
 
ion      s     py     pz     px    dxy    dyz    dz2    dxz  x2-y2    tot
    1  0.000  0.000  0.300  0.300  0.000  0.000  0.000  0.000  0.000  0.600
 
band     5 # energy   23.09377899 # occ.  0.00000000
 
ion      s     py     pz     px    dxy    dyz    dz2    dxz  x2-y2    tot
    1  0.048  0.003  0.055  0.056  0.000  0.000  0.000  0.000  0.000  0.162
 
band     6 # energy   23.13369241 # occ.  0.00000000
 
ion      s     py     pz     px    dxy    dyz    dz2    dxz  x2-y2    tot
    1  0.000  0.000  0.012  0.011  0.000  0.000  0.000  0.000  0.000  0.023
 
band     7 # energy   24.60119372 # occ.  0.00000000
 
ion      s     py     pz     px    dxy    dyz    dz2    dxz  x2-y2    tot
    1  0.022  0.297  0.000  0.000  0.000  0.000  0.000  0.000  0.000  0.320
 
band     8 # energy   25.16806946 # occ.  0.00000000
 
ion      s     py     pz     px    dxy    dyz    dz2    dxz  x2-y2    tot
    1  0.000  0.000  0.044  0.044  0.000  0.000  0.000  0.000  0.000  0.088
 

 k-point    34 :   -0.13333333 0.13333333 0.00000000     weight = 0.00355556

band     1 # energy   -3.02408829 # occ.  2.00000000
 
ion      s     py     pz     px    dxy    dyz    dz2    dxz  x2-y2    tot
    1  0.355  0.000  0.017  0.017  0.000  0.000  0.000  0.000  0.000  0.388
 
band     2 # energy   14.19078403 # occ.  0.00000000
 
ion      s     py     pz     px    dxy    dyz    dz2    dxz  x2-y2    tot
    1  0.000  0.290  0.000  0.000  0.000  0.000  0.000  0.000  0.000  0.290
 
band     3 # energy   14.73572052 # occ.  0.00000000
 
ion      s     py     pz     px    dxy    dyz    dz2    dxz  x2-y2    tot
    1  0.111  0.000  0.176  0.176  0.000  0.000  0.000  0.000  0.000  0.463
 
band     4 # energy   20.42607244 # occ.  0.00000000
 
ion      s     py     pz     px    dxy    dyz    dz2    dxz  x2-y2    tot
    1  0.000  0.000  0.339  0.339  0.000  0.000  0.000  0.000  0.000  0.677
 
band     5 # energy   23.10748173 # occ.  0.00000000
 
ion      s     py     pz     px    dxy    dyz    dz2    dxz  x2-y2    tot
    1  0.000  0.000  0.000  0.000  0.000  0.000  0.000  0.000  0.000  0.000
 
band     6 # energy   24.15933321 # occ.  0.00000000
 
ion      s     py     pz     px    dxy    dyz    dz2    dxz  x2-y2    tot
    1  0.000  0.346  0.000  0.000  0.000  0.000  0.000  0.000  0.000  0.346
 
band     7 # energy   24.28904481 # occ.  0.00000000
 
ion      s     py     pz     px    dxy    dyz    dz2    dxz  x2-y2    tot
    1  0.048  0.000  0.066  0.066  0.000  0.000  0.000  0.000  0.000  0.180
 
band     8 # energy   24.46916776 # occ.  0.00000000
 
ion      s     py     pz     px    dxy    dyz    dz2    dxz  x2-y2    tot
    1  0.000  0.000  0.017  0.017  0.000  0.000  0.000  0.000  0.000  0.034
 

 k-point    35 :    0.20000000 0.20000000 0.00000000     weight = 0.00177778

band     1 # energy   -2.85500824 # occ.  2.00000000
 
ion      s     py     pz     px    dxy    dyz    dz2    dxz  x2-y2    tot
    1  0.350  0.038  0.000  0.000  0.000  0.000  0.000  0.000  0.000  0.388
 
band     2 # energy   15.98264973 # occ.  0.00000000
 
ion      s     py     pz     px    dxy    dyz    dz2    dxz  x2-y2    tot
    1  0.000  0.000  0.218  0.218  0.000  0.000  0.000  0.000  0.000  0.435
 
band     3 # energy   15.98273944 # occ.  0.00000000
 
ion      s     py     pz     px    dxy    dyz    dz2    dxz  x2-y2    tot
    1  0.000  0.000  0.218  0.218  0.000  0.000  0.000  0.000  0.000  0.435
 
band     4 # energy   17.50602098 # occ.  0.00000000
 
ion      s     py     pz     px    dxy    dyz    dz2    dxz  x2-y2    tot
    1  0.180  0.484  0.000  0.000  0.000  0.000  0.000  0.000  0.000  0.664
 
band     5 # energy   17.69702929 # occ.  0.00000000
 
ion      s     py     pz     px    dxy    dyz    dz2    dxz  x2-y2    tot
    1  0.000  0.000  0.000  0.000  0.000  0.000  0.000  0.000  0.000  0.000
 
band     6 # energy   20.57749710 # occ.  0.00000000
 
ion      s     py     pz     px    dxy    dyz    dz2    dxz  x2-y2    tot
    1  0.037  0.001  0.000  0.000  0.000  0.000  0.000  0.000  0.000  0.039
 
band     7 # energy   28.28919242 # occ.  0.00000000
 
ion      s     py     pz     px    dxy    dyz    dz2    dxz  x2-y2    tot
    1  0.000  0.000  0.122  0.124  0.000  0.000  0.000  0.000  0.000  0.246
 
band     8 # energy   28.28924277 # occ.  0.00000000
 
ion      s     py     pz     px    dxy    dyz    dz2    dxz  x2-y2    tot
    1  0.000  0.000  0.124  0.122  0.000  0.000  0.000  0.000  0.000  0.246
 

 k-point    36 :    0.26666667 0.20000000 0.00000000     weight = 0.00711111

band     1 # energy   -2.22396670 # occ.  2.00000000
 
ion      s     py     pz     px    dxy    dyz    dz2    dxz  x2-y2    tot
    1  0.337  0.050  0.001  0.001  0.000  0.000  0.000  0.000  0.000  0.389
 
band     2 # energy   13.93760874 # occ.  0.00000000
 
ion      s     py     pz     px    dxy    dyz    dz2    dxz  x2-y2    tot
    1  0.045  0.038  0.147  0.147  0.000  0.000  0.000  0.000  0.000  0.378
 
band     3 # energy   15.42695433 # occ.  0.00000000
 
ion      s     py     pz     px    dxy    dyz    dz2    dxz  x2-y2    tot
    1  0.000  0.000  0.221  0.221  0.000  0.000  0.000  0.000  0.000  0.442
 
band     4 # energy   16.44548087 # occ.  0.00000000
 
ion      s     py     pz     px    dxy    dyz    dz2    dxz  x2-y2    tot
    1  0.144  0.369  0.010  0.010  0.000  0.000  0.000  0.000  0.000  0.532
 
band     5 # energy   17.91667102 # occ.  0.00000000
 
ion      s     py     pz     px    dxy    dyz    dz2    dxz  x2-y2    tot
    1  0.002  0.005  0.033  0.033  0.000  0.000  0.000  0.000  0.000  0.073
 
band     6 # energy   20.08930466 # occ.  0.00000000
 
ion      s     py     pz     px    dxy    dyz    dz2    dxz  x2-y2    tot
    1  0.070  0.026  0.032  0.032  0.000  0.000  0.000  0.000  0.000  0.161
 
band     7 # energy   28.66574893 # occ.  0.00000000
 
ion      s     py     pz     px    dxy    dyz    dz2    dxz  x2-y2    tot
    1  0.000  0.000  0.090  0.090  0.000  0.000  0.000  0.000  0.000  0.180
 
band     8 # energy   29.01353811 # occ.  0.00000000
 
ion      s     py     pz     px    dxy    dyz    dz2    dxz  x2-y2    tot
    1  0.016  0.004  0.105  0.104  0.000  0.000  0.000  0.000  0.000  0.230
 

 k-point    37 :    0.33333333 0.20000000 0.00000000     weight = 0.00711111

band     1 # energy   -1.34378193 # occ.  2.00000000
 
ion      s     py     pz     px    dxy    dyz    dz2    dxz  x2-y2    tot
    1  0.319  0.064  0.004  0.004  0.000  0.000  0.000  0.000  0.000  0.391
 
band     2 # energy   11.38558038 # occ. -0.12080507
 
ion      s     py     pz     px    dxy    dyz    dz2    dxz  x2-y2    tot
    1  0.081  0.040  0.125  0.125  0.000  0.000  0.000  0.000  0.000  0.370
 
band     3 # energy   15.08621435 # occ.  0.00000000
 
ion      s     py     pz     px    dxy    dyz    dz2    dxz  x2-y2    tot
    1  0.000  0.000  0.223  0.223  0.000  0.000  0.000  0.000  0.000  0.446
 
band     4 # energy   15.26980766 # occ.  0.00000000
 
ion      s     py     pz     px    dxy    dyz    dz2    dxz  x2-y2    tot
    1  0.126  0.318  0.015  0.015  0.000  0.000  0.000  0.000  0.000  0.475
 
band     5 # energy   17.80795540 # occ.  0.00000000
 
ion      s     py     pz     px    dxy    dyz    dz2    dxz  x2-y2    tot
    1  0.043  0.004  0.005  0.005  0.000  0.000  0.000  0.000  0.000  0.058
 
band     6 # energy   21.30763038 # occ.  0.00000000
 
ion      s     py     pz     px    dxy    dyz    dz2    dxz  x2-y2    tot
    1  0.045  0.035  0.086  0.086  0.000  0.000  0.000  0.000  0.000  0.251
 
band     7 # energy   27.88600928 # occ.  0.00000000
 
ion      s     py     pz     px    dxy    dyz    dz2    dxz  x2-y2    tot
    1  0.000  0.000  0.075  0.075  0.000  0.000  0.000  0.000  0.000  0.149
 
band     8 # energy   29.18088728 # occ.  0.00000000
 
ion      s     py     pz     px    dxy    dyz    dz2    dxz  x2-y2    tot
    1  0.047  0.019  0.075  0.075  0.000  0.000  0.000  0.000  0.000  0.215
 

 k-point    38 :    0.40000000 0.20000000 0.00000000     weight = 0.00711111

band     1 # energy   -0.21828346 # occ.  2.00000000
 
ion      s     py     pz     px    dxy    dyz    dz2    dxz  x2-y2    tot
    1  0.300  0.079  0.008  0.008  0.000  0.000  0.000  0.000  0.000  0.394
 
band     2 # energy    8.94489453 # occ.  1.92327256
 
ion      s     py     pz     px    dxy    dyz    dz2    dxz  x2-y2    tot
    1  0.112  0.035  0.112  0.112  0.000  0.000  0.000  0.000  0.000  0.370
 
band     3 # energy   14.14112133 # occ.  0.00000000
 
ion      s     py     pz     px    dxy    dyz    dz2    dxz  x2-y2    tot
    1  0.118  0.279  0.020  0.020  0.000  0.000  0.000  0.000  0.000  0.438
 
band     4 # energy   14.96973243 # occ.  0.00000000
 
ion      s     py     pz     px    dxy    dyz    dz2    dxz  x2-y2    tot
    1  0.000  0.000  0.226  0.226  0.000  0.000  0.000  0.000  0.000  0.451
 
band     5 # energy   17.67958763 # occ.  0.00000000
 
ion      s     py     pz     px    dxy    dyz    dz2    dxz  x2-y2    tot
    1  0.074  0.013  0.000  0.000  0.000  0.000  0.000  0.000  0.000  0.087
 
band     6 # energy   23.18780486 # occ.  0.00000000
 
ion      s     py     pz     px    dxy    dyz    dz2    dxz  x2-y2    tot
    1  0.019  0.032  0.112  0.112  0.000  0.000  0.000  0.000  0.000  0.274
 
band     7 # energy   26.92920266 # occ.  0.00000000
 
ion      s     py     pz     px    dxy    dyz    dz2    dxz  x2-y2    tot
    1  0.000  0.000  0.072  0.072  0.000  0.000  0.000  0.000  0.000  0.145
 
band     8 # energy   29.14868318 # occ.  0.00000000
 
ion      s     py     pz     px    dxy    dyz    dz2    dxz  x2-y2    tot
    1  0.077  0.040  0.043  0.043  0.000  0.000  0.000  0.000  0.000  0.203
 

 k-point    39 :    0.46666667 0.20000000 0.00000000     weight = 0.00711111

band     1 # energy    1.14373283 # occ.  2.00000000
 
ion      s     py     pz     px    dxy    dyz    dz2    dxz  x2-y2    tot
    1  0.282  0.092  0.012  0.012  0.000  0.000  0.000  0.000  0.000  0.398
 
band     2 # energy    6.68926730 # occ.  2.00000000
 
ion      s     py     pz     px    dxy    dyz    dz2    dxz  x2-y2    tot
    1  0.136  0.030  0.102  0.102  0.000  0.000  0.000  0.000  0.000  0.371
 
band     3 # energy   13.16098093 # occ.  0.00000000
 
ion      s     py     pz     px    dxy    dyz    dz2    dxz  x2-y2    tot
    1  0.117  0.248  0.026  0.026  0.000  0.000  0.000  0.000  0.000  0.418
 
band     4 # energy   15.07158013 # occ.  0.00000000
 
ion      s     py     pz     px    dxy    dyz    dz2    dxz  x2-y2    tot
    1  0.000  0.000  0.227  0.227  0.000  0.000  0.000  0.000  0.000  0.455
 
band     5 # energy   17.76904299 # occ.  0.00000000
 
ion      s     py     pz     px    dxy    dyz    dz2    dxz  x2-y2    tot
    1  0.089  0.015  0.003  0.003  0.000  0.000  0.000  0.000  0.000  0.111
 
band     6 # energy   25.15972633 # occ.  0.00000000
 
ion      s     py     pz     px    dxy    dyz    dz2    dxz  x2-y2    tot
    1  0.001  0.037  0.126  0.126  0.000  0.000  0.000  0.000  0.000  0.291
 
band     7 # energy   26.03844163 # occ.  0.00000000
 
ion      s     py     pz     px    dxy    dyz    dz2    dxz  x2-y2    tot
    1  0.000  0.000  0.073  0.073  0.000  0.000  0.000  0.000  0.000  0.145
 
band     8 # energy   29.01930528 # occ.  0.00000000
 
ion      s     py     pz     px    dxy    dyz    dz2    dxz  x2-y2    tot
    1  0.091  0.058  0.010  0.010  0.000  0.000  0.000  0.000  0.000  0.169
 

 k-point    40 :   -0.46666667 0.20000000 0.00000000     weight = 0.00711111

band     1 # energy    2.70905604 # occ.  2.00000000
 
ion      s     py     pz     px    dxy    dyz    dz2    dxz  x2-y2    tot
    1  0.298  0.096  0.010  0.010  0.000  0.000  0.000  0.000  0.000  0.413
 
band     2 # energy    4.67339699 # occ.  2.00000000
 
ion      s     py     pz     px    dxy    dyz    dz2    dxz  x2-y2    tot
    1  0.123  0.036  0.100  0.100  0.000  0.000  0.000  0.000  0.000  0.358
 
band     3 # energy   12.37880966 # occ. -0.01230171
 
ion      s     py     pz     px    dxy    dyz    dz2    dxz  x2-y2    tot
    1  0.117  0.221  0.034  0.034  0.000  0.000  0.000  0.000  0.000  0.406
 
band     4 # energy   15.39115756 # occ.  0.00000000
 
ion      s     py     pz     px    dxy    dyz    dz2    dxz  x2-y2    tot
    1  0.000  0.000  0.229  0.229  0.000  0.000  0.000  0.000  0.000  0.457
 
band     5 # energy   18.11544315 # occ.  0.00000000
 
ion      s     py     pz     px    dxy    dyz    dz2    dxz  x2-y2    tot
    1  0.094  0.012  0.010  0.010  0.000  0.000  0.000  0.000  0.000  0.127
 
band     6 # energy   25.33810738 # occ.  0.00000000
 
ion      s     py     pz     px    dxy    dyz    dz2    dxz  x2-y2    tot
    1  0.000  0.000  0.074  0.074  0.000  0.000  0.000  0.000  0.000  0.147
 
band     7 # energy   26.67117202 # occ.  0.00000000
 
ion      s     py     pz     px    dxy    dyz    dz2    dxz  x2-y2    tot
    1  0.016  0.077  0.113  0.113  0.000  0.000  0.000  0.000  0.000  0.320
 
band     8 # energy   29.34859640 # occ.  0.00000000
 
ion      s     py     pz     px    dxy    dyz    dz2    dxz  x2-y2    tot
    1  0.061  0.051  0.008  0.008  0.000  0.000  0.000  0.000  0.000  0.127
 

 k-point    41 :   -0.40000000 0.20000000 0.00000000     weight = 0.00711111

band     1 # energy    2.70842494 # occ.  2.00000000
 
ion      s     py     pz     px    dxy    dyz    dz2    dxz  x2-y2    tot
    1  0.302  0.001  0.055  0.055  0.000  0.000  0.000  0.000  0.000  0.414
 
band     2 # energy    4.67236823 # occ.  2.00000000
 
ion      s     py     pz     px    dxy    dyz    dz2    dxz  x2-y2    tot
    1  0.116  0.140  0.050  0.050  0.000  0.000  0.000  0.000  0.000  0.356
 
band     3 # energy   11.81351629 # occ. -0.08185216
 
ion      s     py     pz     px    dxy    dyz    dz2    dxz  x2-y2    tot
    1  0.120  0.194  0.044  0.044  0.000  0.000  0.000  0.000  0.000  0.401
 
band     4 # energy   15.92343671 # occ.  0.00000000
 
ion      s     py     pz     px    dxy    dyz    dz2    dxz  x2-y2    tot
    1  0.000  0.000  0.230  0.230  0.000  0.000  0.000  0.000  0.000  0.460
 
band     5 # energy   18.70300859 # occ.  0.00000000
 
ion      s     py     pz     px    dxy    dyz    dz2    dxz  x2-y2    tot
    1  0.092  0.008  0.019  0.019  0.000  0.000  0.000  0.000  0.000  0.138
 
band     6 # energy   24.83784329 # occ.  0.00000000
 
ion      s     py     pz     px    dxy    dyz    dz2    dxz  x2-y2    tot
    1  0.000  0.000  0.073  0.073  0.000  0.000  0.000  0.000  0.000  0.147
 
band     7 # energy   26.97805832 # occ.  0.00000000
 
ion      s     py     pz     px    dxy    dyz    dz2    dxz  x2-y2    tot
    1  0.050  0.142  0.051  0.051  0.000  0.000  0.000  0.000  0.000  0.293
 
band     8 # energy   30.53811262 # occ.  0.00000000
 
ion      s     py     pz     px    dxy    dyz    dz2    dxz  x2-y2    tot
    1  0.005  0.042  0.053  0.053  0.000  0.000  0.000  0.000  0.000  0.152
 

 k-point    42 :   -0.33333333 0.20000000 0.00000000     weight = 0.00711111

band     1 # energy    1.14271505 # occ.  2.00000000
 
ion      s     py     pz     px    dxy    dyz    dz2    dxz  x2-y2    tot
    1  0.285  0.003  0.055  0.055  0.000  0.000  0.000  0.000  0.000  0.398
 
band     2 # energy    6.68329585 # occ.  2.00000000
 
ion      s     py     pz     px    dxy    dyz    dz2    dxz  x2-y2    tot
    1  0.125  0.154  0.043  0.043  0.000  0.000  0.000  0.000  0.000  0.365
 
band     3 # energy   11.47898916 # occ. -0.10685952
 
ion      s     py     pz     px    dxy    dyz    dz2    dxz  x2-y2    tot
    1  0.124  0.164  0.056  0.056  0.000  0.000  0.000  0.000  0.000  0.401
 
band     4 # energy   16.65946393 # occ.  0.00000000
 
ion      s     py     pz     px    dxy    dyz    dz2    dxz  x2-y2    tot
    1  0.000  0.000  0.233  0.233  0.000  0.000  0.000  0.000  0.000  0.465
 
band     5 # energy   19.52055417 # occ.  0.00000000
 
ion      s     py     pz     px    dxy    dyz    dz2    dxz  x2-y2    tot
    1  0.086  0.004  0.028  0.028  0.000  0.000  0.000  0.000  0.000  0.147
 
band     6 # energy   24.55834078 # occ.  0.00000000
 
ion      s     py     pz     px    dxy    dyz    dz2    dxz  x2-y2    tot
    1  0.000  0.000  0.071  0.071  0.000  0.000  0.000  0.000  0.000  0.143
 
band     7 # energy   26.74241698 # occ.  0.00000000
 
ion      s     py     pz     px    dxy    dyz    dz2    dxz  x2-y2    tot
    1  0.044  0.201  0.017  0.017  0.000  0.000  0.000  0.000  0.000  0.280
 
band     8 # energy   29.01249274 # occ.  0.00000000
 
ion      s     py     pz     px    dxy    dyz    dz2    dxz  x2-y2    tot
    1  0.000  0.000  0.037  0.037  0.000  0.000  0.000  0.000  0.000  0.074
 

 k-point    43 :   -0.26666667 0.20000000 0.00000000     weight = 0.00711111

band     1 # energy   -0.21959724 # occ.  2.00000000
 
ion      s     py     pz     px    dxy    dyz    dz2    dxz  x2-y2    tot
    1  0.302  0.001  0.046  0.046  0.000  0.000  0.000  0.000  0.000  0.394
 
band     2 # energy    8.91797236 # occ.  2.04602060
 
ion      s     py     pz     px    dxy    dyz    dz2    dxz  x2-y2    tot
    1  0.087  0.187  0.040  0.040  0.000  0.000  0.000  0.000  0.000  0.355
 
band     3 # energy   11.39316376 # occ. -0.03827760
 
ion      s     py     pz     px    dxy    dyz    dz2    dxz  x2-y2    tot
    1  0.136  0.120  0.077  0.077  0.000  0.000  0.000  0.000  0.000  0.409
 
band     4 # energy   17.57812112 # occ.  0.00000000
 
ion      s     py     pz     px    dxy    dyz    dz2    dxz  x2-y2    tot
    1  0.000  0.000  0.240  0.240  0.000  0.000  0.000  0.000  0.000  0.479
 
band     5 # energy   20.55814301 # occ.  0.00000000
 
ion      s     py     pz     px    dxy    dyz    dz2    dxz  x2-y2    tot
    1  0.074  0.001  0.038  0.038  0.000  0.000  0.000  0.000  0.000  0.152
 
band     6 # energy   24.49127882 # occ.  0.00000000
 
ion      s     py     pz     px    dxy    dyz    dz2    dxz  x2-y2    tot
    1  0.000  0.000  0.067  0.067  0.000  0.000  0.000  0.000  0.000  0.133
 
band     7 # energy   26.31863015 # occ.  0.00000000
 
ion      s     py     pz     px    dxy    dyz    dz2    dxz  x2-y2    tot
    1  0.018  0.267  0.003  0.003  0.000  0.000  0.000  0.000  0.000  0.292
 
band     8 # energy   26.75457082 # occ.  0.00000000
 
ion      s     py     pz     px    dxy    dyz    dz2    dxz  x2-y2    tot
    1  0.000  0.000  0.043  0.043  0.000  0.000  0.000  0.000  0.000  0.085
 

 k-point    44 :   -0.20000000 0.20000000 0.00000000     weight = 0.00355556

band     1 # energy   -1.34485730 # occ.  2.00000000
 
ion      s     py     pz     px    dxy    dyz    dz2    dxz  x2-y2    tot
    1  0.321  0.000  0.035  0.035  0.000  0.000  0.000  0.000  0.000  0.391
 
band     2 # energy   11.06779730 # occ. -0.13340171
 
ion      s     py     pz     px    dxy    dyz    dz2    dxz  x2-y2    tot
    1  0.000  0.297  0.000  0.000  0.000  0.000  0.000  0.000  0.000  0.297
 
band     3 # energy   11.81603786 # occ.  0.00000000
 
ion      s     py     pz     px    dxy    dyz    dz2    dxz  x2-y2    tot
    1  0.189  0.000  0.136  0.136  0.000  0.000  0.000  0.000  0.000  0.462
 
band     4 # energy   18.63159831 # occ.  0.00000000
 
ion      s     py     pz     px    dxy    dyz    dz2    dxz  x2-y2    tot
    1  0.000  0.000  0.257  0.257  0.000  0.000  0.000  0.000  0.000  0.513
 
band     5 # energy   21.77332447 # occ.  0.00000000
 
ion      s     py     pz     px    dxy    dyz    dz2    dxz  x2-y2    tot
    1  0.061  0.000  0.047  0.047  0.000  0.000  0.000  0.000  0.000  0.155
 
band     6 # energy   24.65883118 # occ.  0.00000000
 
ion      s     py     pz     px    dxy    dyz    dz2    dxz  x2-y2    tot
    1  0.000  0.000  0.097  0.097  0.000  0.000  0.000  0.000  0.000  0.193
 
band     7 # energy   24.77125065 # occ.  0.00000000
 
ion      s     py     pz     px    dxy    dyz    dz2    dxz  x2-y2    tot
    1  0.000  0.000  0.000  0.000  0.000  0.000  0.000  0.000  0.000  0.000
 
band     8 # energy   25.64088860 # occ.  0.00000000
 
ion      s     py     pz     px    dxy    dyz    dz2    dxz  x2-y2    tot
    1  0.000  0.318  0.000  0.000  0.000  0.000  0.000  0.000  0.000  0.318
 

 k-point    45 :    0.26666667 0.26666667 0.00000000     weight = 0.00177778

band     1 # energy   -1.67759731 # occ.  2.00000000
 
ion      s     py     pz     px    dxy    dyz    dz2    dxz  x2-y2    tot
    1  0.326  0.066  0.000  0.000  0.000  0.000  0.000  0.000  0.000  0.391
 
band     2 # energy   14.79584283 # occ.  0.00000000
 
ion      s     py     pz     px    dxy    dyz    dz2    dxz  x2-y2    tot
    1  0.000  0.000  0.223  0.223  0.000  0.000  0.000  0.000  0.000  0.446
 
band     3 # energy   14.79594853 # occ.  0.00000000
 
ion      s     py     pz     px    dxy    dyz    dz2    dxz  x2-y2    tot
    1  0.000  0.000  0.223  0.223  0.000  0.000  0.000  0.000  0.000  0.446
 
band     4 # energy   14.89450857 # occ.  0.00000000
 
ion      s     py     pz     px    dxy    dyz    dz2    dxz  x2-y2    tot
    1  0.176  0.357  0.000  0.000  0.000  0.000  0.000  0.000  0.000  0.533
 
band     5 # energy   16.37766682 # occ.  0.00000000
 
ion      s     py     pz     px    dxy    dyz    dz2    dxz  x2-y2    tot
    1  0.000  0.000  0.000  0.000  0.000  0.000  0.000  0.000  0.000  0.000
 
band     6 # energy   18.68641336 # occ.  0.00000000
 
ion      s     py     pz     px    dxy    dyz    dz2    dxz  x2-y2    tot
    1  0.131  0.035  0.000  0.000  0.000  0.000  0.000  0.000  0.000  0.166
 
band     7 # energy   30.59772839 # occ.  0.00000000
 
ion      s     py     pz     px    dxy    dyz    dz2    dxz  x2-y2    tot
    1  0.000  0.000  0.076  0.144  0.000  0.000  0.000  0.000  0.000  0.220
 
band     8 # energy   30.59801071 # occ.  0.00000000
 
ion      s     py     pz     px    dxy    dyz    dz2    dxz  x2-y2    tot
    1  0.000  0.000  0.144  0.076  0.000  0.000  0.000  0.000  0.000  0.220
 

 k-point    46 :    0.33333333 0.26666667 0.00000000     weight = 0.00711111

band     1 # energy   -0.88316288 # occ.  2.00000000
 
ion      s     py     pz     px    dxy    dyz    dz2    dxz  x2-y2    tot
    1  0.309  0.081  0.001  0.001  0.000  0.000  0.000  0.000  0.000  0.392
 
band     2 # energy   12.79348579 # occ.  0.00000000
 
ion      s     py     pz     px    dxy    dyz    dz2    dxz  x2-y2    tot
    1  0.098  0.082  0.124  0.124  0.000  0.000  0.000  0.000  0.000  0.429
 
band     3 # energy   13.60885550 # occ.  0.00000000
 
ion      s     py     pz     px    dxy    dyz    dz2    dxz  x2-y2    tot
    1  0.095  0.227  0.037  0.037  0.000  0.000  0.000  0.000  0.000  0.396
 
band     4 # energy   14.38633127 # occ.  0.00000000
 
ion      s     py     pz     px    dxy    dyz    dz2    dxz  x2-y2    tot
    1  0.000  0.000  0.226  0.226  0.000  0.000  0.000  0.000  0.000  0.452
 
band     5 # energy   16.65599097 # occ.  0.00000000
 
ion      s     py     pz     px    dxy    dyz    dz2    dxz  x2-y2    tot
    1  0.026  0.003  0.024  0.024  0.000  0.000  0.000  0.000  0.000  0.076
 
band     6 # energy   18.83923695 # occ.  0.00000000
 
ion      s     py     pz     px    dxy    dyz    dz2    dxz  x2-y2    tot
    1  0.128  0.037  0.043  0.043  0.000  0.000  0.000  0.000  0.000  0.251
 
band     7 # energy   30.18217542 # occ.  0.00000000
 
ion      s     py     pz     px    dxy    dyz    dz2    dxz  x2-y2    tot
    1  0.000  0.000  0.057  0.058  0.000  0.000  0.000  0.000  0.000  0.115
 
band     8 # energy   31.28310750 # occ.  0.00000000
 
ion      s     py     pz     px    dxy    dyz    dz2    dxz  x2-y2    tot
    1  0.013  0.009  0.089  0.089  0.000  0.000  0.000  0.000  0.000  0.200
 

 k-point    47 :    0.40000000 0.26666667 0.00000000     weight = 0.00711111

band     1 # energy    0.15684870 # occ.  2.00000000
 
ion      s     py     pz     px    dxy    dyz    dz2    dxz  x2-y2    tot
    1  0.289  0.098  0.003  0.003  0.000  0.000  0.000  0.000  0.000  0.394
 
band     2 # energy   10.41857141 # occ.  0.41883036
 
ion      s     py     pz     px    dxy    dyz    dz2    dxz  x2-y2    tot
    1  0.110  0.041  0.120  0.120  0.000  0.000  0.000  0.000  0.000  0.391
 
band     3 # energy   12.28725038 # occ.  0.00000000
 
ion      s     py     pz     px    dxy    dyz    dz2    dxz  x2-y2    tot
    1  0.117  0.235  0.021  0.021  0.000  0.000  0.000  0.000  0.000  0.393
 
band     4 # energy   14.19785327 # occ.  0.00000000
 
ion      s     py     pz     px    dxy    dyz    dz2    dxz  x2-y2    tot
    1  0.000  0.000  0.228  0.228  0.000  0.000  0.000  0.000  0.000  0.457
 
band     5 # energy   16.72915931 # occ.  0.00000000
 
ion      s     py     pz     px    dxy    dyz    dz2    dxz  x2-y2    tot
    1  0.083  0.011  0.003  0.003  0.000  0.000  0.000  0.000  0.000  0.099
 
band     6 # energy   20.42787726 # occ.  0.00000000
 
ion      s     py     pz     px    dxy    dyz    dz2    dxz  x2-y2    tot
    1  0.070  0.023  0.090  0.090  0.000  0.000  0.000  0.000  0.000  0.272
 
band     7 # energy   29.30234043 # occ.  0.00000000
 
ion      s     py     pz     px    dxy    dyz    dz2    dxz  x2-y2    tot
    1  0.000  0.000  0.060  0.060  0.000  0.000  0.000  0.000  0.000  0.120
 
band     8 # energy   31.31842772 # occ.  0.00000000
 
ion      s     py     pz     px    dxy    dyz    dz2    dxz  x2-y2    tot
    1  0.035  0.035  0.061  0.061  0.000  0.000  0.000  0.000  0.000  0.193
 

 k-point    48 :    0.46666667 0.26666667 0.00000000     weight = 0.00711111

band     1 # energy    1.43625848 # occ.  2.00000000
 
ion      s     py     pz     px    dxy    dyz    dz2    dxz  x2-y2    tot
    1  0.269  0.114  0.007  0.007  0.000  0.000  0.000  0.000  0.000  0.397
 
band     2 # energy    8.13616732 # occ.  2.08993109
 
ion      s     py     pz     px    dxy    dyz    dz2    dxz  x2-y2    tot
    1  0.131  0.027  0.111  0.111  0.000  0.000  0.000  0.000  0.000  0.380
 
band     3 # energy   11.17180808 # occ. -0.08396317
 
ion      s     py     pz     px    dxy    dyz    dz2    dxz  x2-y2    tot
    1  0.129  0.218  0.022  0.022  0.000  0.000  0.000  0.000  0.000  0.391
 
band     4 # energy   14.23044205 # occ.  0.00000000
 
ion      s     py     pz     px    dxy    dyz    dz2    dxz  x2-y2    tot
    1  0.000  0.000  0.229  0.229  0.000  0.000  0.000  0.000  0.000  0.459
 
band     5 # energy   16.82113526 # occ.  0.00000000
 
ion      s     py     pz     px    dxy    dyz    dz2    dxz  x2-y2    tot
    1  0.107  0.010  0.000  0.000  0.000  0.000  0.000  0.000  0.000  0.118
 
band     6 # energy   22.53003221 # occ.  0.00000000
 
ion      s     py     pz     px    dxy    dyz    dz2    dxz  x2-y2    tot
    1  0.035  0.015  0.108  0.108  0.000  0.000  0.000  0.000  0.000  0.266
 
band     7 # energy   28.41501110 # occ.  0.00000000
 
ion      s     py     pz     px    dxy    dyz    dz2    dxz  x2-y2    tot
    1  0.000  0.000  0.063  0.063  0.000  0.000  0.000  0.000  0.000  0.127
 
band     8 # energy   30.96472984 # occ.  0.00000000
 
ion      s     py     pz     px    dxy    dyz    dz2    dxz  x2-y2    tot
    1  0.049  0.073  0.034  0.033  0.000  0.000  0.000  0.000  0.000  0.189
 

 k-point    49 :   -0.46666667 0.26666667 0.00000000     weight = 0.00711111

band     1 # energy    2.93797056 # occ.  2.00000000
 
ion      s     py     pz     px    dxy    dyz    dz2    dxz  x2-y2    tot
    1  0.259  0.128  0.008  0.008  0.000  0.000  0.000  0.000  0.000  0.403
 
band     2 # energy    6.04744600 # occ.  2.00000000
 
ion      s     py     pz     px    dxy    dyz    dz2    dxz  x2-y2    tot
    1  0.140  0.024  0.104  0.104  0.000  0.000  0.000  0.000  0.000  0.371
 
band     3 # energy   10.27981949 # occ.  0.54071515
 
ion      s     py     pz     px    dxy    dyz    dz2    dxz  x2-y2    tot
    1  0.140  0.196  0.027  0.027  0.000  0.000  0.000  0.000  0.000  0.391
 
band     4 # energy   14.48368200 # occ.  0.00000000
 
ion      s     py     pz     px    dxy    dyz    dz2    dxz  x2-y2    tot
    1  0.000  0.000  0.230  0.230  0.000  0.000  0.000  0.000  0.000  0.459
 
band     5 # energy   17.11656136 # occ.  0.00000000
 
ion      s     py     pz     px    dxy    dyz    dz2    dxz  x2-y2    tot
    1  0.114  0.007  0.004  0.004  0.000  0.000  0.000  0.000  0.000  0.129
 
band     6 # energy   24.83698027 # occ.  0.00000000
 
ion      s     py     pz     px    dxy    dyz    dz2    dxz  x2-y2    tot
    1  0.013  0.013  0.119  0.119  0.000  0.000  0.000  0.000  0.000  0.262
 
band     7 # energy   27.66109044 # occ.  0.00000000
 
ion      s     py     pz     px    dxy    dyz    dz2    dxz  x2-y2    tot
    1  0.000  0.000  0.067  0.067  0.000  0.000  0.000  0.000  0.000  0.133
 
band     8 # energy   30.41377241 # occ.  0.00000000
 
ion      s     py     pz     px    dxy    dyz    dz2    dxz  x2-y2    tot
    1  0.048  0.117  0.010  0.010  0.000  0.000  0.000  0.000  0.000  0.186
 

 k-point    50 :   -0.40000000 0.26666667 0.00000000     weight = 0.00711111

band     1 # energy    3.97124591 # occ.  2.00000000
 
ion      s     py     pz     px    dxy    dyz    dz2    dxz  x2-y2    tot
    1  0.351  0.007  0.044  0.044  0.000  0.000  0.000  0.000  0.000  0.445
 
band     2 # energy    4.86185867 # occ.  2.00000000
 
ion      s     py     pz     px    dxy    dyz    dz2    dxz  x2-y2    tot
    1  0.041  0.161  0.062  0.062  0.000  0.000  0.000  0.000  0.000  0.325
 
band     3 # energy    9.62286649 # occ.  1.28054391
 
ion      s     py     pz     px    dxy    dyz    dz2    dxz  x2-y2    tot
    1  0.152  0.168  0.036  0.036  0.000  0.000  0.000  0.000  0.000  0.393
 
band     4 # energy   14.95500632 # occ.  0.00000000
 
ion      s     py     pz     px    dxy    dyz    dz2    dxz  x2-y2    tot
    1  0.000  0.000  0.229  0.229  0.000  0.000  0.000  0.000  0.000  0.458
 
band     5 # energy   17.64632207 # occ.  0.00000000
 
ion      s     py     pz     px    dxy    dyz    dz2    dxz  x2-y2    tot
    1  0.112  0.003  0.011  0.011  0.000  0.000  0.000  0.000  0.000  0.138
 
band     6 # energy   27.08222117 # occ.  0.00000000
 
ion      s     py     pz     px    dxy    dyz    dz2    dxz  x2-y2    tot
    1  0.000  0.022  0.116  0.122  0.000  0.000  0.000  0.000  0.000  0.261
 
band     7 # energy   27.09277634 # occ.  0.00000000
 
ion      s     py     pz     px    dxy    dyz    dz2    dxz  x2-y2    tot
    1  0.000  0.000  0.074  0.068  0.000  0.000  0.000  0.000  0.000  0.142
 
band     8 # energy   29.82813327 # occ.  0.00000000
 
ion      s     py     pz     px    dxy    dyz    dz2    dxz  x2-y2    tot
    1  0.030  0.162  0.000  0.000  0.000  0.000  0.000  0.000  0.000  0.192
 

 k-point    51 :   -0.33333333 0.26666667 0.00000000     weight = 0.00711111

band     1 # energy    2.41257456 # occ.  2.00000000
 
ion      s     py     pz     px    dxy    dyz    dz2    dxz  x2-y2    tot
    1  0.270  0.000  0.066  0.066  0.000  0.000  0.000  0.000  0.000  0.402
 
band     2 # energy    6.69221786 # occ.  2.00000000
 
ion      s     py     pz     px    dxy    dyz    dz2    dxz  x2-y2    tot
    1  0.099  0.202  0.029  0.029  0.000  0.000  0.000  0.000  0.000  0.358
 
band     3 # energy    9.22184197 # occ.  1.70504901
 
ion      s     py     pz     px    dxy    dyz    dz2    dxz  x2-y2    tot
    1  0.175  0.122  0.052  0.052  0.000  0.000  0.000  0.000  0.000  0.402
 
band     4 # energy   15.63849840 # occ.  0.00000000
 
ion      s     py     pz     px    dxy    dyz    dz2    dxz  x2-y2    tot
    1  0.000  0.000  0.229  0.229  0.000  0.000  0.000  0.000  0.000  0.457
 
band     5 # energy   18.40598383 # occ.  0.00000000
 
ion      s     py     pz     px    dxy    dyz    dz2    dxz  x2-y2    tot
    1  0.104  0.001  0.020  0.020  0.000  0.000  0.000  0.000  0.000  0.145
 
band     6 # energy   26.70013045 # occ.  0.00000000
 
ion      s     py     pz     px    dxy    dyz    dz2    dxz  x2-y2    tot
    1  0.000  0.000  0.079  0.079  0.000  0.000  0.000  0.000  0.000  0.157
 
band     7 # energy   28.36608380 # occ.  0.00000000
 
ion      s     py     pz     px    dxy    dyz    dz2    dxz  x2-y2    tot
    1  0.012  0.170  0.039  0.039  0.000  0.000  0.000  0.000  0.000  0.260
 
band     8 # energy   29.09173000 # occ.  0.00000000
 
ion      s     py     pz     px    dxy    dyz    dz2    dxz  x2-y2    tot
    1  0.000  0.000  0.027  0.028  0.000  0.000  0.000  0.000  0.000  0.055
 

 k-point    52 :   -0.26666667 0.26666667 0.00000000     weight = 0.00355556

band     1 # energy    0.98042377 # occ.  2.00000000
 
ion      s     py     pz     px    dxy    dyz    dz2    dxz  x2-y2    tot
    1  0.283  0.000  0.057  0.057  0.000  0.000  0.000  0.000  0.000  0.397
 
band     2 # energy    8.53124144 # occ.  2.00000000
 
ion      s     py     pz     px    dxy    dyz    dz2    dxz  x2-y2    tot
    1  0.000  0.314  0.000  0.000  0.000  0.000  0.000  0.000  0.000  0.314
 
band     3 # energy    9.36442744 # occ.  1.24773723
 
ion      s     py     pz     px    dxy    dyz    dz2    dxz  x2-y2    tot
    1  0.254  0.000  0.097  0.097  0.000  0.000  0.000  0.000  0.000  0.449
 
band     4 # energy   16.52345139 # occ.  0.00000000
 
ion      s     py     pz     px    dxy    dyz    dz2    dxz  x2-y2    tot
    1  0.000  0.000  0.230  0.230  0.000  0.000  0.000  0.000  0.000  0.461
 
band     5 # energy   19.38564066 # occ.  0.00000000
 
ion      s     py     pz     px    dxy    dyz    dz2    dxz  x2-y2    tot
    1  0.092  0.000  0.029  0.029  0.000  0.000  0.000  0.000  0.000  0.149
 
band     6 # energy   26.30738607 # occ.  0.00000000
 
ion      s     py     pz     px    dxy    dyz    dz2    dxz  x2-y2    tot
    1  0.000  0.000  0.114  0.114  0.000  0.000  0.000  0.000  0.000  0.227
 
band     7 # energy   27.02429011 # occ.  0.00000000
 
ion      s     py     pz     px    dxy    dyz    dz2    dxz  x2-y2    tot
    1  0.000  0.000  0.000  0.000  0.000  0.000  0.000  0.000  0.000  0.000
 
band     8 # energy   27.64449786 # occ.  0.00000000
 
ion      s     py     pz     px    dxy    dyz    dz2    dxz  x2-y2    tot
    1  0.000  0.274  0.000  0.000  0.000  0.000  0.000  0.000  0.000  0.274
 

 k-point    53 :    0.33333333 0.33333333 0.00000000     weight = 0.00177778

band     1 # energy   -0.17472116 # occ.  2.00000000
 
ion      s     py     pz     px    dxy    dyz    dz2    dxz  x2-y2    tot
    1  0.294  0.099  0.000  0.000  0.000  0.000  0.000  0.000  0.000  0.393
 
band     2 # energy   11.88720529 # occ. -0.06583600
 
ion      s     py     pz     px    dxy    dyz    dz2    dxz  x2-y2    tot
    1  0.179  0.273  0.000  0.000  0.000  0.000  0.000  0.000  0.000  0.452
 
band     3 # energy   13.90375901 # occ.  0.00000000
 
ion      s     py     pz     px    dxy    dyz    dz2    dxz  x2-y2    tot
    1  0.000  0.000  0.229  0.229  0.000  0.000  0.000  0.000  0.000  0.459
 
band     4 # energy   13.90385918 # occ.  0.00000000
 
ion      s     py     pz     px    dxy    dyz    dz2    dxz  x2-y2    tot
    1  0.000  0.000  0.229  0.229  0.000  0.000  0.000  0.000  0.000  0.459
 
band     5 # energy   15.38428815 # occ.  0.00000000
 
ion      s     py     pz     px    dxy    dyz    dz2    dxz  x2-y2    tot
    1  0.000  0.000  0.000  0.000  0.000  0.000  0.000  0.000  0.000  0.000
 
band     6 # energy   17.58382500 # occ.  0.00000000
 
ion      s     py     pz     px    dxy    dyz    dz2    dxz  x2-y2    tot
    1  0.210  0.035  0.000  0.000  0.000  0.000  0.000  0.000  0.000  0.245
 
band     7 # energy   32.20220494 # occ.  0.00000000
 
ion      s     py     pz     px    dxy    dyz    dz2    dxz  x2-y2    tot
    1  0.000  0.000  0.000  0.000  0.000  0.000  0.000  0.000  0.000  0.000
 
band     8 # energy   32.71161793 # occ.  0.00000000
 
ion      s     py     pz     px    dxy    dyz    dz2    dxz  x2-y2    tot
    1  0.000  0.000  0.165  0.002  0.000  0.000  0.000  0.000  0.000  0.168
 

 k-point    54 :    0.40000000 0.33333333 0.00000000     weight = 0.00711111

band     1 # energy    0.77902233 # occ.  2.00000000
 
ion      s     py     pz     px    dxy    dyz    dz2    dxz  x2-y2    tot
    1  0.274  0.118  0.001  0.001  0.000  0.000  0.000  0.000  0.000  0.394
 
band     2 # energy   10.45618102 # occ.  0.38213495
 
ion      s     py     pz     px    dxy    dyz    dz2    dxz  x2-y2    tot
    1  0.202  0.245  0.000  0.000  0.000  0.000  0.000  0.000  0.000  0.447
 
band     3 # energy   12.16578333 # occ.  0.00000000
 
ion      s     py     pz     px    dxy    dyz    dz2    dxz  x2-y2    tot
    1  0.015  0.000  0.163  0.163  0.000  0.000  0.000  0.000  0.000  0.341
 
band     4 # energy   13.64235671 # occ.  0.00000000
 
ion      s     py     pz     px    dxy    dyz    dz2    dxz  x2-y2    tot
    1  0.000  0.000  0.232  0.232  0.000  0.000  0.000  0.000  0.000  0.463
 
band     5 # energy   15.81389875 # occ.  0.00000000
 
ion      s     py     pz     px    dxy    dyz    dz2    dxz  x2-y2    tot
    1  0.041  0.003  0.022  0.022  0.000  0.000  0.000  0.000  0.000  0.090
 
band     6 # energy   18.02950521 # occ.  0.00000000
 
ion      s     py     pz     px    dxy    dyz    dz2    dxz  x2-y2    tot
    1  0.166  0.021  0.047  0.047  0.000  0.000  0.000  0.000  0.000  0.281
 
band     7 # energy   31.69062311 # occ.  0.00000000
 
ion      s     py     pz     px    dxy    dyz    dz2    dxz  x2-y2    tot
    1  0.000  0.000  0.037  0.037  0.000  0.000  0.000  0.000  0.000  0.074
 
band     8 # energy   33.28176260 # occ.  0.00000000
 
ion      s     py     pz     px    dxy    dyz    dz2    dxz  x2-y2    tot
    1  0.009  0.015  0.062  0.062  0.000  0.000  0.000  0.000  0.000  0.148
 

 k-point    55 :    0.46666667 0.33333333 0.00000000     weight = 0.00711111

band     1 # energy    1.97239844 # occ.  2.00000000
 
ion      s     py     pz     px    dxy    dyz    dz2    dxz  x2-y2    tot
    1  0.251  0.138  0.003  0.003  0.000  0.000  0.000  0.000  0.000  0.395
 
band     2 # energy    9.15492541 # occ.  2.01997651
 
ion      s     py     pz     px    dxy    dyz    dz2    dxz  x2-y2    tot
    1  0.258  0.203  0.007  0.007  0.000  0.000  0.000  0.000  0.000  0.475
 
band     3 # energy    9.99416011 # occ.  0.48625497
 
ion      s     py     pz     px    dxy    dyz    dz2    dxz  x2-y2    tot
    1  0.004  0.015  0.136  0.136  0.000  0.000  0.000  0.000  0.000  0.291
 
band     4 # energy   13.60298404 # occ.  0.00000000
 
ion      s     py     pz     px    dxy    dyz    dz2    dxz  x2-y2    tot
    1  0.000  0.000  0.232  0.232  0.000  0.000  0.000  0.000  0.000  0.465
 
band     5 # energy   16.05377394 # occ.  0.00000000
 
ion      s     py     pz     px    dxy    dyz    dz2    dxz  x2-y2    tot
    1  0.104  0.005  0.003  0.003  0.000  0.000  0.000  0.000  0.000  0.114
 
band     6 # energy   19.84081851 # occ.  0.00000000
 
ion      s     py     pz     px    dxy    dyz    dz2    dxz  x2-y2    tot
    1  0.087  0.009  0.092  0.092  0.000  0.000  0.000  0.000  0.000  0.279
 
band     7 # energy   30.88699738 # occ.  0.00000000
 
ion      s     py     pz     px    dxy    dyz    dz2    dxz  x2-y2    tot
    1  0.000  0.000  0.047  0.047  0.000  0.000  0.000  0.000  0.000  0.095
 
band     8 # energy   33.08622403 # occ.  0.00000000
 
ion      s     py     pz     px    dxy    dyz    dz2    dxz  x2-y2    tot
    1  0.019  0.058  0.035  0.035  0.000  0.000  0.000  0.000  0.000  0.146
 

 k-point    56 :   -0.46666667 0.33333333 0.00000000     weight = 0.00711111

band     1 # energy    3.39255801 # occ.  2.00000000
 
ion      s     py     pz     px    dxy    dyz    dz2    dxz  x2-y2    tot
    1  0.227  0.160  0.005  0.005  0.000  0.000  0.000  0.000  0.000  0.397
 
band     2 # energy    7.54686112 # occ.  2.00000000
 
ion      s     py     pz     px    dxy    dyz    dz2    dxz  x2-y2    tot
    1  0.224  0.059  0.077  0.077  0.000  0.000  0.000  0.000  0.000  0.437
 
band     3 # energy    8.48141518 # occ.  2.15734248
 
ion      s     py     pz     px    dxy    dyz    dz2    dxz  x2-y2    tot
    1  0.079  0.129  0.058  0.058  0.000  0.000  0.000  0.000  0.000  0.325
 
band     4 # energy   13.78522176 # occ.  0.00000000
 
ion      s     py     pz     px    dxy    dyz    dz2    dxz  x2-y2    tot
    1  0.000  0.000  0.232  0.232  0.000  0.000  0.000  0.000  0.000  0.464
 
band     5 # energy   16.32335796 # occ.  0.00000000
 
ion      s     py     pz     px    dxy    dyz    dz2    dxz  x2-y2    tot
    1  0.123  0.003  0.000  0.000  0.000  0.000  0.000  0.000  0.000  0.127
 
band     6 # energy   22.12553635 # occ.  0.00000000
 
ion      s     py     pz     px    dxy    dyz    dz2    dxz  x2-y2    tot
    1  0.046  0.004  0.108  0.108  0.000  0.000  0.000  0.000  0.000  0.265
 
band     7 # energy   30.10400723 # occ.  0.00000000
 
ion      s     py     pz     px    dxy    dyz    dz2    dxz  x2-y2    tot
    1  0.000  0.000  0.056  0.056  0.000  0.000  0.000  0.000  0.000  0.111
 
band     8 # energy   32.40081093 # occ.  0.00000000
 
ion      s     py     pz     px    dxy    dyz    dz2    dxz  x2-y2    tot
    1  0.018  0.114  0.013  0.013  0.000  0.000  0.000  0.000  0.000  0.159
 

 k-point    57 :   -0.40000000 0.33333333 0.00000000     weight = 0.00711111

band     1 # energy    4.94505161 # occ.  2.00000000
 
ion      s     py     pz     px    dxy    dyz    dz2    dxz  x2-y2    tot
    1  0.279  0.154  0.000  0.000  0.000  0.000  0.000  0.000  0.000  0.434
 
band     2 # energy    5.75384922 # occ.  2.00000000
 
ion      s     py     pz     px    dxy    dyz    dz2    dxz  x2-y2    tot
    1  0.097  0.068  0.095  0.095  0.000  0.000  0.000  0.000  0.000  0.355
 
band     3 # energy    7.68167898 # occ.  2.02260916
 
ion      s     py     pz     px    dxy    dyz    dz2    dxz  x2-y2    tot
    1  0.165  0.117  0.044  0.044  0.000  0.000  0.000  0.000  0.000  0.372
 
band     4 # energy   14.18845802 # occ.  0.00000000
 
ion      s     py     pz     px    dxy    dyz    dz2    dxz  x2-y2    tot
    1  0.000  0.000  0.231  0.231  0.000  0.000  0.000  0.000  0.000  0.462
 
band     5 # energy   16.79433756 # occ.  0.00000000
 
ion      s     py     pz     px    dxy    dyz    dz2    dxz  x2-y2    tot
    1  0.124  0.001  0.004  0.004  0.000  0.000  0.000  0.000  0.000  0.134
 
band     6 # energy   24.63542898 # occ.  0.00000000
 
ion      s     py     pz     px    dxy    dyz    dz2    dxz  x2-y2    tot
    1  0.020  0.001  0.116  0.116  0.000  0.000  0.000  0.000  0.000  0.253
 
band     7 # energy   29.44949631 # occ.  0.00000000
 
ion      s     py     pz     px    dxy    dyz    dz2    dxz  x2-y2    tot
    1  0.000  0.000  0.068  0.068  0.000  0.000  0.000  0.000  0.000  0.136
 
band     8 # energy   31.42761461 # occ.  0.00000000
 
ion      s     py     pz     px    dxy    dyz    dz2    dxz  x2-y2    tot
    1  0.008  0.173  0.002  0.002  0.000  0.000  0.000  0.000  0.000  0.184
 

 k-point    58 :   -0.33333333 0.33333333 0.00000000     weight = 0.00355556

band     1 # energy    3.90511307 # occ.  2.00000000
 
ion      s     py     pz     px    dxy    dyz    dz2    dxz  x2-y2    tot
    1  0.266  0.000  0.073  0.073  0.000  0.000  0.000  0.000  0.000  0.412
 
band     2 # energy    6.61680757 # occ.  2.00000000
 
ion      s     py     pz     px    dxy    dyz    dz2    dxz  x2-y2    tot
    1  0.000  0.332  0.000  0.000  0.000  0.000  0.000  0.000  0.000  0.332
 
band     3 # energy    7.49264381 # occ.  2.00000000
 
ion      s     py     pz     px    dxy    dyz    dz2    dxz  x2-y2    tot
    1  0.280  0.000  0.069  0.069  0.000  0.000  0.000  0.000  0.000  0.417
 
band     4 # energy   14.80882386 # occ.  0.00000000
 
ion      s     py     pz     px    dxy    dyz    dz2    dxz  x2-y2    tot
    1  0.000  0.000  0.229  0.229  0.000  0.000  0.000  0.000  0.000  0.458
 
band     5 # energy   17.48924675 # occ.  0.00000000
 
ion      s     py     pz     px    dxy    dyz    dz2    dxz  x2-y2    tot
    1  0.117  0.000  0.011  0.011  0.000  0.000  0.000  0.000  0.000  0.140
 
band     6 # energy   27.14784908 # occ.  0.00000000
 
ion      s     py     pz     px    dxy    dyz    dz2    dxz  x2-y2    tot
    1  0.003  0.000  0.118  0.118  0.000  0.000  0.000  0.000  0.000  0.239
 
band     7 # energy   28.64993964 # occ.  0.00000000
 
ion      s     py     pz     px    dxy    dyz    dz2    dxz  x2-y2    tot
    1  0.000  0.000  0.096  0.096  0.000  0.000  0.000  0.000  0.000  0.192
 
band     8 # energy   29.80717086 # occ.  0.00000000
 
ion      s     py     pz     px    dxy    dyz    dz2    dxz  x2-y2    tot
    1  0.000  0.000  0.000  0.000  0.000  0.000  0.000  0.000  0.000  0.000
 

 k-point    59 :    0.40000000 0.40000000 0.00000000     weight = 0.00177778

band     1 # energy    1.64568482 # occ.  2.00000000
 
ion      s     py     pz     px    dxy    dyz    dz2    dxz  x2-y2    tot
    1  0.254  0.141  0.000  0.000  0.000  0.000  0.000  0.000  0.000  0.395
 
band     2 # energy    8.96323007 # occ.  1.90309779
 
ion      s     py     pz     px    dxy    dyz    dz2    dxz  x2-y2    tot
    1  0.208  0.216  0.000  0.000  0.000  0.000  0.000  0.000  0.000  0.424
 
band     3 # energy   13.30793923 # occ.  0.00000000
 
ion      s     py     pz     px    dxy    dyz    dz2    dxz  x2-y2    tot
    1  0.000  0.000  0.234  0.234  0.000  0.000  0.000  0.000  0.000  0.467
 
band     4 # energy   13.30803611 # occ.  0.00000000
 
ion      s     py     pz     px    dxy    dyz    dz2    dxz  x2-y2    tot
    1  0.000  0.000  0.234  0.234  0.000  0.000  0.000  0.000  0.000  0.468
 
band     5 # energy   14.71806614 # occ.  0.00000000
 
ion      s     py     pz     px    dxy    dyz    dz2    dxz  x2-y2    tot
    1  0.000  0.000  0.000  0.000  0.000  0.000  0.000  0.000  0.000  0.000
 
band     6 # energy   16.91767555 # occ.  0.00000000
 
ion      s     py     pz     px    dxy    dyz    dz2    dxz  x2-y2    tot
    1  0.254  0.016  0.000  0.000  0.000  0.000  0.000  0.000  0.000  0.270
 
band     7 # energy   33.48388690 # occ.  0.00000000
 
ion      s     py     pz     px    dxy    dyz    dz2    dxz  x2-y2    tot
    1  0.000  0.000  0.000  0.000  0.000  0.000  0.000  0.000  0.000  0.000
 
band     8 # energy   34.66294073 # occ.  0.00000000
 
ion      s     py     pz     px    dxy    dyz    dz2    dxz  x2-y2    tot
    1  0.000  0.000  0.089  0.010  0.000  0.000  0.000  0.000  0.000  0.100
 

 k-point    60 :    0.46666667 0.40000000 0.00000000     weight = 0.00711111

band     1 # energy    2.74842345 # occ.  2.00000000
 
ion      s     py     pz     px    dxy    dyz    dz2    dxz  x2-y2    tot
    1  0.226  0.167  0.001  0.001  0.000  0.000  0.000  0.000  0.000  0.394
 
band     2 # energy    7.66100386 # occ.  2.02966406
 
ion      s     py     pz     px    dxy    dyz    dz2    dxz  x2-y2    tot
    1  0.235  0.188  0.000  0.000  0.000  0.000  0.000  0.000  0.000  0.423
 
band     3 # energy   11.67753550 # occ. -0.14634141
 
ion      s     py     pz     px    dxy    dyz    dz2    dxz  x2-y2    tot
    1  0.027  0.000  0.164  0.164  0.000  0.000  0.000  0.000  0.000  0.355
 
band     4 # energy   13.19511041 # occ.  0.00000000
 
ion      s     py     pz     px    dxy    dyz    dz2    dxz  x2-y2    tot
    1  0.000  0.000  0.235  0.235  0.000  0.000  0.000  0.000  0.000  0.470
 
band     5 # energy   15.31786614 # occ.  0.00000000
 
ion      s     py     pz     px    dxy    dyz    dz2    dxz  x2-y2    tot
    1  0.049  0.001  0.023  0.023  0.000  0.000  0.000  0.000  0.000  0.095
 
band     6 # energy   17.55989457 # occ.  0.00000000
 
ion      s     py     pz     px    dxy    dyz    dz2    dxz  x2-y2    tot
    1  0.187  0.006  0.049  0.049  0.000  0.000  0.000  0.000  0.000  0.291
 
band     7 # energy   33.21345016 # occ.  0.00000000
 
ion      s     py     pz     px    dxy    dyz    dz2    dxz  x2-y2    tot
    1  0.000  0.000  0.023  0.023  0.000  0.000  0.000  0.000  0.000  0.045
 
band     8 # energy   34.96201118 # occ.  0.00000000
 
ion      s     py     pz     px    dxy    dyz    dz2    dxz  x2-y2    tot
    1  0.004  0.026  0.026  0.025  0.000  0.000  0.000  0.000  0.000  0.081
 

 k-point    61 :   -0.46666667 0.40000000 0.00000000     weight = 0.00711111

band     1 # energy    4.06911992 # occ.  2.00000000
 
ion      s     py     pz     px    dxy    dyz    dz2    dxz  x2-y2    tot
    1  0.179  0.208  0.002  0.002  0.000  0.000  0.000  0.000  0.000  0.390
 
band     2 # energy    6.59360393 # occ.  2.00000000
 
ion      s     py     pz     px    dxy    dyz    dz2    dxz  x2-y2    tot
    1  0.290  0.143  0.001  0.001  0.000  0.000  0.000  0.000  0.000  0.435
 
band     3 # energy    9.57225506 # occ.  1.46655010
 
ion      s     py     pz     px    dxy    dyz    dz2    dxz  x2-y2    tot
    1  0.046  0.000  0.144  0.144  0.000  0.000  0.000  0.000  0.000  0.333
 
band     4 # energy   13.30507976 # occ.  0.00000000
 
ion      s     py     pz     px    dxy    dyz    dz2    dxz  x2-y2    tot
    1  0.000  0.000  0.235  0.235  0.000  0.000  0.000  0.000  0.000  0.469
 
band     5 # energy   15.72131480 # occ.  0.00000000
 
ion      s     py     pz     px    dxy    dyz    dz2    dxz  x2-y2    tot
    1  0.112  0.001  0.002  0.002  0.000  0.000  0.000  0.000  0.000  0.118
 
band     6 # energy   19.54420666 # occ.  0.00000000
 
ion      s     py     pz     px    dxy    dyz    dz2    dxz  x2-y2    tot
    1  0.094  0.001  0.092  0.092  0.000  0.000  0.000  0.000  0.000  0.280
 
band     7 # energy   32.49725699 # occ.  0.00000000
 
ion      s     py     pz     px    dxy    dyz    dz2    dxz  x2-y2    tot
    1  0.000  0.000  0.040  0.040  0.000  0.000  0.000  0.000  0.000  0.080
 
band     8 # energy   34.31447596 # occ.  0.00000000
 
ion      s     py     pz     px    dxy    dyz    dz2    dxz  x2-y2    tot
    1  0.003  0.088  0.006  0.006  0.000  0.000  0.000  0.000  0.000  0.103
 

 k-point    62 :   -0.40000000 0.40000000 0.00000000     weight = 0.00355556

band     1 # energy    5.33625088 # occ.  2.00000000
 
ion      s     py     pz     px    dxy    dyz    dz2    dxz  x2-y2    tot
    1  0.000  0.345  0.000  0.000  0.000  0.000  0.000  0.000  0.000  0.345
 
band     2 # energy    5.98434476 # occ.  2.00000000
 
ion      s     py     pz     px    dxy    dyz    dz2    dxz  x2-y2    tot
    1  0.508  0.000  0.001  0.001  0.000  0.000  0.000  0.000  0.000  0.510
 
band     3 # energy    7.65650859 # occ.  2.00000000
 
ion      s     py     pz     px    dxy    dyz    dz2    dxz  x2-y2    tot
    1  0.024  0.000  0.139  0.139  0.000  0.000  0.000  0.000  0.000  0.302
 
band     4 # energy   13.63675507 # occ.  0.00000000
 
ion      s     py     pz     px    dxy    dyz    dz2    dxz  x2-y2    tot
    1  0.000  0.000  0.233  0.233  0.000  0.000  0.000  0.000  0.000  0.466
 
band     5 # energy   16.16342492 # occ.  0.00000000
 
ion      s     py     pz     px    dxy    dyz    dz2    dxz  x2-y2    tot
    1  0.128  0.000  0.000  0.000  0.000  0.000  0.000  0.000  0.000  0.128
 
band     6 # energy   21.99923548 # occ.  0.00000000
 
ion      s     py     pz     px    dxy    dyz    dz2    dxz  x2-y2    tot
    1  0.049  0.000  0.109  0.109  0.000  0.000  0.000  0.000  0.000  0.266
 
band     7 # energy   31.44579228 # occ.  0.00000000
 
ion      s     py     pz     px    dxy    dyz    dz2    dxz  x2-y2    tot
    1  0.000  0.000  0.063  0.063  0.000  0.000  0.000  0.000  0.000  0.127
 
band     8 # energy   32.93895380 # occ.  0.00000000
 
ion      s     py     pz     px    dxy    dyz    dz2    dxz  x2-y2    tot
    1  0.000  0.000  0.000  0.000  0.000  0.000  0.000  0.000  0.000  0.000
 

 k-point    63 :    0.46666667 0.46666667 0.00000000     weight = 0.00177778

band     1 # energy    3.74808680 # occ.  2.00000000
 
ion      s     py     pz     px    dxy    dyz    dz2    dxz  x2-y2    tot
    1  0.178  0.211  0.000  0.000  0.000  0.000  0.000  0.000  0.000  0.389
 
band     2 # energy    6.29163982 # occ.  2.00000000
 
ion      s     py     pz     px    dxy    dyz    dz2    dxz  x2-y2    tot
    1  0.280  0.143  0.000  0.000  0.000  0.000  0.000  0.000  0.000  0.423
 
band     3 # energy   13.00890394 # occ.  0.00000000
 
ion      s     py     pz     px    dxy    dyz    dz2    dxz  x2-y2    tot
    1  0.000  0.000  0.236  0.236  0.000  0.000  0.000  0.000  0.000  0.473
 
band     4 # energy   13.00899992 # occ.  0.00000000
 
ion      s     py     pz     px    dxy    dyz    dz2    dxz  x2-y2    tot
    1  0.000  0.000  0.236  0.236  0.000  0.000  0.000  0.000  0.000  0.473
 
band     5 # energy   14.38228369 # occ.  0.00000000
 
ion      s     py     pz     px    dxy    dyz    dz2    dxz  x2-y2    tot
    1  0.000  0.000  0.000  0.000  0.000  0.000  0.000  0.000  0.000  0.000
 
band     6 # energy   16.59354038 # occ.  0.00000000
 
ion      s     py     pz     px    dxy    dyz    dz2    dxz  x2-y2    tot
    1  0.275  0.002  0.000  0.000  0.000  0.000  0.000  0.000  0.000  0.277
 
band     7 # energy   34.44828596 # occ.  0.00000000
 
ion      s     py     pz     px    dxy    dyz    dz2    dxz  x2-y2    tot
    1  0.000  0.000  0.000  0.000  0.000  0.000  0.000  0.000  0.000  0.000
 
band     8 # energy   36.01568148 # occ.  0.00000000
 
ion      s     py     pz     px    dxy    dyz    dz2    dxz  x2-y2    tot
    1  0.000  0.000  0.004  0.014  0.000  0.000  0.000  0.000  0.000  0.018
 

 k-point    64 :   -0.46666667 0.46666667 0.00000000     weight = 0.00355556

band     1 # energy    4.69533764 # occ.  2.00000000
 
ion      s     py     pz     px    dxy    dyz    dz2    dxz  x2-y2    tot
    1  0.000  0.353  0.000  0.000  0.000  0.000  0.000  0.000  0.000  0.353
 
band     2 # energy    5.43073507 # occ.  2.00000000
 
ion      s     py     pz     px    dxy    dyz    dz2    dxz  x2-y2    tot
    1  0.459  0.000  0.001  0.001  0.000  0.000  0.000  0.000  0.000  0.461
 
band     3 # energy   11.51842678 # occ. -0.14110747
 
ion      s     py     pz     px    dxy    dyz    dz2    dxz  x2-y2    tot
    1  0.029  0.000  0.164  0.164  0.000  0.000  0.000  0.000  0.000  0.358
 
band     4 # energy   13.04563649 # occ.  0.00000000
 
ion      s     py     pz     px    dxy    dyz    dz2    dxz  x2-y2    tot
    1  0.000  0.000  0.236  0.236  0.000  0.000  0.000  0.000  0.000  0.472
 
band     5 # energy   15.15265461 # occ.  0.00000000
 
ion      s     py     pz     px    dxy    dyz    dz2    dxz  x2-y2    tot
    1  0.051  0.000  0.023  0.023  0.000  0.000  0.000  0.000  0.000  0.096
 
band     6 # energy   17.40611585 # occ.  0.00000000
 
ion      s     py     pz     px    dxy    dyz    dz2    dxz  x2-y2    tot
    1  0.194  0.000  0.050  0.050  0.000  0.000  0.000  0.000  0.000  0.293
 
band     7 # energy   34.09200412 # occ.  0.00000000
 
ion      s     py     pz     px    dxy    dyz    dz2    dxz  x2-y2    tot
    1  0.000  0.000  0.015  0.015  0.000  0.000  0.000  0.000  0.000  0.030
 
band     8 # energy   35.71368475 # occ.  0.00000000
 
ion      s     py     pz     px    dxy    dyz    dz2    dxz  x2-y2    tot
    1  0.000  0.035  0.000  0.000  0.000  0.000  0.000  0.000  0.000  0.035
 

 k-point    65 :    0.20000000 0.13333333 0.06666667     weight = 0.00711111

band     1 # energy   -3.53052551 # occ.  2.00000000
 
ion      s     py     pz     px    dxy    dyz    dz2    dxz  x2-y2    tot
    1  0.366  0.017  0.000  0.004  0.000  0.000  0.000  0.000  0.000  0.387
 
band     2 # energy   16.00417588 # occ.  0.00000000
 
ion      s     py     pz     px    dxy    dyz    dz2    dxz  x2-y2    tot
    1  0.000  0.000  0.311  0.000  0.000  0.000  0.000  0.000  0.000  0.311
 
band     3 # energy   16.33646086 # occ.  0.00000000
 
ion      s     py     pz     px    dxy    dyz    dz2    dxz  x2-y2    tot
    1  0.066  0.132  0.000  0.263  0.000  0.000  0.000  0.000  0.000  0.461
 
band     4 # energy   20.07205660 # occ.  0.00000000
 
ion      s     py     pz     px    dxy    dyz    dz2    dxz  x2-y2    tot
    1  0.042  0.442  0.000  0.190  0.000  0.000  0.000  0.000  0.000  0.675
 
band     5 # energy   20.94866684 # occ.  0.00000000
 
ion      s     py     pz     px    dxy    dyz    dz2    dxz  x2-y2    tot
    1  0.000  0.000  0.103  0.000  0.000  0.000  0.000  0.000  0.000  0.103
 
band     6 # energy   23.91082315 # occ.  0.00000000
 
ion      s     py     pz     px    dxy    dyz    dz2    dxz  x2-y2    tot
    1  0.002  0.004  0.000  0.021  0.000  0.000  0.000  0.000  0.000  0.028
 
band     7 # energy   25.15617566 # occ.  0.00000000
 
ion      s     py     pz     px    dxy    dyz    dz2    dxz  x2-y2    tot
    1  0.000  0.000  0.243  0.000  0.000  0.000  0.000  0.000  0.000  0.243
 
band     8 # energy   25.51245521 # occ.  0.00000000
 
ion      s     py     pz     px    dxy    dyz    dz2    dxz  x2-y2    tot
    1  0.041  0.002  0.000  0.181  0.000  0.000  0.000  0.000  0.000  0.225
 

 k-point    66 :    0.26666667 0.13333333 0.06666667     weight = 0.01422222

band     1 # energy   -2.89759971 # occ.  2.00000000
 
ion      s     py     pz     px    dxy    dyz    dz2    dxz  x2-y2    tot
    1  0.352  0.026  0.001  0.009  0.000  0.000  0.000  0.000  0.000  0.388
 
band     2 # energy   13.42564061 # occ.  0.00000000
 
ion      s     py     pz     px    dxy    dyz    dz2    dxz  x2-y2    tot
    1  0.053  0.055  0.160  0.085  0.000  0.000  0.000  0.000  0.000  0.353
 
band     3 # energy   15.63851625 # occ.  0.00000000
 
ion      s     py     pz     px    dxy    dyz    dz2    dxz  x2-y2    tot
    1  0.051  0.078  0.144  0.143  0.000  0.000  0.000  0.000  0.000  0.415
 
band     4 # energy   19.47508928 # occ.  0.00000000
 
ion      s     py     pz     px    dxy    dyz    dz2    dxz  x2-y2    tot
    1  0.040  0.372  0.003  0.178  0.000  0.000  0.000  0.000  0.000  0.593
 
band     5 # energy   21.37193621 # occ.  0.00000000
 
ion      s     py     pz     px    dxy    dyz    dz2    dxz  x2-y2    tot
    1  0.001  0.022  0.085  0.002  0.000  0.000  0.000  0.000  0.000  0.110
 
band     6 # energy   23.39045301 # occ.  0.00000000
 
ion      s     py     pz     px    dxy    dyz    dz2    dxz  x2-y2    tot
    1  0.001  0.009  0.035  0.103  0.000  0.000  0.000  0.000  0.000  0.149
 
band     7 # energy   25.39993390 # occ.  0.00000000
 
ion      s     py     pz     px    dxy    dyz    dz2    dxz  x2-y2    tot
    1  0.061  0.005  0.001  0.096  0.000  0.000  0.000  0.000  0.000  0.163
 
band     8 # energy   25.60202367 # occ.  0.00000000
 
ion      s     py     pz     px    dxy    dyz    dz2    dxz  x2-y2    tot
    1  0.005  0.001  0.192  0.011  0.000  0.000  0.000  0.000  0.000  0.209
 

 k-point    67 :    0.33333333 0.13333333 0.06666667     weight = 0.01422222

band     1 # energy   -2.01495925 # occ.  2.00000000
 
ion      s     py     pz     px    dxy    dyz    dz2    dxz  x2-y2    tot
    1  0.334  0.036  0.004  0.016  0.000  0.000  0.000  0.000  0.000  0.390
 
band     2 # energy   10.79571375 # occ.  0.09627907
 
ion      s     py     pz     px    dxy    dyz    dz2    dxz  x2-y2    tot
    1  0.087  0.057  0.133  0.084  0.000  0.000  0.000  0.000  0.000  0.361
 
band     3 # energy   15.28076719 # occ.  0.00000000
 
ion      s     py     pz     px    dxy    dyz    dz2    dxz  x2-y2    tot
    1  0.053  0.067  0.179  0.117  0.000  0.000  0.000  0.000  0.000  0.416
 
band     4 # energy   18.63746155 # occ.  0.00000000
 
ion      s     py     pz     px    dxy    dyz    dz2    dxz  x2-y2    tot
    1  0.038  0.342  0.001  0.166  0.000  0.000  0.000  0.000  0.000  0.547
 
band     5 # energy   20.94420789 # occ.  0.00000000
 
ion      s     py     pz     px    dxy    dyz    dz2    dxz  x2-y2    tot
    1  0.007  0.000  0.045  0.019  0.000  0.000  0.000  0.000  0.000  0.071
 
band     6 # energy   23.89933796 # occ.  0.00000000
 
ion      s     py     pz     px    dxy    dyz    dz2    dxz  x2-y2    tot
    1  0.025  0.011  0.030  0.198  0.000  0.000  0.000  0.000  0.000  0.265
 
band     7 # energy   24.85649197 # occ.  0.00000000
 
ion      s     py     pz     px    dxy    dyz    dz2    dxz  x2-y2    tot
    1  0.002  0.029  0.153  0.001  0.000  0.000  0.000  0.000  0.000  0.185
 
band     8 # energy   26.02856705 # occ.  0.00000000
 
ion      s     py     pz     px    dxy    dyz    dz2    dxz  x2-y2    tot
    1  0.069  0.001  0.031  0.003  0.000  0.000  0.000  0.000  0.000  0.103
 

 k-point    68 :    0.40000000 0.13333333 0.06666667     weight = 0.01422222

band     1 # energy   -0.88642830 # occ.  2.00000000
 
ion      s     py     pz     px    dxy    dyz    dz2    dxz  x2-y2    tot
    1  0.315  0.047  0.008  0.023  0.000  0.000  0.000  0.000  0.000  0.393
 
band     2 # energy    8.32609157 # occ.  2.14559765
 
ion      s     py     pz     px    dxy    dyz    dz2    dxz  x2-y2    tot
    1  0.117  0.053  0.118  0.078  0.000  0.000  0.000  0.000  0.000  0.366
 
band     3 # energy   15.14855915 # occ.  0.00000000
 
ion      s     py     pz     px    dxy    dyz    dz2    dxz  x2-y2    tot
    1  0.058  0.065  0.207  0.097  0.000  0.000  0.000  0.000  0.000  0.426
 
band     4 # energy   17.74331869 # occ.  0.00000000
 
ion      s     py     pz     px    dxy    dyz    dz2    dxz  x2-y2    tot
    1  0.034  0.302  0.000  0.155  0.000  0.000  0.000  0.000  0.000  0.490
 
band     5 # energy   20.60774405 # occ.  0.00000000
 
ion      s     py     pz     px    dxy    dyz    dz2    dxz  x2-y2    tot
    1  0.012  0.008  0.030  0.068  0.000  0.000  0.000  0.000  0.000  0.118
 
band     6 # energy   23.20176620 # occ.  0.00000000
 
ion      s     py     pz     px    dxy    dyz    dz2    dxz  x2-y2    tot
    1  0.044  0.000  0.001  0.123  0.000  0.000  0.000  0.000  0.000  0.169
 
band     7 # energy   25.04672624 # occ.  0.00000000
 
ion      s     py     pz     px    dxy    dyz    dz2    dxz  x2-y2    tot
    1  0.040  0.046  0.187  0.016  0.000  0.000  0.000  0.000  0.000  0.288
 
band     8 # energy   27.42874856 # occ.  0.00000000
 
ion      s     py     pz     px    dxy    dyz    dz2    dxz  x2-y2    tot
    1  0.040  0.004  0.006  0.031  0.000  0.000  0.000  0.000  0.000  0.081
 

 k-point    69 :    0.46666667 0.13333333 0.06666667     weight = 0.01422222

band     1 # energy    0.48036877 # occ.  2.00000000
 
ion      s     py     pz     px    dxy    dyz    dz2    dxz  x2-y2    tot
    1  0.298  0.057  0.012  0.030  0.000  0.000  0.000  0.000  0.000  0.397
 
band     2 # energy    6.05570117 # occ.  2.00000000
 
ion      s     py     pz     px    dxy    dyz    dz2    dxz  x2-y2    tot
    1  0.141  0.048  0.107  0.072  0.000  0.000  0.000  0.000  0.000  0.369
 
band     3 # energy   15.22313690 # occ.  0.00000000
 
ion      s     py     pz     px    dxy    dyz    dz2    dxz  x2-y2    tot
    1  0.065  0.073  0.234  0.073  0.000  0.000  0.000  0.000  0.000  0.444
 
band     4 # energy   16.91885409 # occ.  0.00000000
 
ion      s     py     pz     px    dxy    dyz    dz2    dxz  x2-y2    tot
    1  0.027  0.254  0.000  0.158  0.000  0.000  0.000  0.000  0.000  0.439
 
band     5 # energy   20.54120105 # occ.  0.00000000
 
ion      s     py     pz     px    dxy    dyz    dz2    dxz  x2-y2    tot
    1  0.012  0.020  0.023  0.121  0.000  0.000  0.000  0.000  0.000  0.176
 
band     6 # energy   22.35196781 # occ.  0.00000000
 
ion      s     py     pz     px    dxy    dyz    dz2    dxz  x2-y2    tot
    1  0.049  0.000  0.007  0.072  0.000  0.000  0.000  0.000  0.000  0.128
 
band     7 # energy   25.20116760 # occ.  0.00000000
 
ion      s     py     pz     px    dxy    dyz    dz2    dxz  x2-y2    tot
    1  0.082  0.061  0.145  0.008  0.000  0.000  0.000  0.000  0.000  0.296
 
band     8 # energy   28.79211224 # occ.  0.00000000
 
ion      s     py     pz     px    dxy    dyz    dz2    dxz  x2-y2    tot
    1  0.001  0.001  0.048  0.013  0.000  0.000  0.000  0.000  0.000  0.063
 

 k-point    70 :   -0.46666667 0.13333333 0.06666667     weight = 0.01422222

band     1 # energy    2.04869206 # occ.  2.00000000
 
ion      s     py     pz     px    dxy    dyz    dz2    dxz  x2-y2    tot
    1  0.318  0.057  0.010  0.028  0.000  0.000  0.000  0.000  0.000  0.413
 
band     2 # energy    4.03231539 # occ.  2.00000000
 
ion      s     py     pz     px    dxy    dyz    dz2    dxz  x2-y2    tot
    1  0.124  0.053  0.105  0.075  0.000  0.000  0.000  0.000  0.000  0.358
 
band     3 # energy   15.44310189 # occ.  0.00000000
 
ion      s     py     pz     px    dxy    dyz    dz2    dxz  x2-y2    tot
    1  0.082  0.127  0.249  0.024  0.000  0.000  0.000  0.000  0.000  0.481
 
band     4 # energy   16.30535860 # occ.  0.00000000
 
ion      s     py     pz     px    dxy    dyz    dz2    dxz  x2-y2    tot
    1  0.009  0.166  0.014  0.197  0.000  0.000  0.000  0.000  0.000  0.386
 
band     5 # energy   20.64600175 # occ.  0.00000000
 
ion      s     py     pz     px    dxy    dyz    dz2    dxz  x2-y2    tot
    1  0.003  0.026  0.023  0.182  0.000  0.000  0.000  0.000  0.000  0.234
 
band     6 # energy   21.77823649 # occ.  0.00000000
 
ion      s     py     pz     px    dxy    dyz    dz2    dxz  x2-y2    tot
    1  0.061  0.000  0.006  0.016  0.000  0.000  0.000  0.000  0.000  0.083
 
band     7 # energy   25.28670322 # occ.  0.00000000
 
ion      s     py     pz     px    dxy    dyz    dz2    dxz  x2-y2    tot
    1  0.102  0.085  0.113  0.001  0.000  0.000  0.000  0.000  0.000  0.302
 
band     8 # energy   28.53084614 # occ.  0.00000000
 
ion      s     py     pz     px    dxy    dyz    dz2    dxz  x2-y2    tot
    1  0.000  0.008  0.020  0.001  0.000  0.000  0.000  0.000  0.000  0.029
 

 k-point    71 :    0.26666667 0.20000000 0.06666667     weight = 0.00711111

band     1 # energy   -2.68674691 # occ.  2.00000000
 
ion      s     py     pz     px    dxy    dyz    dz2    dxz  x2-y2    tot
    1  0.347  0.037  0.000  0.004  0.000  0.000  0.000  0.000  0.000  0.388
 
band     2 # energy   14.47063315 # occ.  0.00000000
 
ion      s     py     pz     px    dxy    dyz    dz2    dxz  x2-y2    tot
    1  0.000  0.000  0.309  0.000  0.000  0.000  0.000  0.000  0.000  0.309
 
band     3 # energy   14.88322176 # occ.  0.00000000
 
ion      s     py     pz     px    dxy    dyz    dz2    dxz  x2-y2    tot
    1  0.091  0.101  0.000  0.278  0.000  0.000  0.000  0.000  0.000  0.469
 
band     4 # energy   18.15502658 # occ.  0.00000000
 
ion      s     py     pz     px    dxy    dyz    dz2    dxz  x2-y2    tot
    1  0.083  0.374  0.000  0.110  0.000  0.000  0.000  0.000  0.000  0.567
 
band     5 # energy   19.48558381 # occ.  0.00000000
 
ion      s     py     pz     px    dxy    dyz    dz2    dxz  x2-y2    tot
    1  0.000  0.000  0.122  0.000  0.000  0.000  0.000  0.000  0.000  0.122
 
band     6 # energy   21.31010203 # occ.  0.00000000
 
ion      s     py     pz     px    dxy    dyz    dz2    dxz  x2-y2    tot
    1  0.035  0.013  0.000  0.064  0.000  0.000  0.000  0.000  0.000  0.112
 
band     7 # energy   27.10432026 # occ.  0.00000000
 
ion      s     py     pz     px    dxy    dyz    dz2    dxz  x2-y2    tot
    1  0.026  0.001  0.000  0.182  0.000  0.000  0.000  0.000  0.000  0.209
 
band     8 # energy   27.72426853 # occ.  0.00000000
 
ion      s     py     pz     px    dxy    dyz    dz2    dxz  x2-y2    tot
    1  0.000  0.000  0.228  0.000  0.000  0.000  0.000  0.000  0.000  0.228
 

 k-point    72 :    0.33333333 0.20000000 0.06666667     weight = 0.01422222

band     1 # energy   -1.88852523 # occ.  2.00000000
 
ion      s     py     pz     px    dxy    dyz    dz2    dxz  x2-y2    tot
    1  0.331  0.050  0.001  0.009  0.000  0.000  0.000  0.000  0.000  0.390
 
band     2 # energy   12.03383518 # occ. -0.03571922
 
ion      s     py     pz     px    dxy    dyz    dz2    dxz  x2-y2    tot
    1  0.064  0.040  0.167  0.086  0.000  0.000  0.000  0.000  0.000  0.357
 
band     3 # energy   14.28978475 # occ.  0.00000000
 
ion      s     py     pz     px    dxy    dyz    dz2    dxz  x2-y2    tot
    1  0.072  0.066  0.139  0.148  0.000  0.000  0.000  0.000  0.000  0.425
 
band     4 # energy   17.05583411 # occ.  0.00000000
 
ion      s     py     pz     px    dxy    dyz    dz2    dxz  x2-y2    tot
    1  0.064  0.299  0.001  0.097  0.000  0.000  0.000  0.000  0.000  0.460
 
band     5 # energy   19.69083554 # occ.  0.00000000
 
ion      s     py     pz     px    dxy    dyz    dz2    dxz  x2-y2    tot
    1  0.016  0.003  0.085  0.017  0.000  0.000  0.000  0.000  0.000  0.121
 
band     6 # energy   21.93630670 # occ.  0.00000000
 
ion      s     py     pz     px    dxy    dyz    dz2    dxz  x2-y2    tot
    1  0.028  0.038  0.048  0.126  0.000  0.000  0.000  0.000  0.000  0.240
 
band     7 # energy   26.39993311 # occ.  0.00000000
 
ion      s     py     pz     px    dxy    dyz    dz2    dxz  x2-y2    tot
    1  0.031  0.000  0.007  0.122  0.000  0.000  0.000  0.000  0.000  0.161
 
band     8 # energy   28.18120084 # occ.  0.00000000
 
ion      s     py     pz     px    dxy    dyz    dz2    dxz  x2-y2    tot
    1  0.020  0.006  0.171  0.003  0.000  0.000  0.000  0.000  0.000  0.200
 

 k-point    73 :    0.40000000 0.20000000 0.06666667     weight = 0.01422222

band     1 # energy   -0.84333364 # occ.  2.00000000
 
ion      s     py     pz     px    dxy    dyz    dz2    dxz  x2-y2    tot
    1  0.312  0.063  0.004  0.015  0.000  0.000  0.000  0.000  0.000  0.393
 
band     2 # energy    9.53579376 # occ.  1.37654087
 
ion      s     py     pz     px    dxy    dyz    dz2    dxz  x2-y2    tot
    1  0.101  0.040  0.138  0.086  0.000  0.000  0.000  0.000  0.000  0.365
 
band     3 # energy   14.06444403 # occ.  0.00000000
 
ion      s     py     pz     px    dxy    dyz    dz2    dxz  x2-y2    tot
    1  0.080  0.069  0.177  0.108  0.000  0.000  0.000  0.000  0.000  0.434
 
band     4 # energy   15.91639588 # occ.  0.00000000
 
ion      s     py     pz     px    dxy    dyz    dz2    dxz  x2-y2    tot
    1  0.052  0.247  0.001  0.100  0.000  0.000  0.000  0.000  0.000  0.400
 
band     5 # energy   19.52915759 # occ.  0.00000000
 
ion      s     py     pz     px    dxy    dyz    dz2    dxz  x2-y2    tot
    1  0.034  0.014  0.051  0.057  0.000  0.000  0.000  0.000  0.000  0.156
 
band     6 # energy   23.54848151 # occ.  0.00000000
 
ion      s     py     pz     px    dxy    dyz    dz2    dxz  x2-y2    tot
    1  0.004  0.039  0.075  0.171  0.000  0.000  0.000  0.000  0.000  0.288
 
band     7 # energy   25.51085654 # occ.  0.00000000
 
ion      s     py     pz     px    dxy    dyz    dz2    dxz  x2-y2    tot
    1  0.035  0.000  0.037  0.057  0.000  0.000  0.000  0.000  0.000  0.129
 
band     8 # energy   28.34424407 # occ.  0.00000000
 
ion      s     py     pz     px    dxy    dyz    dz2    dxz  x2-y2    tot
    1  0.055  0.021  0.102  0.002  0.000  0.000  0.000  0.000  0.000  0.180
 

 k-point    74 :    0.46666667 0.20000000 0.06666667     weight = 0.01422222

band     1 # energy    0.44262894 # occ.  2.00000000
 
ion      s     py     pz     px    dxy    dyz    dz2    dxz  x2-y2    tot
    1  0.293  0.076  0.007  0.021  0.000  0.000  0.000  0.000  0.000  0.396
 
band     2 # energy    7.20839592 # occ.  2.00000000
 
ion      s     py     pz     px    dxy    dyz    dz2    dxz  x2-y2    tot
    1  0.129  0.036  0.123  0.081  0.000  0.000  0.000  0.000  0.000  0.369
 
band     3 # energy   14.00439604 # occ.  0.00000000
 
ion      s     py     pz     px    dxy    dyz    dz2    dxz  x2-y2    tot
    1  0.108  0.113  0.195  0.051  0.000  0.000  0.000  0.000  0.000  0.467
 
band     4 # energy   14.97269461 # occ.  0.00000000
 
ion      s     py     pz     px    dxy    dyz    dz2    dxz  x2-y2    tot
    1  0.026  0.167  0.012  0.139  0.000  0.000  0.000  0.000  0.000  0.345
 
band     5 # energy   19.53660108 # occ.  0.00000000
 
ion      s     py     pz     px    dxy    dyz    dz2    dxz  x2-y2    tot
    1  0.043  0.018  0.034  0.091  0.000  0.000  0.000  0.000  0.000  0.186
 
band     6 # energy   24.13147216 # occ.  0.00000000
 
ion      s     py     pz     px    dxy    dyz    dz2    dxz  x2-y2    tot
    1  0.021  0.018  0.001  0.178  0.000  0.000  0.000  0.000  0.000  0.217
 
band     7 # energy   25.81707350 # occ.  0.00000000
 
ion      s     py     pz     px    dxy    dyz    dz2    dxz  x2-y2    tot
    1  0.005  0.030  0.161  0.025  0.000  0.000  0.000  0.000  0.000  0.221
 
band     8 # energy   28.56933132 # occ.  0.00000000
 
ion      s     py     pz     px    dxy    dyz    dz2    dxz  x2-y2    tot
    1  0.079  0.035  0.037  0.002  0.000  0.000  0.000  0.000  0.000  0.152
 

 k-point    75 :   -0.46666667 0.20000000 0.06666667     weight = 0.01422222

band     1 # energy    1.95235222 # occ.  2.00000000
 
ion      s     py     pz     px    dxy    dyz    dz2    dxz  x2-y2    tot
    1  0.288  0.084  0.009  0.024  0.000  0.000  0.000  0.000  0.000  0.404
 
band     2 # energy    5.09811597 # occ.  2.00000000
 
ion      s     py     pz     px    dxy    dyz    dz2    dxz  x2-y2    tot
    1  0.139  0.035  0.113  0.078  0.000  0.000  0.000  0.000  0.000  0.366
 
band     3 # energy   13.75465741 # occ.  0.00000000
 
ion      s     py     pz     px    dxy    dyz    dz2    dxz  x2-y2    tot
    1  0.131  0.233  0.104  0.003  0.000  0.000  0.000  0.000  0.000  0.472
 
band     4 # energy   14.63522188 # occ.  0.00000000
 
ion      s     py     pz     px    dxy    dyz    dz2    dxz  x2-y2    tot
    1  0.004  0.018  0.130  0.179  0.000  0.000  0.000  0.000  0.000  0.330
 
band     5 # energy   19.77142535 # occ.  0.00000000
 
ion      s     py     pz     px    dxy    dyz    dz2    dxz  x2-y2    tot
    1  0.044  0.018  0.024  0.122  0.000  0.000  0.000  0.000  0.000  0.208
 
band     6 # energy   23.49561754 # occ.  0.00000000
 
ion      s     py     pz     px    dxy    dyz    dz2    dxz  x2-y2    tot
    1  0.034  0.013  0.006  0.116  0.000  0.000  0.000  0.000  0.000  0.169
 
band     7 # energy   26.93373060 # occ.  0.00000000
 
ion      s     py     pz     px    dxy    dyz    dz2    dxz  x2-y2    tot
    1  0.017  0.076  0.179  0.026  0.000  0.000  0.000  0.000  0.000  0.298
 
band     8 # energy   29.38983707 # occ.  0.00000000
 
ion      s     py     pz     px    dxy    dyz    dz2    dxz  x2-y2    tot
    1  0.051  0.027  0.001  0.040  0.000  0.000  0.000  0.000  0.000  0.119
 

 k-point    76 :   -0.40000000 0.20000000 0.06666667     weight = 0.01422222

band     1 # energy    2.98148566 # occ.  2.00000000
 
ion      s     py     pz     px    dxy    dyz    dz2    dxz  x2-y2    tot
    1  0.379  0.000  0.045  0.017  0.000  0.000  0.000  0.000  0.000  0.442
 
band     2 # energy    3.91748339 # occ.  2.00000000
 
ion      s     py     pz     px    dxy    dyz    dz2    dxz  x2-y2    tot
    1  0.048  0.127  0.071  0.083  0.000  0.000  0.000  0.000  0.000  0.329
 
band     3 # energy   13.23427497 # occ.  0.00000000
 
ion      s     py     pz     px    dxy    dyz    dz2    dxz  x2-y2    tot
    1  0.113  0.223  0.058  0.037  0.000  0.000  0.000  0.000  0.000  0.430
 
band     4 # energy   14.99764022 # occ.  0.00000000
 
ion      s     py     pz     px    dxy    dyz    dz2    dxz  x2-y2    tot
    1  0.023  0.000  0.203  0.144  0.000  0.000  0.000  0.000  0.000  0.370
 
band     5 # energy   20.21987796 # occ.  0.00000000
 
ion      s     py     pz     px    dxy    dyz    dz2    dxz  x2-y2    tot
    1  0.039  0.016  0.017  0.157  0.000  0.000  0.000  0.000  0.000  0.230
 
band     6 # energy   22.94426160 # occ.  0.00000000
 
ion      s     py     pz     px    dxy    dyz    dz2    dxz  x2-y2    tot
    1  0.040  0.016  0.012  0.077  0.000  0.000  0.000  0.000  0.000  0.144
 
band     7 # energy   27.12490787 # occ.  0.00000000
 
ion      s     py     pz     px    dxy    dyz    dz2    dxz  x2-y2    tot
    1  0.043  0.121  0.123  0.002  0.000  0.000  0.000  0.000  0.000  0.289
 
band     8 # energy   30.51145407 # occ.  0.00000000
 
ion      s     py     pz     px    dxy    dyz    dz2    dxz  x2-y2    tot
    1  0.001  0.035  0.021  0.084  0.000  0.000  0.000  0.000  0.000  0.140
 

 k-point    77 :   -0.33333333 0.20000000 0.06666667     weight = 0.01422222

band     1 # energy    1.42652762 # occ.  2.00000000
 
ion      s     py     pz     px    dxy    dyz    dz2    dxz  x2-y2    tot
    1  0.286  0.005  0.070  0.039  0.000  0.000  0.000  0.000  0.000  0.400
 
band     2 # energy    5.77279526 # occ.  2.00000000
 
ion      s     py     pz     px    dxy    dyz    dz2    dxz  x2-y2    tot
    1  0.137  0.131  0.039  0.059  0.000  0.000  0.000  0.000  0.000  0.367
 
band     3 # energy   12.85038496 # occ.  0.00000000
 
ion      s     py     pz     px    dxy    dyz    dz2    dxz  x2-y2    tot
    1  0.106  0.195  0.054  0.059  0.000  0.000  0.000  0.000  0.000  0.414
 
band     4 # energy   15.66333422 # occ.  0.00000000
 
ion      s     py     pz     px    dxy    dyz    dz2    dxz  x2-y2    tot
    1  0.030  0.000  0.234  0.127  0.000  0.000  0.000  0.000  0.000  0.390
 
band     5 # energy   20.84776560 # occ.  0.00000000
 
ion      s     py     pz     px    dxy    dyz    dz2    dxz  x2-y2    tot
    1  0.028  0.015  0.015  0.197  0.000  0.000  0.000  0.000  0.000  0.256
 
band     6 # energy   22.63809189 # occ.  0.00000000
 
ion      s     py     pz     px    dxy    dyz    dz2    dxz  x2-y2    tot
    1  0.048  0.020  0.013  0.035  0.000  0.000  0.000  0.000  0.000  0.116
 
band     7 # energy   26.87311516 # occ.  0.00000000
 
ion      s     py     pz     px    dxy    dyz    dz2    dxz  x2-y2    tot
    1  0.031  0.164  0.082  0.006  0.000  0.000  0.000  0.000  0.000  0.283
 
band     8 # energy   29.34390752 # occ.  0.00000000
 
ion      s     py     pz     px    dxy    dyz    dz2    dxz  x2-y2    tot
    1  0.025  0.006  0.002  0.066  0.000  0.000  0.000  0.000  0.000  0.099
 

 k-point    78 :   -0.26666667 0.20000000 0.06666667     weight = 0.01422222

band     1 # energy   -0.01282962 # occ.  2.00000000
 
ion      s     py     pz     px    dxy    dyz    dz2    dxz  x2-y2    tot
    1  0.299  0.003  0.060  0.032  0.000  0.000  0.000  0.000  0.000  0.394
 
band     2 # energy    7.95753939 # occ.  2.05257393
 
ion      s     py     pz     px    dxy    dyz    dz2    dxz  x2-y2    tot
    1  0.115  0.147  0.041  0.062  0.000  0.000  0.000  0.000  0.000  0.365
 
band     3 # energy   12.67910225 # occ.  0.00000000
 
ion      s     py     pz     px    dxy    dyz    dz2    dxz  x2-y2    tot
    1  0.105  0.165  0.060  0.079  0.000  0.000  0.000  0.000  0.000  0.408
 
band     4 # energy   16.54637473 # occ.  0.00000000
 
ion      s     py     pz     px    dxy    dyz    dz2    dxz  x2-y2    tot
    1  0.030  0.000  0.259  0.120  0.000  0.000  0.000  0.000  0.000  0.410
 
band     5 # energy   21.54110819 # occ.  0.00000000
 
ion      s     py     pz     px    dxy    dyz    dz2    dxz  x2-y2    tot
    1  0.008  0.022  0.018  0.233  0.000  0.000  0.000  0.000  0.000  0.281
 
band     6 # energy   22.66418771 # occ.  0.00000000
 
ion      s     py     pz     px    dxy    dyz    dz2    dxz  x2-y2    tot
    1  0.058  0.023  0.007  0.000  0.000  0.000  0.000  0.000  0.000  0.088
 
band     7 # energy   26.08197362 # occ.  0.00000000
 
ion      s     py     pz     px    dxy    dyz    dz2    dxz  x2-y2    tot
    1  0.001  0.161  0.056  0.040  0.000  0.000  0.000  0.000  0.000  0.257
 
band     8 # energy   27.81161356 # occ.  0.00000000
 
ion      s     py     pz     px    dxy    dyz    dz2    dxz  x2-y2    tot
    1  0.053  0.030  0.004  0.022  0.000  0.000  0.000  0.000  0.000  0.109
 

 k-point    79 :   -0.20000000 0.20000000 0.06666667     weight = 0.01422222

band     1 # energy   -1.21932263 # occ.  2.00000000
 
ion      s     py     pz     px    dxy    dyz    dz2    dxz  x2-y2    tot
    1  0.319  0.001  0.048  0.024  0.000  0.000  0.000  0.000  0.000  0.392
 
band     2 # energy   10.33494077 # occ.  0.52915450
 
ion      s     py     pz     px    dxy    dyz    dz2    dxz  x2-y2    tot
    1  0.077  0.178  0.040  0.058  0.000  0.000  0.000  0.000  0.000  0.353
 
band     3 # energy   12.74665728 # occ.  0.00000000
 
ion      s     py     pz     px    dxy    dyz    dz2    dxz  x2-y2    tot
    1  0.109  0.122  0.074  0.106  0.000  0.000  0.000  0.000  0.000  0.412
 
band     4 # energy   17.60660118 # occ.  0.00000000
 
ion      s     py     pz     px    dxy    dyz    dz2    dxz  x2-y2    tot
    1  0.029  0.000  0.287  0.125  0.000  0.000  0.000  0.000  0.000  0.440
 
band     5 # energy   22.06922401 # occ.  0.00000000
 
ion      s     py     pz     px    dxy    dyz    dz2    dxz  x2-y2    tot
    1  0.000  0.046  0.019  0.166  0.000  0.000  0.000  0.000  0.000  0.231
 
band     6 # energy   23.09929310 # occ.  0.00000000
 
ion      s     py     pz     px    dxy    dyz    dz2    dxz  x2-y2    tot
    1  0.036  0.035  0.000  0.093  0.000  0.000  0.000  0.000  0.000  0.164
 
band     7 # energy   24.69773569 # occ.  0.00000000
 
ion      s     py     pz     px    dxy    dyz    dz2    dxz  x2-y2    tot
    1  0.027  0.064  0.043  0.025  0.000  0.000  0.000  0.000  0.000  0.159
 
band     8 # energy   27.14653592 # occ.  0.00000000
 
ion      s     py     pz     px    dxy    dyz    dz2    dxz  x2-y2    tot
    1  0.026  0.145  0.003  0.001  0.000  0.000  0.000  0.000  0.000  0.175
 

 k-point    80 :   -0.13333333 0.20000000 0.06666667     weight = 0.00711111

band     1 # energy   -2.18246899 # occ.  2.00000000
 
ion      s     py     pz     px    dxy    dyz    dz2    dxz  x2-y2    tot
    1  0.337  0.000  0.037  0.016  0.000  0.000  0.000  0.000  0.000  0.390
 
band     2 # energy   12.63704760 # occ.  0.00000000
 
ion      s     py     pz     px    dxy    dyz    dz2    dxz  x2-y2    tot
    1  0.000  0.293  0.000  0.000  0.000  0.000  0.000  0.000  0.000  0.293
 
band     3 # energy   13.28170731 # occ.  0.00000000
 
ion      s     py     pz     px    dxy    dyz    dz2    dxz  x2-y2    tot
    1  0.148  0.000  0.128  0.191  0.000  0.000  0.000  0.000  0.000  0.467
 
band     4 # energy   18.74354586 # occ.  0.00000000
 
ion      s     py     pz     px    dxy    dyz    dz2    dxz  x2-y2    tot
    1  0.030  0.000  0.329  0.147  0.000  0.000  0.000  0.000  0.000  0.506
 
band     5 # energy   22.16855363 # occ.  0.00000000
 
ion      s     py     pz     px    dxy    dyz    dz2    dxz  x2-y2    tot
    1  0.000  0.125  0.000  0.000  0.000  0.000  0.000  0.000  0.000  0.125
 
band     6 # energy   22.82143724 # occ.  0.00000000
 
ion      s     py     pz     px    dxy    dyz    dz2    dxz  x2-y2    tot
    1  0.002  0.000  0.030  0.216  0.000  0.000  0.000  0.000  0.000  0.247
 
band     7 # energy   24.67946564 # occ.  0.00000000
 
ion      s     py     pz     px    dxy    dyz    dz2    dxz  x2-y2    tot
    1  0.060  0.000  0.014  0.038  0.000  0.000  0.000  0.000  0.000  0.111
 
band     8 # energy   26.53836278 # occ.  0.00000000
 
ion      s     py     pz     px    dxy    dyz    dz2    dxz  x2-y2    tot
    1  0.000  0.213  0.000  0.000  0.000  0.000  0.000  0.000  0.000  0.213
 

 k-point    81 :    0.33333333 0.26666667 0.06666667     weight = 0.00711111

band     1 # energy   -1.51057918 # occ.  2.00000000
 
ion      s     py     pz     px    dxy    dyz    dz2    dxz  x2-y2    tot
    1  0.322  0.065  0.000  0.004  0.000  0.000  0.000  0.000  0.000  0.391
 
band     2 # energy   13.23397765 # occ.  0.00000000
 
ion      s     py     pz     px    dxy    dyz    dz2    dxz  x2-y2    tot
    1  0.000  0.000  0.314  0.000  0.000  0.000  0.000  0.000  0.000  0.314
 
band     3 # energy   13.63697943 # occ.  0.00000000
 
ion      s     py     pz     px    dxy    dyz    dz2    dxz  x2-y2    tot
    1  0.136  0.111  0.000  0.258  0.000  0.000  0.000  0.000  0.000  0.504
 
band     4 # energy   15.33563171 # occ.  0.00000000
 
ion      s     py     pz     px    dxy    dyz    dz2    dxz  x2-y2    tot
    1  0.067  0.241  0.000  0.097  0.000  0.000  0.000  0.000  0.000  0.405
 
band     5 # energy   18.25156535 # occ.  0.00000000
 
ion      s     py     pz     px    dxy    dyz    dz2    dxz  x2-y2    tot
    1  0.000  0.000  0.133  0.000  0.000  0.000  0.000  0.000  0.000  0.133
 
band     6 # energy   19.76320276 # occ.  0.00000000
 
ion      s     py     pz     px    dxy    dyz    dz2    dxz  x2-y2    tot
    1  0.099  0.042  0.000  0.100  0.000  0.000  0.000  0.000  0.000  0.241
 
band     7 # energy   28.50649935 # occ.  0.00000000
 
ion      s     py     pz     px    dxy    dyz    dz2    dxz  x2-y2    tot
    1  0.015  0.003  0.000  0.139  0.000  0.000  0.000  0.000  0.000  0.157
 
band     8 # energy   30.26781578 # occ.  0.00000000
 
ion      s     py     pz     px    dxy    dyz    dz2    dxz  x2-y2    tot
    1  0.000  0.000  0.206  0.000  0.000  0.000  0.000  0.000  0.000  0.206
 

 k-point    82 :    0.40000000 0.26666667 0.06666667     weight = 0.01422222

band     1 # energy   -0.55017711 # occ.  2.00000000
 
ion      s     py     pz     px    dxy    dyz    dz2    dxz  x2-y2    tot
    1  0.304  0.080  0.001  0.008  0.000  0.000  0.000  0.000  0.000  0.393
 
band     2 # energy   10.93115588 # occ.  0.02578647
 
ion      s     py     pz     px    dxy    dyz    dz2    dxz  x2-y2    tot
    1  0.080  0.033  0.169  0.086  0.000  0.000  0.000  0.000  0.000  0.368
 
band     3 # energy   13.11695582 # occ.  0.00000000
 
ion      s     py     pz     px    dxy    dyz    dz2    dxz  x2-y2    tot
    1  0.128  0.115  0.133  0.094  0.000  0.000  0.000  0.000  0.000  0.471
 
band     4 # energy   14.11464281 # occ.  0.00000000
 
ion      s     py     pz     px    dxy    dyz    dz2    dxz  x2-y2    tot
    1  0.032  0.162  0.010  0.128  0.000  0.000  0.000  0.000  0.000  0.332
 
band     5 # energy   18.54496184 # occ.  0.00000000
 
ion      s     py     pz     px    dxy    dyz    dz2    dxz  x2-y2    tot
    1  0.035  0.009  0.088  0.030  0.000  0.000  0.000  0.000  0.000  0.162
 
band     6 # energy   20.92316269 # occ.  0.00000000
 
ion      s     py     pz     px    dxy    dyz    dz2    dxz  x2-y2    tot
    1  0.059  0.033  0.052  0.132  0.000  0.000  0.000  0.000  0.000  0.275
 
band     7 # energy   27.65347069 # occ.  0.00000000
 
ion      s     py     pz     px    dxy    dyz    dz2    dxz  x2-y2    tot
    1  0.022  0.004  0.006  0.111  0.000  0.000  0.000  0.000  0.000  0.144
 
band     8 # energy   30.72197417 # occ.  0.00000000
 
ion      s     py     pz     px    dxy    dyz    dz2    dxz  x2-y2    tot
    1  0.018  0.015  0.148  0.006  0.000  0.000  0.000  0.000  0.000  0.187
 

 k-point    83 :    0.46666667 0.26666667 0.06666667     weight = 0.01422222

band     1 # energy    0.65239103 # occ.  2.00000000
 
ion      s     py     pz     px    dxy    dyz    dz2    dxz  x2-y2    tot
    1  0.284  0.095  0.003  0.013  0.000  0.000  0.000  0.000  0.000  0.395
 
band     2 # energy    8.57821559 # occ.  2.09988763
 
ion      s     py     pz     px    dxy    dyz    dz2    dxz  x2-y2    tot
    1  0.115  0.029  0.141  0.087  0.000  0.000  0.000  0.000  0.000  0.373
 
band     3 # energy   12.57175406 # occ. -0.00118262
 
ion      s     py     pz     px    dxy    dyz    dz2    dxz  x2-y2    tot
    1  0.160  0.231  0.074  0.000  0.000  0.000  0.000  0.000  0.000  0.465
 
band     4 # energy   13.44588199 # occ.  0.00000000
 
ion      s     py     pz     px    dxy    dyz    dz2    dxz  x2-y2    tot
    1  0.004  0.018  0.108  0.192  0.000  0.000  0.000  0.000  0.000  0.321
 
band     5 # energy   18.58448758 # occ.  0.00000000
 
ion      s     py     pz     px    dxy    dyz    dz2    dxz  x2-y2    tot
    1  0.056  0.013  0.054  0.066  0.000  0.000  0.000  0.000  0.000  0.189
 
band     6 # energy   22.87857581 # occ.  0.00000000
 
ion      s     py     pz     px    dxy    dyz    dz2    dxz  x2-y2    tot
    1  0.024  0.024  0.081  0.146  0.000  0.000  0.000  0.000  0.000  0.275
 
band     7 # energy   26.75693415 # occ.  0.00000000
 
ion      s     py     pz     px    dxy    dyz    dz2    dxz  x2-y2    tot
    1  0.027  0.006  0.020  0.081  0.000  0.000  0.000  0.000  0.000  0.134
 
band     8 # energy   30.65773290 # occ.  0.00000000
 
ion      s     py     pz     px    dxy    dyz    dz2    dxz  x2-y2    tot
    1  0.039  0.049  0.097  0.002  0.000  0.000  0.000  0.000  0.000  0.186
 

 k-point    84 :   -0.46666667 0.26666667 0.06666667     weight = 0.01422222

band     1 # energy    2.08664915 # occ.  2.00000000
 
ion      s     py     pz     px    dxy    dyz    dz2    dxz  x2-y2    tot
    1  0.269  0.109  0.005  0.017  0.000  0.000  0.000  0.000  0.000  0.400
 
band     2 # energy    6.40621885 # occ.  2.00000000
 
ion      s     py     pz     px    dxy    dyz    dz2    dxz  x2-y2    tot
    1  0.136  0.025  0.126  0.083  0.000  0.000  0.000  0.000  0.000  0.371
 
band     3 # energy   11.73634251 # occ. -0.08912187
 
ion      s     py     pz     px    dxy    dyz    dz2    dxz  x2-y2    tot
    1  0.142  0.224  0.037  0.017  0.000  0.000  0.000  0.000  0.000  0.420
 
band     4 # energy   13.50809596 # occ.  0.00000000
 
ion      s     py     pz     px    dxy    dyz    dz2    dxz  x2-y2    tot
    1  0.027  0.000  0.173  0.161  0.000  0.000  0.000  0.000  0.000  0.361
 
band     5 # energy   18.78578351 # occ.  0.00000000
 
ion      s     py     pz     px    dxy    dyz    dz2    dxz  x2-y2    tot
    1  0.062  0.010  0.036  0.093  0.000  0.000  0.000  0.000  0.000  0.202
 
band     6 # energy   24.82222215 # occ.  0.00000000
 
ion      s     py     pz     px    dxy    dyz    dz2    dxz  x2-y2    tot
    1  0.000  0.029  0.051  0.202  0.000  0.000  0.000  0.000  0.000  0.282
 
band     7 # energy   26.18780353 # occ.  0.00000000
 
ion      s     py     pz     px    dxy    dyz    dz2    dxz  x2-y2    tot
    1  0.032  0.001  0.079  0.011  0.000  0.000  0.000  0.000  0.000  0.123
 
band     8 # energy   30.31216814 # occ.  0.00000000
 
ion      s     py     pz     px    dxy    dyz    dz2    dxz  x2-y2    tot
    1  0.042  0.089  0.056  0.002  0.000  0.000  0.000  0.000  0.000  0.188
 

 k-point    85 :   -0.40000000 0.26666667 0.06666667     weight = 0.01422222

band     1 # energy    3.64253711 # occ.  2.00000000
 
ion      s     py     pz     px    dxy    dyz    dz2    dxz  x2-y2    tot
    1  0.353  0.085  0.000  0.003  0.000  0.000  0.000  0.000  0.000  0.442
 
band     2 # energy    4.55170857 # occ.  2.00000000
 
ion      s     py     pz     px    dxy    dyz    dz2    dxz  x2-y2    tot
    1  0.052  0.060  0.122  0.095  0.000  0.000  0.000  0.000  0.000  0.329
 
band     3 # energy   11.03278274 # occ. -0.02711642
 
ion      s     py     pz     px    dxy    dyz    dz2    dxz  x2-y2    tot
    1  0.139  0.197  0.035  0.035  0.000  0.000  0.000  0.000  0.000  0.405
 
band     4 # energy   13.89274936 # occ.  0.00000000
 
ion      s     py     pz     px    dxy    dyz    dz2    dxz  x2-y2    tot
    1  0.035  0.000  0.202  0.138  0.000  0.000  0.000  0.000  0.000  0.375
 
band     5 # energy   19.20780824 # occ.  0.00000000
 
ion      s     py     pz     px    dxy    dyz    dz2    dxz  x2-y2    tot
    1  0.062  0.007  0.024  0.119  0.000  0.000  0.000  0.000  0.000  0.212
 
band     6 # energy   25.00259739 # occ.  0.00000000
 
ion      s     py     pz     px    dxy    dyz    dz2    dxz  x2-y2    tot
    1  0.019  0.029  0.002  0.137  0.000  0.000  0.000  0.000  0.000  0.186
 
band     7 # energy   27.52995419 # occ.  0.00000000
 
ion      s     py     pz     px    dxy    dyz    dz2    dxz  x2-y2    tot
    1  0.002  0.014  0.157  0.046  0.000  0.000  0.000  0.000  0.000  0.218
 
band     8 # energy   29.70525002 # occ.  0.00000000
 
ion      s     py     pz     px    dxy    dyz    dz2    dxz  x2-y2    tot
    1  0.022  0.123  0.017  0.032  0.000  0.000  0.000  0.000  0.000  0.193
 

 k-point    86 :   -0.33333333 0.26666667 0.06666667     weight = 0.01422222

band     1 # energy    2.60932796 # occ.  2.00000000
 
ion      s     py     pz     px    dxy    dyz    dz2    dxz  x2-y2    tot
    1  0.276  0.001  0.081  0.047  0.000  0.000  0.000  0.000  0.000  0.405
 
band     2 # energy    5.72874687 # occ.  2.00000000
 
ion      s     py     pz     px    dxy    dyz    dz2    dxz  x2-y2    tot
    1  0.123  0.160  0.032  0.047  0.000  0.000  0.000  0.000  0.000  0.362
 
band     3 # energy   10.54548792 # occ.  0.26405124
 
ion      s     py     pz     px    dxy    dyz    dz2    dxz  x2-y2    tot
    1  0.143  0.167  0.041  0.052  0.000  0.000  0.000  0.000  0.000  0.402
 
band     4 # energy   14.51810265 # occ.  0.00000000
 
ion      s     py     pz     px    dxy    dyz    dz2    dxz  x2-y2    tot
    1  0.037  0.000  0.223  0.123  0.000  0.000  0.000  0.000  0.000  0.383
 
band     5 # energy   19.84152908 # occ.  0.00000000
 
ion      s     py     pz     px    dxy    dyz    dz2    dxz  x2-y2    tot
    1  0.058  0.004  0.016  0.144  0.000  0.000  0.000  0.000  0.000  0.221
 
band     6 # energy   24.61858013 # occ.  0.00000000
 
ion      s     py     pz     px    dxy    dyz    dz2    dxz  x2-y2    tot
    1  0.024  0.037  0.011  0.093  0.000  0.000  0.000  0.000  0.000  0.164
 
band     7 # energy   28.24378022 # occ.  0.00000000
 
ion      s     py     pz     px    dxy    dyz    dz2    dxz  x2-y2    tot
    1  0.001  0.141  0.067  0.024  0.000  0.000  0.000  0.000  0.000  0.233
 
band     8 # energy   29.16518308 # occ.  0.00000000
 
ion      s     py     pz     px    dxy    dyz    dz2    dxz  x2-y2    tot
    1  0.009  0.001  0.069  0.090  0.000  0.000  0.000  0.000  0.000  0.169
 

 k-point    87 :   -0.26666667 0.26666667 0.06666667     weight = 0.01422222

band     1 # energy    1.10389614 # occ.  2.00000000
 
ion      s     py     pz     px    dxy    dyz    dz2    dxz  x2-y2    tot
    1  0.282  0.001  0.073  0.042  0.000  0.000  0.000  0.000  0.000  0.397
 
band     2 # energy    7.80549401 # occ.  2.00000000
 
ion      s     py     pz     px    dxy    dyz    dz2    dxz  x2-y2    tot
    1  0.096  0.194  0.027  0.041  0.000  0.000  0.000  0.000  0.000  0.358
 
band     3 # energy   10.30686785 # occ.  0.29367214
 
ion      s     py     pz     px    dxy    dyz    dz2    dxz  x2-y2    tot
    1  0.158  0.121  0.054  0.076  0.000  0.000  0.000  0.000  0.000  0.409
 
band     4 # energy   15.36586268 # occ.  0.00000000
 
ion      s     py     pz     px    dxy    dyz    dz2    dxz  x2-y2    tot
    1  0.035  0.000  0.240  0.114  0.000  0.000  0.000  0.000  0.000  0.389
 
band     5 # energy   20.67886447 # occ.  0.00000000
 
ion      s     py     pz     px    dxy    dyz    dz2    dxz  x2-y2    tot
    1  0.048  0.002  0.011  0.172  0.000  0.000  0.000  0.000  0.000  0.233
 
band     6 # energy   24.37431678 # occ.  0.00000000
 
ion      s     py     pz     px    dxy    dyz    dz2    dxz  x2-y2    tot
    1  0.021  0.056  0.016  0.057  0.000  0.000  0.000  0.000  0.000  0.149
 
band     7 # energy   26.40883226 # occ.  0.00000000
 
ion      s     py     pz     px    dxy    dyz    dz2    dxz  x2-y2    tot
    1  0.008  0.080  0.033  0.077  0.000  0.000  0.000  0.000  0.000  0.198
 
band     8 # energy   29.12332249 # occ.  0.00000000
 
ion      s     py     pz     px    dxy    dyz    dz2    dxz  x2-y2    tot
    1  0.020  0.104  0.023  0.010  0.000  0.000  0.000  0.000  0.000  0.157
 

 k-point    88 :   -0.20000000 0.26666667 0.06666667     weight = 0.00711111

band     1 # energy   -0.17746424 # occ.  2.00000000
 
ion      s     py     pz     px    dxy    dyz    dz2    dxz  x2-y2    tot
    1  0.301  0.000  0.061  0.033  0.000  0.000  0.000  0.000  0.000  0.394
 
band     2 # energy    9.80249350 # occ.  1.56905826
 
ion      s     py     pz     px    dxy    dyz    dz2    dxz  x2-y2    tot
    1  0.000  0.305  0.000  0.000  0.000  0.000  0.000  0.000  0.000  0.305
 
band     3 # energy   10.59292951 # occ. -0.00898054
 
ion      s     py     pz     px    dxy    dyz    dz2    dxz  x2-y2    tot
    1  0.223  0.000  0.097  0.139  0.000  0.000  0.000  0.000  0.000  0.460
 
band     4 # energy   16.41410124 # occ.  0.00000000
 
ion      s     py     pz     px    dxy    dyz    dz2    dxz  x2-y2    tot
    1  0.032  0.000  0.259  0.113  0.000  0.000  0.000  0.000  0.000  0.403
 
band     5 # energy   21.67306530 # occ.  0.00000000
 
ion      s     py     pz     px    dxy    dyz    dz2    dxz  x2-y2    tot
    1  0.034  0.000  0.010  0.215  0.000  0.000  0.000  0.000  0.000  0.259
 
band     6 # energy   24.02993227 # occ.  0.00000000
 
ion      s     py     pz     px    dxy    dyz    dz2    dxz  x2-y2    tot
    1  0.000  0.124  0.000  0.000  0.000  0.000  0.000  0.000  0.000  0.124
 
band     7 # energy   24.72903883 # occ.  0.00000000
 
ion      s     py     pz     px    dxy    dyz    dz2    dxz  x2-y2    tot
    1  0.042  0.000  0.052  0.090  0.000  0.000  0.000  0.000  0.000  0.184
 
band     8 # energy   28.36029641 # occ.  0.00000000
 
ion      s     py     pz     px    dxy    dyz    dz2    dxz  x2-y2    tot
    1  0.000  0.175  0.000  0.000  0.000  0.000  0.000  0.000  0.000  0.175
 

 k-point    89 :    0.40000000 0.33333333 0.06666667     weight = 0.00711111

band     1 # energy   -0.00905557 # occ.  2.00000000
 
ion      s     py     pz     px    dxy    dyz    dz2    dxz  x2-y2    tot
    1  0.291  0.098  0.000  0.003  0.000  0.000  0.000  0.000  0.000  0.393
 
band     2 # energy   11.90973070 # occ. -0.10061812
 
ion      s     py     pz     px    dxy    dyz    dz2    dxz  x2-y2    tot
    1  0.224  0.268  0.000  0.018  0.000  0.000  0.000  0.000  0.000  0.511
 
band     3 # energy   12.29874612 # occ.  0.00000000
 
ion      s     py     pz     px    dxy    dyz    dz2    dxz  x2-y2    tot
    1  0.000  0.000  0.319  0.000  0.000  0.000  0.000  0.000  0.000  0.319
 
band     4 # energy   13.07128410 # occ.  0.00000000
 
ion      s     py     pz     px    dxy    dyz    dz2    dxz  x2-y2    tot
    1  0.013  0.007  0.000  0.331  0.000  0.000  0.000  0.000  0.000  0.351
 
band     5 # energy   17.29508822 # occ.  0.00000000
 
ion      s     py     pz     px    dxy    dyz    dz2    dxz  x2-y2    tot
    1  0.000  0.000  0.139  0.000  0.000  0.000  0.000  0.000  0.000  0.139
 
band     6 # energy   18.78584928 # occ.  0.00000000
 
ion      s     py     pz     px    dxy    dyz    dz2    dxz  x2-y2    tot
    1  0.148  0.032  0.000  0.113  0.000  0.000  0.000  0.000  0.000  0.293
 
band     7 # energy   29.95166150 # occ.  0.00000000
 
ion      s     py     pz     px    dxy    dyz    dz2    dxz  x2-y2    tot
    1  0.010  0.006  0.000  0.106  0.000  0.000  0.000  0.000  0.000  0.121
 
band     8 # energy   32.55698937 # occ.  0.00000000
 
ion      s     py     pz     px    dxy    dyz    dz2    dxz  x2-y2    tot
    1  0.000  0.000  0.163  0.000  0.000  0.000  0.000  0.000  0.000  0.163
 

 k-point    90 :    0.46666667 0.33333333 0.06666667     weight = 0.01422222

band     1 # energy    1.10859100 # occ.  2.00000000
 
ion      s     py     pz     px    dxy    dyz    dz2    dxz  x2-y2    tot
    1  0.271  0.116  0.001  0.007  0.000  0.000  0.000  0.000  0.000  0.395
 
band     2 # energy   10.05845984 # occ.  1.11226426
 
ion      s     py     pz     px    dxy    dyz    dz2    dxz  x2-y2    tot
    1  0.155  0.071  0.134  0.066  0.000  0.000  0.000  0.000  0.000  0.426
 
band     3 # energy   10.89476671 # occ. -0.12427906
 
ion      s     py     pz     px    dxy    dyz    dz2    dxz  x2-y2    tot
    1  0.097  0.176  0.067  0.021  0.000  0.000  0.000  0.000  0.000  0.362
 
band     4 # energy   12.61833835 # occ.  0.00000000
 
ion      s     py     pz     px    dxy    dyz    dz2    dxz  x2-y2    tot
    1  0.034  0.000  0.116  0.216  0.000  0.000  0.000  0.000  0.000  0.366
 
band     5 # energy   17.74306584 # occ.  0.00000000
 
ion      s     py     pz     px    dxy    dyz    dz2    dxz  x2-y2    tot
    1  0.046  0.006  0.092  0.033  0.000  0.000  0.000  0.000  0.000  0.176
 
band     6 # energy   20.20063176 # occ.  0.00000000
 
ion      s     py     pz     px    dxy    dyz    dz2    dxz  x2-y2    tot
    1  0.082  0.017  0.053  0.135  0.000  0.000  0.000  0.000  0.000  0.288
 
band     7 # energy   29.12433998 # occ.  0.00000000
 
ion      s     py     pz     px    dxy    dyz    dz2    dxz  x2-y2    tot
    1  0.015  0.010  0.006  0.093  0.000  0.000  0.000  0.000  0.000  0.124
 
band     8 # energy   32.84119357 # occ.  0.00000000
 
ion      s     py     pz     px    dxy    dyz    dz2    dxz  x2-y2    tot
    1  0.013  0.031  0.098  0.003  0.000  0.000  0.000  0.000  0.000  0.145
 

 k-point    91 :   -0.46666667 0.33333333 0.06666667     weight = 0.01422222

band     1 # energy    2.46031290 # occ.  2.00000000
 
ion      s     py     pz     px    dxy    dyz    dz2    dxz  x2-y2    tot
    1  0.249  0.135  0.002  0.011  0.000  0.000  0.000  0.000  0.000  0.397
 
band     2 # energy    7.91069211 # occ.  2.00322709
 
ion      s     py     pz     px    dxy    dyz    dz2    dxz  x2-y2    tot
    1  0.147  0.029  0.134  0.081  0.000  0.000  0.000  0.000  0.000  0.391
 
band     3 # energy    9.82139079 # occ.  1.00920723
 
ion      s     py     pz     px    dxy    dyz    dz2    dxz  x2-y2    tot
    1  0.136  0.189  0.030  0.026  0.000  0.000  0.000  0.000  0.000  0.381
 
band     4 # energy   12.68325122 # occ.  0.00000000
 
ion      s     py     pz     px    dxy    dyz    dz2    dxz  x2-y2    tot
    1  0.042  0.000  0.163  0.171  0.000  0.000  0.000  0.000  0.000  0.377
 
band     5 # energy   17.95436401 # occ.  0.00000000
 
ion      s     py     pz     px    dxy    dyz    dz2    dxz  x2-y2    tot
    1  0.069  0.005  0.056  0.068  0.000  0.000  0.000  0.000  0.000  0.198
 
band     6 # energy   22.35957225 # occ.  0.00000000
 
ion      s     py     pz     px    dxy    dyz    dz2    dxz  x2-y2    tot
    1  0.040  0.009  0.082  0.139  0.000  0.000  0.000  0.000  0.000  0.270
 
band     7 # energy   28.31018178 # occ.  0.00000000
 
ion      s     py     pz     px    dxy    dyz    dz2    dxz  x2-y2    tot
    1  0.018  0.016  0.015  0.079  0.000  0.000  0.000  0.000  0.000  0.128
 
band     8 # energy   32.24454074 # occ.  0.00000000
 
ion      s     py     pz     px    dxy    dyz    dz2    dxz  x2-y2    tot
    1  0.013  0.085  0.054  0.001  0.000  0.000  0.000  0.000  0.000  0.153
 

 k-point    92 :   -0.40000000 0.33333333 0.06666667     weight = 0.01422222

band     1 # energy    4.01543229 # occ.  2.00000000
 
ion      s     py     pz     px    dxy    dyz    dz2    dxz  x2-y2    tot
    1  0.252  0.147  0.001  0.009  0.000  0.000  0.000  0.000  0.000  0.410
 
band     2 # energy    5.92893573 # occ.  2.00000000
 
ion      s     py     pz     px    dxy    dyz    dz2    dxz  x2-y2    tot
    1  0.132  0.027  0.125  0.084  0.000  0.000  0.000  0.000  0.000  0.368
 
band     3 # energy    8.99868427 # occ.  1.90799413
 
ion      s     py     pz     px    dxy    dyz    dz2    dxz  x2-y2    tot
    1  0.156  0.167  0.028  0.035  0.000  0.000  0.000  0.000  0.000  0.387
 
band     4 # energy   13.01143625 # occ.  0.00000000
 
ion      s     py     pz     px    dxy    dyz    dz2    dxz  x2-y2    tot
    1  0.044  0.000  0.189  0.147  0.000  0.000  0.000  0.000  0.000  0.381
 
band     5 # energy   18.33253004 # occ.  0.00000000
 
ion      s     py     pz     px    dxy    dyz    dz2    dxz  x2-y2    tot
    1  0.073  0.003  0.037  0.094  0.000  0.000  0.000  0.000  0.000  0.207
 
band     6 # energy   24.73539134 # occ.  0.00000000
 
ion      s     py     pz     px    dxy    dyz    dz2    dxz  x2-y2    tot
    1  0.013  0.007  0.086  0.160  0.000  0.000  0.000  0.000  0.000  0.265
 
band     7 # energy   27.68060193 # occ.  0.00000000
 
ion      s     py     pz     px    dxy    dyz    dz2    dxz  x2-y2    tot
    1  0.021  0.023  0.033  0.049  0.000  0.000  0.000  0.000  0.000  0.126
 
band     8 # energy   30.95317171 # occ.  0.00000000
 
ion      s     py     pz     px    dxy    dyz    dz2    dxz  x2-y2    tot
    1  0.001  0.108  0.034  0.023  0.000  0.000  0.000  0.000  0.000  0.166
 

 k-point    93 :   -0.33333333 0.33333333 0.06666667     weight = 0.01422222

band     1 # energy    4.01448525 # occ.  2.00000000
 
ion      s     py     pz     px    dxy    dyz    dz2    dxz  x2-y2    tot
    1  0.276  0.000  0.090  0.051  0.000  0.000  0.000  0.000  0.000  0.417
 
band     2 # energy    5.91000844 # occ.  2.00000000
 
ion      s     py     pz     px    dxy    dyz    dz2    dxz  x2-y2    tot
    1  0.083  0.208  0.025  0.035  0.000  0.000  0.000  0.000  0.000  0.350
 
band     3 # energy    8.43529015 # occ.  2.11344335
 
ion      s     py     pz     px    dxy    dyz    dz2    dxz  x2-y2    tot
    1  0.186  0.123  0.036  0.052  0.000  0.000  0.000  0.000  0.000  0.398
 
band     4 # energy   13.57550296 # occ.  0.00000000
 
ion      s     py     pz     px    dxy    dyz    dz2    dxz  x2-y2    tot
    1  0.043  0.000  0.209  0.131  0.000  0.000  0.000  0.000  0.000  0.383
 
band     5 # energy   18.91997653 # occ.  0.00000000
 
ion      s     py     pz     px    dxy    dyz    dz2    dxz  x2-y2    tot
    1  0.070  0.001  0.024  0.118  0.000  0.000  0.000  0.000  0.000  0.214
 
band     6 # energy   26.57587485 # occ.  0.00000000
 
ion      s     py     pz     px    dxy    dyz    dz2    dxz  x2-y2    tot
    1  0.003  0.026  0.008  0.191  0.000  0.000  0.000  0.000  0.000  0.228
 
band     7 # energy   27.70202673 # occ.  0.00000000
 
ion      s     py     pz     px    dxy    dyz    dz2    dxz  x2-y2    tot
    1  0.011  0.023  0.099  0.016  0.000  0.000  0.000  0.000  0.000  0.148
 
band     8 # energy   28.99237870 # occ.  0.00000000
 
ion      s     py     pz     px    dxy    dyz    dz2    dxz  x2-y2    tot
    1  0.004  0.075  0.058  0.034  0.000  0.000  0.000  0.000  0.000  0.171
 

 k-point    94 :   -0.26666667 0.33333333 0.06666667     weight = 0.00711111

band     1 # energy    2.45597184 # occ.  2.00000000
 
ion      s     py     pz     px    dxy    dyz    dz2    dxz  x2-y2    tot
    1  0.265  0.000  0.085  0.050  0.000  0.000  0.000  0.000  0.000  0.401
 
band     2 # energy    7.57503652 # occ.  2.00000000
 
ion      s     py     pz     px    dxy    dyz    dz2    dxz  x2-y2    tot
    1  0.000  0.323  0.000  0.000  0.000  0.000  0.000  0.000  0.000  0.323
 
band     3 # energy    8.42062182 # occ.  2.25242834
 
ion      s     py     pz     px    dxy    dyz    dz2    dxz  x2-y2    tot
    1  0.278  0.000  0.066  0.097  0.000  0.000  0.000  0.000  0.000  0.441
 
band     4 # energy   14.36376356 # occ.  0.00000000
 
ion      s     py     pz     px    dxy    dyz    dz2    dxz  x2-y2    tot
    1  0.040  0.000  0.226  0.119  0.000  0.000  0.000  0.000  0.000  0.385
 
band     5 # energy   19.71033735 # occ.  0.00000000
 
ion      s     py     pz     px    dxy    dyz    dz2    dxz  x2-y2    tot
    1  0.063  0.000  0.015  0.142  0.000  0.000  0.000  0.000  0.000  0.220
 
band     6 # energy   26.49056658 # occ.  0.00000000
 
ion      s     py     pz     px    dxy    dyz    dz2    dxz  x2-y2    tot
    1  0.000  0.115  0.000  0.000  0.000  0.000  0.000  0.000  0.000  0.115
 
band     7 # energy   26.61869905 # occ.  0.00000000
 
ion      s     py     pz     px    dxy    dyz    dz2    dxz  x2-y2    tot
    1  0.021  0.000  0.022  0.182  0.000  0.000  0.000  0.000  0.000  0.225
 
band     8 # energy   29.68609243 # occ.  0.00000000
 
ion      s     py     pz     px    dxy    dyz    dz2    dxz  x2-y2    tot
    1  0.000  0.000  0.161  0.035  0.000  0.000  0.000  0.000  0.000  0.197
 

 k-point    95 :    0.46666667 0.40000000 0.06666667     weight = 0.00711111

band     1 # energy    1.80898420 # occ.  2.00000000
 
ion      s     py     pz     px    dxy    dyz    dz2    dxz  x2-y2    tot
    1  0.252  0.139  0.000  0.003  0.000  0.000  0.000  0.000  0.000  0.395
 
band     2 # energy    9.10205289 # occ.  1.92313852
 
ion      s     py     pz     px    dxy    dyz    dz2    dxz  x2-y2    tot
    1  0.217  0.218  0.000  0.000  0.000  0.000  0.000  0.000  0.000  0.435
 
band     3 # energy   11.67343129 # occ. -0.11293303
 
ion      s     py     pz     px    dxy    dyz    dz2    dxz  x2-y2    tot
    1  0.000  0.000  0.322  0.000  0.000  0.000  0.000  0.000  0.000  0.322
 
band     4 # energy   12.32551359 # occ.  0.00000000
 
ion      s     py     pz     px    dxy    dyz    dz2    dxz  x2-y2    tot
    1  0.063  0.001  0.000  0.351  0.000  0.000  0.000  0.000  0.000  0.415
 
band     5 # energy   16.65995420 # occ.  0.00000000
 
ion      s     py     pz     px    dxy    dyz    dz2    dxz  x2-y2    tot
    1  0.000  0.000  0.145  0.000  0.000  0.000  0.000  0.000  0.000  0.145
 
band     6 # energy   18.16650829 # occ.  0.00000000
 
ion      s     py     pz     px    dxy    dyz    dz2    dxz  x2-y2    tot
    1  0.178  0.014  0.000  0.119  0.000  0.000  0.000  0.000  0.000  0.310
 
band     7 # energy   31.53277150 # occ.  0.00000000
 
ion      s     py     pz     px    dxy    dyz    dz2    dxz  x2-y2    tot
    1  0.006  0.008  0.000  0.077  0.000  0.000  0.000  0.000  0.000  0.091
 
band     8 # energy   34.57954088 # occ.  0.00000000
 
ion      s     py     pz     px    dxy    dyz    dz2    dxz  x2-y2    tot
    1  0.000  0.001  0.093  0.000  0.000  0.000  0.000  0.000  0.000  0.094
 

 k-point    96 :   -0.46666667 0.40000000 0.06666667     weight = 0.01422222

band     1 # energy    3.07230958 # occ.  2.00000000
 
ion      s     py     pz     px    dxy    dyz    dz2    dxz  x2-y2    tot
    1  0.225  0.164  0.001  0.006  0.000  0.000  0.000  0.000  0.000  0.395
 
band     2 # energy    7.94241763 # occ.  2.00435129
 
ion      s     py     pz     px    dxy    dyz    dz2    dxz  x2-y2    tot
    1  0.255  0.188  0.000  0.001  0.000  0.000  0.000  0.000  0.000  0.444
 
band     3 # energy    9.75727445 # occ.  1.30635296
 
ion      s     py     pz     px    dxy    dyz    dz2    dxz  x2-y2    tot
    1  0.029  0.000  0.194  0.097  0.000  0.000  0.000  0.000  0.000  0.320
 
band     4 # energy   12.11398193 # occ.  0.00000000
 
ion      s     py     pz     px    dxy    dyz    dz2    dxz  x2-y2    tot
    1  0.055  0.000  0.127  0.208  0.000  0.000  0.000  0.000  0.000  0.390
 
band     5 # energy   17.26585259 # occ.  0.00000000
 
ion      s     py     pz     px    dxy    dyz    dz2    dxz  x2-y2    tot
    1  0.052  0.002  0.095  0.034  0.000  0.000  0.000  0.000  0.000  0.182
 
band     6 # energy   19.76038309 # occ.  0.00000000
 
ion      s     py     pz     px    dxy    dyz    dz2    dxz  x2-y2    tot
    1  0.096  0.004  0.053  0.137  0.000  0.000  0.000  0.000  0.000  0.291
 
band     7 # energy   30.79859374 # occ.  0.00000000
 
ion      s     py     pz     px    dxy    dyz    dz2    dxz  x2-y2    tot
    1  0.009  0.017  0.005  0.074  0.000  0.000  0.000  0.000  0.000  0.104
 
band     8 # energy   33.77544643 # occ.  0.00000000
 
ion      s     py     pz     px    dxy    dyz    dz2    dxz  x2-y2    tot
    1  0.001  0.060  0.016  0.004  0.000  0.000  0.000  0.000  0.000  0.082
 

 k-point    97 :   -0.40000000 0.40000000 0.06666667     weight = 0.01422222

band     1 # energy    4.54464138 # occ.  2.00000000
 
ion      s     py     pz     px    dxy    dyz    dz2    dxz  x2-y2    tot
    1  0.186  0.201  0.001  0.006  0.000  0.000  0.000  0.000  0.000  0.394
 
band     2 # energy    6.93447698 # occ.  2.00000000
 
ion      s     py     pz     px    dxy    dyz    dz2    dxz  x2-y2    tot
    1  0.340  0.133  0.008  0.000  0.000  0.000  0.000  0.000  0.000  0.482
 
band     3 # energy    7.83664402 # occ.  2.00000000
 
ion      s     py     pz     px    dxy    dyz    dz2    dxz  x2-y2    tot
    1  0.003  0.012  0.155  0.115  0.000  0.000  0.000  0.000  0.000  0.285
 
band     4 # energy   12.36041983 # occ.  0.00000000
 
ion      s     py     pz     px    dxy    dyz    dz2    dxz  x2-y2    tot
    1  0.052  0.000  0.168  0.167  0.000  0.000  0.000  0.000  0.000  0.387
 
band     5 # energy   17.64394554 # occ.  0.00000000
 
ion      s     py     pz     px    dxy    dyz    dz2    dxz  x2-y2    tot
    1  0.074  0.001  0.058  0.069  0.000  0.000  0.000  0.000  0.000  0.201
 
band     6 # energy   22.09721214 # occ.  0.00000000
 
ion      s     py     pz     px    dxy    dyz    dz2    dxz  x2-y2    tot
    1  0.047  0.001  0.083  0.138  0.000  0.000  0.000  0.000  0.000  0.269
 
band     7 # energy   30.08854661 # occ.  0.00000000
 
ion      s     py     pz     px    dxy    dyz    dz2    dxz  x2-y2    tot
    1  0.010  0.027  0.013  0.067  0.000  0.000  0.000  0.000  0.000  0.117
 
band     8 # energy   31.85384793 # occ.  0.00000000
 
ion      s     py     pz     px    dxy    dyz    dz2    dxz  x2-y2    tot
    1  0.001  0.066  0.013  0.030  0.000  0.000  0.000  0.000  0.000  0.110
 

 k-point    98 :   -0.33333333 0.40000000 0.06666667     weight = 0.00711111

band     1 # energy    5.56938829 # occ.  2.00000000
 
ion      s     py     pz     px    dxy    dyz    dz2    dxz  x2-y2    tot
    1  0.354  0.000  0.078  0.037  0.000  0.000  0.000  0.000  0.000  0.469
 
band     2 # energy    5.97673842 # occ.  2.00000000
 
ion      s     py     pz     px    dxy    dyz    dz2    dxz  x2-y2    tot
    1  0.000  0.338  0.000  0.000  0.000  0.000  0.000  0.000  0.000  0.338
 
band     3 # energy    6.95667715 # occ.  2.00000000
 
ion      s     py     pz     px    dxy    dyz    dz2    dxz  x2-y2    tot
    1  0.187  0.000  0.076  0.092  0.000  0.000  0.000  0.000  0.000  0.355
 
band     4 # energy   12.85270393 # occ.  0.00000000
 
ion      s     py     pz     px    dxy    dyz    dz2    dxz  x2-y2    tot
    1  0.048  0.000  0.192  0.145  0.000  0.000  0.000  0.000  0.000  0.385
 
band     5 # energy   18.18135787 # occ.  0.00000000
 
ion      s     py     pz     px    dxy    dyz    dz2    dxz  x2-y2    tot
    1  0.076  0.000  0.037  0.095  0.000  0.000  0.000  0.000  0.000  0.208
 
band     6 # energy   24.64767105 # occ.  0.00000000
 
ion      s     py     pz     px    dxy    dyz    dz2    dxz  x2-y2    tot
    1  0.018  0.000  0.089  0.150  0.000  0.000  0.000  0.000  0.000  0.257
 
band     7 # energy   29.49493357 # occ.  0.00000000
 
ion      s     py     pz     px    dxy    dyz    dz2    dxz  x2-y2    tot
    1  0.000  0.101  0.000  0.000  0.000  0.000  0.000  0.000  0.000  0.101
 
band     8 # energy   29.51669334 # occ.  0.00000000
 
ion      s     py     pz     px    dxy    dyz    dz2    dxz  x2-y2    tot
    1  0.017  0.000  0.048  0.097  0.000  0.000  0.000  0.000  0.000  0.162
 

 k-point    99 :   -0.46666667 0.46666667 0.06666667     weight = 0.00711111

band     1 # energy    3.90907106 # occ.  2.00000000
 
ion      s     py     pz     px    dxy    dyz    dz2    dxz  x2-y2    tot
    1  0.178  0.210  0.000  0.002  0.000  0.000  0.000  0.000  0.000  0.390
 
band     2 # energy    6.44624372 # occ.  2.00000000
 
ion      s     py     pz     px    dxy    dyz    dz2    dxz  x2-y2    tot
    1  0.282  0.143  0.000  0.002  0.000  0.000  0.000  0.000  0.000  0.428
 
band     3 # energy   11.35952152 # occ. -0.30613780
 
ion      s     py     pz     px    dxy    dyz    dz2    dxz  x2-y2    tot
    1  0.000  0.000  0.324  0.000  0.000  0.000  0.000  0.000  0.000  0.324
 
band     4 # energy   12.00153908 # occ.  0.00000000
 
ion      s     py     pz     px    dxy    dyz    dz2    dxz  x2-y2    tot
    1  0.076  0.000  0.000  0.351  0.000  0.000  0.000  0.000  0.000  0.427
 
band     5 # energy   16.34184279 # occ.  0.00000000
 
ion      s     py     pz     px    dxy    dyz    dz2    dxz  x2-y2    tot
    1  0.000  0.000  0.148  0.000  0.000  0.000  0.000  0.000  0.000  0.148
 
band     6 # energy   17.86362914 # occ.  0.00000000
 
ion      s     py     pz     px    dxy    dyz    dz2    dxz  x2-y2    tot
    1  0.192  0.002  0.000  0.122  0.000  0.000  0.000  0.000  0.000  0.315
 
band     7 # energy   33.12772122 # occ.  0.00000000
 
ion      s     py     pz     px    dxy    dyz    dz2    dxz  x2-y2    tot
    1  0.003  0.008  0.000  0.054  0.000  0.000  0.000  0.000  0.000  0.065
 
band     8 # energy   34.70519177 # occ.  0.00000000
 
ion      s     py     pz     px    dxy    dyz    dz2    dxz  x2-y2    tot
    1  0.000  0.039  0.000  0.001  0.000  0.000  0.000  0.000  0.000  0.040
 

 k-point   100 :   -0.40000000 0.46666667 0.06666667     weight = 0.00711111

band     1 # energy    5.01567406 # occ.  2.00000000
 
ion      s     py     pz     px    dxy    dyz    dz2    dxz  x2-y2    tot
    1  0.000  0.349  0.000  0.000  0.000  0.000  0.000  0.000  0.000  0.349
 
band     2 # energy    5.73742880 # occ.  2.00000000
 
ion      s     py     pz     px    dxy    dyz    dz2    dxz  x2-y2    tot
    1  0.466  0.000  0.001  0.009  0.000  0.000  0.000  0.000  0.000  0.475
 
band     3 # energy    9.57910093 # occ.  1.61266483
 
ion      s     py     pz     px    dxy    dyz    dz2    dxz  x2-y2    tot
    1  0.041  0.000  0.193  0.097  0.000  0.000  0.000  0.000  0.000  0.332
 
band     4 # energy   11.95406048 # occ.  0.00000000
 
ion      s     py     pz     px    dxy    dyz    dz2    dxz  x2-y2    tot
    1  0.059  0.000  0.129  0.206  0.000  0.000  0.000  0.000  0.000  0.394
 
band     5 # energy   17.10952189 # occ.  0.00000000
 
ion      s     py     pz     px    dxy    dyz    dz2    dxz  x2-y2    tot
    1  0.053  0.000  0.096  0.034  0.000  0.000  0.000  0.000  0.000  0.183
 
band     6 # energy   19.61778109 # occ.  0.00000000
 
ion      s     py     pz     px    dxy    dyz    dz2    dxz  x2-y2    tot
    1  0.100  0.000  0.053  0.138  0.000  0.000  0.000  0.000  0.000  0.292
 
band     7 # energy   32.34262041 # occ.  0.00000000
 
ion      s     py     pz     px    dxy    dyz    dz2    dxz  x2-y2    tot
    1  0.006  0.000  0.008  0.083  0.000  0.000  0.000  0.000  0.000  0.097
 
band     8 # energy   32.80338510 # occ.  0.00000000
 
ion      s     py     pz     px    dxy    dyz    dz2    dxz  x2-y2    tot
    1  0.000  0.071  0.000  0.000  0.000  0.000  0.000  0.000  0.000  0.071
 

 k-point   101 :    0.40000000 0.26666667 0.13333333     weight = 0.00711111

band     1 # energy   -1.00971534 # occ.  2.00000000
 
ion      s     py     pz     px    dxy    dyz    dz2    dxz  x2-y2    tot
    1  0.314  0.063  0.000  0.015  0.000  0.000  0.000  0.000  0.000  0.392
 
band     2 # energy   11.38121772 # occ. -0.23567583
 
ion      s     py     pz     px    dxy    dyz    dz2    dxz  x2-y2    tot
    1  0.000  0.000  0.300  0.000  0.000  0.000  0.000  0.000  0.000  0.300
 
band     3 # energy   12.06201660 # occ.  0.00000000
 
ion      s     py     pz     px    dxy    dyz    dz2    dxz  x2-y2    tot
    1  0.185  0.099  0.000  0.193  0.000  0.000  0.000  0.000  0.000  0.477
 
band     4 # energy   15.80080272 # occ.  0.00000000
 
ion      s     py     pz     px    dxy    dyz    dz2    dxz  x2-y2    tot
    1  0.052  0.250  0.000  0.081  0.000  0.000  0.000  0.000  0.000  0.383
 
band     5 # energy   21.00636288 # occ.  0.00000000
 
ion      s     py     pz     px    dxy    dyz    dz2    dxz  x2-y2    tot
    1  0.000  0.000  0.143  0.000  0.000  0.000  0.000  0.000  0.000  0.143
 
band     6 # energy   21.82076316 # occ.  0.00000000
 
ion      s     py     pz     px    dxy    dyz    dz2    dxz  x2-y2    tot
    1  0.039  0.052  0.000  0.231  0.000  0.000  0.000  0.000  0.000  0.322
 
band     7 # energy   25.52144947 # occ.  0.00000000
 
ion      s     py     pz     px    dxy    dyz    dz2    dxz  x2-y2    tot
    1  0.052  0.000  0.000  0.078  0.000  0.000  0.000  0.000  0.000  0.131
 
band     8 # energy   29.41078500 # occ.  0.00000000
 
ion      s     py     pz     px    dxy    dyz    dz2    dxz  x2-y2    tot
    1  0.000  0.000  0.184  0.000  0.000  0.000  0.000  0.000  0.000  0.184
 

 k-point   102 :    0.46666667 0.26666667 0.13333333     weight = 0.01422222

band     1 # energy    0.11349577 # occ.  2.00000000
 
ion      s     py     pz     px    dxy    dyz    dz2    dxz  x2-y2    tot
    1  0.294  0.077  0.001  0.022  0.000  0.000  0.000  0.000  0.000  0.394
 
band     2 # energy    9.22741060 # occ.  1.86186401
 
ion      s     py     pz     px    dxy    dyz    dz2    dxz  x2-y2    tot
    1  0.087  0.028  0.184  0.059  0.000  0.000  0.000  0.000  0.000  0.358
 
band     3 # energy   11.65520129 # occ. -0.01374271
 
ion      s     py     pz     px    dxy    dyz    dz2    dxz  x2-y2    tot
    1  0.138  0.061  0.124  0.103  0.000  0.000  0.000  0.000  0.000  0.425
 
band     4 # energy   14.60852963 # occ.  0.00000000
 
ion      s     py     pz     px    dxy    dyz    dz2    dxz  x2-y2    tot
    1  0.051  0.224  0.000  0.083  0.000  0.000  0.000  0.000  0.000  0.357
 
band     5 # energy   21.22919780 # occ.  0.00000000
 
ion      s     py     pz     px    dxy    dyz    dz2    dxz  x2-y2    tot
    1  0.018  0.018  0.076  0.110  0.000  0.000  0.000  0.000  0.000  0.222
 
band     6 # energy   23.12162636 # occ.  0.00000000
 
ion      s     py     pz     px    dxy    dyz    dz2    dxz  x2-y2    tot
    1  0.000  0.032  0.052  0.210  0.000  0.000  0.000  0.000  0.000  0.294
 
band     7 # energy   24.80363440 # occ.  0.00000000
 
ion      s     py     pz     px    dxy    dyz    dz2    dxz  x2-y2    tot
    1  0.072  0.001  0.018  0.008  0.000  0.000  0.000  0.000  0.000  0.097
 
band     8 # energy   29.96371559 # occ.  0.00000000
 
ion      s     py     pz     px    dxy    dyz    dz2    dxz  x2-y2    tot
    1  0.018  0.021  0.130  0.000  0.000  0.000  0.000  0.000  0.000  0.169
 

 k-point   103 :   -0.46666667 0.26666667 0.13333333     weight = 0.01422222

band     1 # energy    1.47342069 # occ.  2.00000000
 
ion      s     py     pz     px    dxy    dyz    dz2    dxz  x2-y2    tot
    1  0.276  0.091  0.003  0.028  0.000  0.000  0.000  0.000  0.000  0.398
 
band     2 # energy    6.99892237 # occ.  2.00000000
 
ion      s     py     pz     px    dxy    dyz    dz2    dxz  x2-y2    tot
    1  0.124  0.028  0.152  0.063  0.000  0.000  0.000  0.000  0.000  0.367
 
band     3 # energy   11.71855790 # occ. -0.09076323
 
ion      s     py     pz     px    dxy    dyz    dz2    dxz  x2-y2    tot
    1  0.139  0.060  0.167  0.065  0.000  0.000  0.000  0.000  0.000  0.430
 
band     4 # energy   13.62276703 # occ.  0.00000000
 
ion      s     py     pz     px    dxy    dyz    dz2    dxz  x2-y2    tot
    1  0.044  0.193  0.001  0.098  0.000  0.000  0.000  0.000  0.000  0.336
 
band     5 # energy   21.29095814 # occ.  0.00000000
 
ion      s     py     pz     px    dxy    dyz    dz2    dxz  x2-y2    tot
    1  0.015  0.022  0.053  0.179  0.000  0.000  0.000  0.000  0.000  0.270
 
band     6 # energy   23.24751671 # occ.  0.00000000
 
ion      s     py     pz     px    dxy    dyz    dz2    dxz  x2-y2    tot
    1  0.044  0.015  0.009  0.104  0.000  0.000  0.000  0.000  0.000  0.171
 
band     7 # energy   25.95569137 # occ.  0.00000000
 
ion      s     py     pz     px    dxy    dyz    dz2    dxz  x2-y2    tot
    1  0.024  0.012  0.095  0.053  0.000  0.000  0.000  0.000  0.000  0.184
 
band     8 # energy   30.05462169 # occ.  0.00000000
 
ion      s     py     pz     px    dxy    dyz    dz2    dxz  x2-y2    tot
    1  0.031  0.072  0.070  0.007  0.000  0.000  0.000  0.000  0.000  0.180
 

 k-point   104 :   -0.40000000 0.26666667 0.13333333     weight = 0.01422222

band     1 # energy    3.03743116 # occ.  2.00000000
 
ion      s     py     pz     px    dxy    dyz    dz2    dxz  x2-y2    tot
    1  0.291  0.094  0.001  0.027  0.000  0.000  0.000  0.000  0.000  0.413
 
band     2 # energy    4.99129351 # occ.  2.00000000
 
ion      s     py     pz     px    dxy    dyz    dz2    dxz  x2-y2    tot
    1  0.117  0.034  0.138  0.068  0.000  0.000  0.000  0.000  0.000  0.357
 
band     3 # energy   11.94614796 # occ. -0.07025684
 
ion      s     py     pz     px    dxy    dyz    dz2    dxz  x2-y2    tot
    1  0.168  0.098  0.184  0.018  0.000  0.000  0.000  0.000  0.000  0.468
 
band     4 # energy   12.93456215 # occ.  0.00000000
 
ion      s     py     pz     px    dxy    dyz    dz2    dxz  x2-y2    tot
    1  0.016  0.128  0.014  0.136  0.000  0.000  0.000  0.000  0.000  0.294
 
band     5 # energy   21.42189462 # occ.  0.00000000
 
ion      s     py     pz     px    dxy    dyz    dz2    dxz  x2-y2    tot
    1  0.003  0.028  0.039  0.246  0.000  0.000  0.000  0.000  0.000  0.317
 
band     6 # energy   22.78750683 # occ.  0.00000000
 
ion      s     py     pz     px    dxy    dyz    dz2    dxz  x2-y2    tot
    1  0.071  0.010  0.005  0.017  0.000  0.000  0.000  0.000  0.000  0.102
 
band     7 # energy   27.94469112 # occ.  0.00000000
 
ion      s     py     pz     px    dxy    dyz    dz2    dxz  x2-y2    tot
    1  0.001  0.021  0.132  0.059  0.000  0.000  0.000  0.000  0.000  0.214
 
band     8 # energy   29.52200424 # occ.  0.00000000
 
ion      s     py     pz     px    dxy    dyz    dz2    dxz  x2-y2    tot
    1  0.011  0.120  0.020  0.048  0.000  0.000  0.000  0.000  0.000  0.199
 

 k-point   105 :    0.46666667 0.33333333 0.13333333     weight = 0.00711111

band     1 # energy    0.48782616 # occ.  2.00000000
 
ion      s     py     pz     px    dxy    dyz    dz2    dxz  x2-y2    tot
    1  0.285  0.096  0.000  0.013  0.000  0.000  0.000  0.000  0.000  0.395
 
band     2 # energy   10.43340916 # occ.  0.68256316
 
ion      s     py     pz     px    dxy    dyz    dz2    dxz  x2-y2    tot
    1  0.000  0.000  0.306  0.000  0.000  0.000  0.000  0.000  0.000  0.306
 
band     3 # energy   11.05212579 # occ. -0.00502053
 
ion      s     py     pz     px    dxy    dyz    dz2    dxz  x2-y2    tot
    1  0.250  0.108  0.000  0.160  0.000  0.000  0.000  0.000  0.000  0.518
 
band     4 # energy   12.78355635 # occ.  0.00000000
 
ion      s     py     pz     px    dxy    dyz    dz2    dxz  x2-y2    tot
    1  0.038  0.170  0.000  0.101  0.000  0.000  0.000  0.000  0.000  0.309
 
band     5 # energy   20.08273717 # occ.  0.00000000
 
ion      s     py     pz     px    dxy    dyz    dz2    dxz  x2-y2    tot
    1  0.000  0.000  0.150  0.000  0.000  0.000  0.000  0.000  0.000  0.150
 
band     6 # energy   21.04767714 # occ.  0.00000000
 
ion      s     py     pz     px    dxy    dyz    dz2    dxz  x2-y2    tot
    1  0.077  0.034  0.000  0.226  0.000  0.000  0.000  0.000  0.000  0.336
 
band     7 # energy   26.77186154 # occ.  0.00000000
 
ion      s     py     pz     px    dxy    dyz    dz2    dxz  x2-y2    tot
    1  0.037  0.009  0.000  0.089  0.000  0.000  0.000  0.000  0.000  0.135
 
band     8 # energy   32.10776583 # occ.  0.00000000
 
ion      s     py     pz     px    dxy    dyz    dz2    dxz  x2-y2    tot
    1  0.000  0.000  0.149  0.000  0.000  0.000  0.000  0.000  0.000  0.149
 

 k-point   106 :   -0.46666667 0.33333333 0.13333333     weight = 0.01422222

band     1 # energy    1.76467349 # occ.  2.00000000
 
ion      s     py     pz     px    dxy    dyz    dz2    dxz  x2-y2    tot
    1  0.264  0.113  0.001  0.019  0.000  0.000  0.000  0.000  0.000  0.397
 
band     2 # energy    8.42332489 # occ.  2.06118581
 
ion      s     py     pz     px    dxy    dyz    dz2    dxz  x2-y2    tot
    1  0.103  0.022  0.185  0.058  0.000  0.000  0.000  0.000  0.000  0.368
 
band     3 # energy   10.72314931 # occ.  0.02343639
 
ion      s     py     pz     px    dxy    dyz    dz2    dxz  x2-y2    tot
    1  0.209  0.106  0.118  0.047  0.000  0.000  0.000  0.000  0.000  0.479
 
band     4 # energy   11.75478306 # occ.  0.00000000
 
ion      s     py     pz     px    dxy    dyz    dz2    dxz  x2-y2    tot
    1  0.016  0.120  0.011  0.131  0.000  0.000  0.000  0.000  0.000  0.278
 
band     5 # energy   20.52553752 # occ.  0.00000000
 
ion      s     py     pz     px    dxy    dyz    dz2    dxz  x2-y2    tot
    1  0.029  0.008  0.086  0.090  0.000  0.000  0.000  0.000  0.000  0.214
 
band     6 # energy   22.74115093 # occ.  0.00000000
 
ion      s     py     pz     px    dxy    dyz    dz2    dxz  x2-y2    tot
    1  0.024  0.020  0.057  0.195  0.000  0.000  0.000  0.000  0.000  0.295
 
band     7 # energy   25.95647220 # occ.  0.00000000
 
ion      s     py     pz     px    dxy    dyz    dz2    dxz  x2-y2    tot
    1  0.052  0.013  0.005  0.049  0.000  0.000  0.000  0.000  0.000  0.119
 
band     8 # energy   32.16636282 # occ.  0.00000000
 
ion      s     py     pz     px    dxy    dyz    dz2    dxz  x2-y2    tot
    1  0.007  0.080  0.056  0.006  0.000  0.000  0.000  0.000  0.000  0.150
 

 k-point   107 :   -0.40000000 0.33333333 0.13333333     weight = 0.01422222

band     1 # energy    3.26447324 # occ.  2.00000000
 
ion      s     py     pz     px    dxy    dyz    dz2    dxz  x2-y2    tot
    1  0.254  0.126  0.001  0.022  0.000  0.000  0.000  0.000  0.000  0.404
 
band     2 # energy    6.35851617 # occ.  2.00000000
 
ion      s     py     pz     px    dxy    dyz    dz2    dxz  x2-y2    tot
    1  0.128  0.022  0.154  0.065  0.000  0.000  0.000  0.000  0.000  0.368
 
band     3 # energy   10.41730500 # occ.  0.53623932
 
ion      s     py     pz     px    dxy    dyz    dz2    dxz  x2-y2    tot
    1  0.205  0.185  0.069  0.004  0.000  0.000  0.000  0.000  0.000  0.463
 
band     4 # energy   11.41093147 # occ. -0.00000299
 
ion      s     py     pz     px    dxy    dyz    dz2    dxz  x2-y2    tot
    1  0.017  0.014  0.103  0.154  0.000  0.000  0.000  0.000  0.000  0.287
 
band     5 # energy   20.82004950 # occ.  0.00000000
 
ion      s     py     pz     px    dxy    dyz    dz2    dxz  x2-y2    tot
    1  0.034  0.008  0.060  0.144  0.000  0.000  0.000  0.000  0.000  0.245
 
band     6 # energy   24.34914646 # occ.  0.00000000
 
ion      s     py     pz     px    dxy    dyz    dz2    dxz  x2-y2    tot
    1  0.005  0.031  0.027  0.195  0.000  0.000  0.000  0.000  0.000  0.258
 
band     7 # energy   25.90697691 # occ.  0.00000000
 
ion      s     py     pz     px    dxy    dyz    dz2    dxz  x2-y2    tot
    1  0.052  0.004  0.061  0.009  0.000  0.000  0.000  0.000  0.000  0.126
 
band     8 # energy   30.65525904 # occ.  0.00000000
 
ion      s     py     pz     px    dxy    dyz    dz2    dxz  x2-y2    tot
    1  0.000  0.110  0.023  0.033  0.000  0.000  0.000  0.000  0.000  0.166
 

 k-point   108 :   -0.33333333 0.33333333 0.13333333     weight = 0.01422222

band     1 # energy    4.29941032 # occ.  2.00000000
 
ion      s     py     pz     px    dxy    dyz    dz2    dxz  x2-y2    tot
    1  0.336  0.007  0.085  0.017  0.000  0.000  0.000  0.000  0.000  0.444
 
band     2 # energy    5.17621851 # occ.  2.00000000
 
ion      s     py     pz     px    dxy    dyz    dz2    dxz  x2-y2    tot
    1  0.044  0.158  0.054  0.069  0.000  0.000  0.000  0.000  0.000  0.326
 
band     3 # energy    9.87712976 # occ.  1.13505020
 
ion      s     py     pz     px    dxy    dyz    dz2    dxz  x2-y2    tot
    1  0.176  0.169  0.040  0.037  0.000  0.000  0.000  0.000  0.000  0.423
 
band     4 # energy   11.78825061 # occ. -0.00066158
 
ion      s     py     pz     px    dxy    dyz    dz2    dxz  x2-y2    tot
    1  0.051  0.000  0.162  0.116  0.000  0.000  0.000  0.000  0.000  0.329
 
band     5 # energy   21.26719399 # occ.  0.00000000
 
ion      s     py     pz     px    dxy    dyz    dz2    dxz  x2-y2    tot
    1  0.029  0.006  0.046  0.187  0.000  0.000  0.000  0.000  0.000  0.268
 
band     6 # energy   24.21989153 # occ.  0.00000000
 
ion      s     py     pz     px    dxy    dyz    dz2    dxz  x2-y2    tot
    1  0.035  0.046  0.000  0.084  0.000  0.000  0.000  0.000  0.000  0.166
 
band     7 # energy   27.54458960 # occ.  0.00000000
 
ion      s     py     pz     px    dxy    dyz    dz2    dxz  x2-y2    tot
    1  0.002  0.020  0.049  0.122  0.000  0.000  0.000  0.000  0.000  0.193
 
band     8 # energy   28.78215450 # occ.  0.00000000
 
ion      s     py     pz     px    dxy    dyz    dz2    dxz  x2-y2    tot
    1  0.016  0.075  0.074  0.006  0.000  0.000  0.000  0.000  0.000  0.172
 

 k-point   109 :   -0.26666667 0.33333333 0.13333333     weight = 0.01422222

band     1 # energy    2.74098385 # occ.  2.00000000
 
ion      s     py     pz     px    dxy    dyz    dz2    dxz  x2-y2    tot
    1  0.260  0.000  0.105  0.036  0.000  0.000  0.000  0.000  0.000  0.401
 
band     2 # energy    7.00714225 # occ.  2.00000000
 
ion      s     py     pz     px    dxy    dyz    dz2    dxz  x2-y2    tot
    1  0.101  0.198  0.019  0.042  0.000  0.000  0.000  0.000  0.000  0.360
 
band     3 # energy    9.50308980 # occ.  1.47884858
 
ion      s     py     pz     px    dxy    dyz    dz2    dxz  x2-y2    tot
    1  0.184  0.124  0.042  0.069  0.000  0.000  0.000  0.000  0.000  0.419
 
band     4 # energy   12.49212547 # occ. -0.00000180
 
ion      s     py     pz     px    dxy    dyz    dz2    dxz  x2-y2    tot
    1  0.058  0.000  0.190  0.094  0.000  0.000  0.000  0.000  0.000  0.342
 
band     5 # energy   21.86670401 # occ.  0.00000000
 
ion      s     py     pz     px    dxy    dyz    dz2    dxz  x2-y2    tot
    1  0.017  0.004  0.039  0.239  0.000  0.000  0.000  0.000  0.000  0.299
 
band     6 # energy   23.86919200 # occ.  0.00000000
 
ion      s     py     pz     px    dxy    dyz    dz2    dxz  x2-y2    tot
    1  0.034  0.075  0.000  0.022  0.000  0.000  0.000  0.000  0.000  0.131
 
band     7 # energy   26.02390199 # occ.  0.00000000
 
ion      s     py     pz     px    dxy    dyz    dz2    dxz  x2-y2    tot
    1  0.031  0.055  0.003  0.097  0.000  0.000  0.000  0.000  0.000  0.186
 
band     8 # energy   30.22610593 # occ.  0.00000000
 
ion      s     py     pz     px    dxy    dyz    dz2    dxz  x2-y2    tot
    1  0.000  0.011  0.133  0.031  0.000  0.000  0.000  0.000  0.000  0.174
 

 k-point   110 :   -0.20000000 0.33333333 0.13333333     weight = 0.00711111

band     1 # energy    1.31170562 # occ.  2.00000000
 
ion      s     py     pz     px    dxy    dyz    dz2    dxz  x2-y2    tot
    1  0.275  0.000  0.092  0.029  0.000  0.000  0.000  0.000  0.000  0.397
 
band     2 # energy    8.84966292 # occ.  2.00877740
 
ion      s     py     pz     px    dxy    dyz    dz2    dxz  x2-y2    tot
    1  0.000  0.313  0.000  0.000  0.000  0.000  0.000  0.000  0.000  0.313
 
band     3 # energy    9.64090825 # occ.  0.81042831
 
ion      s     py     pz     px    dxy    dyz    dz2    dxz  x2-y2    tot
    1  0.259  0.000  0.071  0.135  0.000  0.000  0.000  0.000  0.000  0.466
 
band     4 # energy   13.44178692 # occ.  0.00000000
 
ion      s     py     pz     px    dxy    dyz    dz2    dxz  x2-y2    tot
    1  0.056  0.000  0.209  0.083  0.000  0.000  0.000  0.000  0.000  0.348
 
band     5 # energy   22.45847515 # occ.  0.00000000
 
ion      s     py     pz     px    dxy    dyz    dz2    dxz  x2-y2    tot
    1  0.002  0.000  0.042  0.316  0.000  0.000  0.000  0.000  0.000  0.359
 
band     6 # energy   23.17139366 # occ.  0.00000000
 
ion      s     py     pz     px    dxy    dyz    dz2    dxz  x2-y2    tot
    1  0.000  0.138  0.000  0.000  0.000  0.000  0.000  0.000  0.000  0.138
 
band     7 # energy   24.57100591 # occ.  0.00000000
 
ion      s     py     pz     px    dxy    dyz    dz2    dxz  x2-y2    tot
    1  0.088  0.000  0.004  0.029  0.000  0.000  0.000  0.000  0.000  0.121
 
band     8 # energy   31.43350059 # occ.  0.00000000
 
ion      s     py     pz     px    dxy    dyz    dz2    dxz  x2-y2    tot
    1  0.000  0.137  0.000  0.000  0.000  0.000  0.000  0.000  0.000  0.137
 

 k-point   111 :   -0.46666667 0.40000000 0.13333333     weight = 0.00711111

band     1 # energy    2.29906617 # occ.  2.00000000
 
ion      s     py     pz     px    dxy    dyz    dz2    dxz  x2-y2    tot
    1  0.248  0.136  0.000  0.011  0.000  0.000  0.000  0.000  0.000  0.396
 
band     2 # energy    9.43233866 # occ.  1.99060101
 
ion      s     py     pz     px    dxy    dyz    dz2    dxz  x2-y2    tot
    1  0.287  0.214  0.000  0.002  0.000  0.000  0.000  0.000  0.000  0.503
 
band     3 # energy    9.80030969 # occ.  1.07173388
 
ion      s     py     pz     px    dxy    dyz    dz2    dxz  x2-y2    tot
    1  0.000  0.000  0.311  0.000  0.000  0.000  0.000  0.000  0.000  0.311
 
band     4 # energy   10.83765013 # occ.  0.00000000
 
ion      s     py     pz     px    dxy    dyz    dz2    dxz  x2-y2    tot
    1  0.052  0.005  0.000  0.258  0.000  0.000  0.000  0.000  0.000  0.315
 
band     5 # energy   19.46489994 # occ.  0.00000000
 
ion      s     py     pz     px    dxy    dyz    dz2    dxz  x2-y2    tot
    1  0.000  0.000  0.154  0.000  0.000  0.000  0.000  0.000  0.000  0.154
 
band     6 # energy   20.51302888 # occ.  0.00000000
 
ion      s     py     pz     px    dxy    dyz    dz2    dxz  x2-y2    tot
    1  0.102  0.013  0.000  0.225  0.000  0.000  0.000  0.000  0.000  0.340
 
band     7 # energy   28.34448881 # occ.  0.00000000
 
ion      s     py     pz     px    dxy    dyz    dz2    dxz  x2-y2    tot
    1  0.026  0.022  0.000  0.080  0.000  0.000  0.000  0.000  0.000  0.128
 
band     8 # energy   33.38637720 # occ.  0.00000000
 
ion      s     py     pz     px    dxy    dyz    dz2    dxz  x2-y2    tot
    1  0.000  0.072  0.000  0.012  0.000  0.000  0.000  0.000  0.000  0.085
 

 k-point   112 :   -0.40000000 0.40000000 0.13333333     weight = 0.01422222

band     1 # energy    3.71655992 # occ.  2.00000000
 
ion      s     py     pz     px    dxy    dyz    dz2    dxz  x2-y2    tot
    1  0.225  0.158  0.000  0.015  0.000  0.000  0.000  0.000  0.000  0.398
 
band     2 # energy    7.85420397 # occ.  2.00000000
 
ion      s     py     pz     px    dxy    dyz    dz2    dxz  x2-y2    tot
    1  0.193  0.051  0.143  0.036  0.000  0.000  0.000  0.000  0.000  0.424
 
band     3 # energy    8.70341051 # occ.  2.09363804
 
ion      s     py     pz     px    dxy    dyz    dz2    dxz  x2-y2    tot
    1  0.121  0.136  0.074  0.034  0.000  0.000  0.000  0.000  0.000  0.365
 
band     4 # energy   10.58888177 # occ. -0.00801553
 
ion      s     py     pz     px    dxy    dyz    dz2    dxz  x2-y2    tot
    1  0.067  0.000  0.101  0.167  0.000  0.000  0.000  0.000  0.000  0.335
 
band     5 # energy   20.08147468 # occ.  0.00000000
 
ion      s     py     pz     px    dxy    dyz    dz2    dxz  x2-y2    tot
    1  0.035  0.002  0.090  0.083  0.000  0.000  0.000  0.000  0.000  0.210
 
band     6 # energy   22.40678008 # occ.  0.00000000
 
ion      s     py     pz     px    dxy    dyz    dz2    dxz  x2-y2    tot
    1  0.041  0.005  0.056  0.186  0.000  0.000  0.000  0.000  0.000  0.289
 
band     7 # energy   27.58613927 # occ.  0.00000000
 
ion      s     py     pz     px    dxy    dyz    dz2    dxz  x2-y2    tot
    1  0.031  0.037  0.003  0.055  0.000  0.000  0.000  0.000  0.000  0.126
 
band     8 # energy   31.37484521 # occ.  0.00000000
 
ion      s     py     pz     px    dxy    dyz    dz2    dxz  x2-y2    tot
    1  0.004  0.073  0.005  0.042  0.000  0.000  0.000  0.000  0.000  0.124
 

 k-point   113 :   -0.33333333 0.40000000 0.13333333     weight = 0.01422222

band     1 # energy    5.26961232 # occ.  2.00000000
 
ion      s     py     pz     px    dxy    dyz    dz2    dxz  x2-y2    tot
    1  0.272  0.154  0.005  0.003  0.000  0.000  0.000  0.000  0.000  0.434
 
band     2 # energy    6.06436852 # occ.  2.00000000
 
ion      s     py     pz     px    dxy    dyz    dz2    dxz  x2-y2    tot
    1  0.088  0.064  0.137  0.062  0.000  0.000  0.000  0.000  0.000  0.352
 
band     3 # energy    7.96247754 # occ.  2.04002728
 
ion      s     py     pz     px    dxy    dyz    dz2    dxz  x2-y2    tot
    1  0.183  0.120  0.038  0.051  0.000  0.000  0.000  0.000  0.000  0.391
 
band     4 # energy   10.95274502 # occ. -0.07818392
 
ion      s     py     pz     px    dxy    dyz    dz2    dxz  x2-y2    tot
    1  0.070  0.000  0.149  0.126  0.000  0.000  0.000  0.000  0.000  0.345
 
band     5 # energy   20.53775291 # occ.  0.00000000
 
ion      s     py     pz     px    dxy    dyz    dz2    dxz  x2-y2    tot
    1  0.041  0.001  0.061  0.131  0.000  0.000  0.000  0.000  0.000  0.234
 
band     6 # energy   24.72120149 # occ.  0.00000000
 
ion      s     py     pz     px    dxy    dyz    dz2    dxz  x2-y2    tot
    1  0.007  0.004  0.064  0.200  0.000  0.000  0.000  0.000  0.000  0.275
 
band     7 # energy   26.99226752 # occ.  0.00000000
 
ion      s     py     pz     px    dxy    dyz    dz2    dxz  x2-y2    tot
    1  0.027  0.065  0.013  0.011  0.000  0.000  0.000  0.000  0.000  0.116
 
band     8 # energy   29.04683761 # occ.  0.00000000
 
ion      s     py     pz     px    dxy    dyz    dz2    dxz  x2-y2    tot
    1  0.026  0.049  0.017  0.054  0.000  0.000  0.000  0.000  0.000  0.146
 

 k-point   114 :   -0.26666667 0.40000000 0.13333333     weight = 0.00711111

band     1 # energy    4.22975637 # occ.  2.00000000
 
ion      s     py     pz     px    dxy    dyz    dz2    dxz  x2-y2    tot
    1  0.254  0.000  0.118  0.039  0.000  0.000  0.000  0.000  0.000  0.411
 
band     2 # energy    6.93651743 # occ.  2.00000000
 
ion      s     py     pz     px    dxy    dyz    dz2    dxz  x2-y2    tot
    1  0.000  0.329  0.000  0.000  0.000  0.000  0.000  0.000  0.000  0.329
 
band     3 # energy    7.77882130 # occ.  2.00000000
 
ion      s     py     pz     px    dxy    dyz    dz2    dxz  x2-y2    tot
    1  0.292  0.000  0.050  0.094  0.000  0.000  0.000  0.000  0.000  0.436
 
band     4 # energy   11.59904766 # occ. -0.09131221
 
ion      s     py     pz     px    dxy    dyz    dz2    dxz  x2-y2    tot
    1  0.067  0.000  0.175  0.104  0.000  0.000  0.000  0.000  0.000  0.346
 
band     5 # energy   21.15056439 # occ.  0.00000000
 
ion      s     py     pz     px    dxy    dyz    dz2    dxz  x2-y2    tot
    1  0.035  0.000  0.046  0.171  0.000  0.000  0.000  0.000  0.000  0.253
 
band     6 # energy   25.95713159 # occ.  0.00000000
 
ion      s     py     pz     px    dxy    dyz    dz2    dxz  x2-y2    tot
    1  0.000  0.125  0.000  0.000  0.000  0.000  0.000  0.000  0.000  0.125
 
band     7 # energy   26.07199530 # occ.  0.00000000
 
ion      s     py     pz     px    dxy    dyz    dz2    dxz  x2-y2    tot
    1  0.019  0.000  0.007  0.230  0.000  0.000  0.000  0.000  0.000  0.256
 
band     8 # energy   28.37007383 # occ.  0.00000000
 
ion      s     py     pz     px    dxy    dyz    dz2    dxz  x2-y2    tot
    1  0.036  0.000  0.108  0.003  0.000  0.000  0.000  0.000  0.000  0.147
 

 k-point   115 :   -0.40000000 0.46666667 0.13333333     weight = 0.00711111

band     1 # energy    4.38993468 # occ.  2.00000000
 
ion      s     py     pz     px    dxy    dyz    dz2    dxz  x2-y2    tot
    1  0.179  0.204  0.000  0.007  0.000  0.000  0.000  0.000  0.000  0.391
 
band     2 # energy    6.89746617 # occ.  2.00000000
 
ion      s     py     pz     px    dxy    dyz    dz2    dxz  x2-y2    tot
    1  0.296  0.143  0.000  0.007  0.000  0.000  0.000  0.000  0.000  0.446
 
band     3 # energy    9.48224955 # occ.  1.94287942
 
ion      s     py     pz     px    dxy    dyz    dz2    dxz  x2-y2    tot
    1  0.000  0.000  0.314  0.000  0.000  0.000  0.000  0.000  0.000  0.314
 
band     4 # energy   10.39316481 # occ.  0.01841930
 
ion      s     py     pz     px    dxy    dyz    dz2    dxz  x2-y2    tot
    1  0.120  0.000  0.000  0.257  0.000  0.000  0.000  0.000  0.000  0.377
 
band     5 # energy   19.14233976 # occ.  0.00000000
 
ion      s     py     pz     px    dxy    dyz    dz2    dxz  x2-y2    tot
    1  0.000  0.000  0.155  0.000  0.000  0.000  0.000  0.000  0.000  0.155
 
band     6 # energy   20.24253567 # occ.  0.00000000
 
ion      s     py     pz     px    dxy    dyz    dz2    dxz  x2-y2    tot
    1  0.113  0.002  0.000  0.224  0.000  0.000  0.000  0.000  0.000  0.338
 
band     7 # energy   30.12946433 # occ.  0.00000000
 
ion      s     py     pz     px    dxy    dyz    dz2    dxz  x2-y2    tot
    1  0.014  0.039  0.000  0.061  0.000  0.000  0.000  0.000  0.000  0.113
 
band     8 # energy   31.98433817 # occ.  0.00000000
 
ion      s     py     pz     px    dxy    dyz    dz2    dxz  x2-y2    tot
    1  0.005  0.051  0.000  0.045  0.000  0.000  0.000  0.000  0.000  0.102
 

 k-point   116 :   -0.33333333 0.46666667 0.13333333     weight = 0.00711111

band     1 # energy    5.65638078 # occ.  2.00000000
 
ion      s     py     pz     px    dxy    dyz    dz2    dxz  x2-y2    tot
    1  0.000  0.342  0.000  0.000  0.000  0.000  0.000  0.000  0.000  0.342
 
band     2 # energy    6.29809864 # occ.  2.00000000
 
ion      s     py     pz     px    dxy    dyz    dz2    dxz  x2-y2    tot
    1  0.506  0.000  0.001  0.014  0.000  0.000  0.000  0.000  0.000  0.521
 
band     3 # energy    7.91050430 # occ.  2.00000000
 
ion      s     py     pz     px    dxy    dyz    dz2    dxz  x2-y2    tot
    1  0.016  0.000  0.209  0.080  0.000  0.000  0.000  0.000  0.000  0.305
 
band     4 # energy   10.39405615 # occ.  0.15362876
 
ion      s     py     pz     px    dxy    dyz    dz2    dxz  x2-y2    tot
    1  0.087  0.000  0.110  0.158  0.000  0.000  0.000  0.000  0.000  0.355
 
band     5 # energy   19.93630513 # occ.  0.00000000
 
ion      s     py     pz     px    dxy    dyz    dz2    dxz  x2-y2    tot
    1  0.036  0.000  0.092  0.081  0.000  0.000  0.000  0.000  0.000  0.209
 
band     6 # energy   22.28542880 # occ.  0.00000000
 
ion      s     py     pz     px    dxy    dyz    dz2    dxz  x2-y2    tot
    1  0.047  0.000  0.056  0.183  0.000  0.000  0.000  0.000  0.000  0.286
 
band     7 # energy   29.21907448 # occ.  0.00000000
 
ion      s     py     pz     px    dxy    dyz    dz2    dxz  x2-y2    tot
    1  0.000  0.102  0.000  0.000  0.000  0.000  0.000  0.000  0.000  0.102
 
band     8 # energy   29.73311323 # occ.  0.00000000
 
ion      s     py     pz     px    dxy    dyz    dz2    dxz  x2-y2    tot
    1  0.033  0.000  0.005  0.110  0.000  0.000  0.000  0.000  0.000  0.148
 

 k-point   117 :   -0.40000000 0.40000000 0.20000000     weight = 0.00711111

band     1 # energy    3.11053417 # occ.  2.00000000
 
ion      s     py     pz     px    dxy    dyz    dz2    dxz  x2-y2    tot
    1  0.245  0.130  0.000  0.024  0.000  0.000  0.000  0.000  0.000  0.399
 
band     2 # energy    8.21278652 # occ.  2.00000000
 
ion      s     py     pz     px    dxy    dyz    dz2    dxz  x2-y2    tot
    1  0.000  0.000  0.319  0.000  0.000  0.000  0.000  0.000  0.000  0.319
 
band     3 # energy    8.91264984 # occ.  2.10530676
 
ion      s     py     pz     px    dxy    dyz    dz2    dxz  x2-y2    tot
    1  0.328  0.077  0.000  0.100  0.000  0.000  0.000  0.000  0.000  0.505
 
band     4 # energy   10.63281631 # occ. -0.03701836
 
ion      s     py     pz     px    dxy    dyz    dz2    dxz  x2-y2    tot
    1  0.038  0.142  0.000  0.114  0.000  0.000  0.000  0.000  0.000  0.294
 
band     5 # energy   22.58205198 # occ.  0.00000000
 
ion      s     py     pz     px    dxy    dyz    dz2    dxz  x2-y2    tot
    1  0.000  0.000  0.142  0.000  0.000  0.000  0.000  0.000  0.000  0.142
 
band     6 # energy   22.83678033 # occ.  0.00000000
 
ion      s     py     pz     px    dxy    dyz    dz2    dxz  x2-y2    tot
    1  0.020  0.026  0.000  0.348  0.000  0.000  0.000  0.000  0.000  0.393
 
band     7 # energy   25.29959235 # occ.  0.00000000
 
ion      s     py     pz     px    dxy    dyz    dz2    dxz  x2-y2    tot
    1  0.074  0.019  0.000  0.005  0.000  0.000  0.000  0.000  0.000  0.098
 
band     8 # energy   30.86479292 # occ.  0.00000000
 
ion      s     py     pz     px    dxy    dyz    dz2    dxz  x2-y2    tot
    1  0.005  0.097  0.000  0.038  0.000  0.000  0.000  0.000  0.000  0.140
 

 k-point   118 :   -0.33333333 0.40000000 0.20000000     weight = 0.01422222

band     1 # energy    4.66150811 # occ.  2.00000000
 
ion      s     py     pz     px    dxy    dyz    dz2    dxz  x2-y2    tot
    1  0.246  0.143  0.000  0.023  0.000  0.000  0.000  0.000  0.000  0.413
 
band     2 # energy    6.53147648 # occ.  2.00000000
 
ion      s     py     pz     px    dxy    dyz    dz2    dxz  x2-y2    tot
    1  0.097  0.021  0.198  0.043  0.000  0.000  0.000  0.000  0.000  0.359
 
band     3 # energy    8.85826180 # occ.  2.07482369
 
ion      s     py     pz     px    dxy    dyz    dz2    dxz  x2-y2    tot
    1  0.261  0.077  0.118  0.020  0.000  0.000  0.000  0.000  0.000  0.476
 
band     4 # energy    9.90896846 # occ.  0.54262894
 
ion      s     py     pz     px    dxy    dyz    dz2    dxz  x2-y2    tot
    1  0.016  0.096  0.011  0.146  0.000  0.000  0.000  0.000  0.000  0.269
 
band     5 # energy   22.84231853 # occ.  0.00000000
 
ion      s     py     pz     px    dxy    dyz    dz2    dxz  x2-y2    tot
    1  0.002  0.020  0.039  0.265  0.000  0.000  0.000  0.000  0.000  0.327
 
band     6 # energy   24.03029737 # occ.  0.00000000
 
ion      s     py     pz     px    dxy    dyz    dz2    dxz  x2-y2    tot
    1  0.025  0.028  0.055  0.040  0.000  0.000  0.000  0.000  0.000  0.147
 
band     7 # energy   25.72920242 # occ.  0.00000000
 
ion      s     py     pz     px    dxy    dyz    dz2    dxz  x2-y2    tot
    1  0.036  0.015  0.039  0.080  0.000  0.000  0.000  0.000  0.000  0.171
 
band     8 # energy   28.62836360 # occ.  0.00000000
 
ion      s     py     pz     px    dxy    dyz    dz2    dxz  x2-y2    tot
    1  0.034  0.076  0.006  0.029  0.000  0.000  0.000  0.000  0.000  0.145
 

 k-point   119 :   -0.33333333 0.46666667 0.20000000     weight = 0.00711111

band     1 # energy    5.18185093 # occ.  2.00000000
 
ion      s     py     pz     px    dxy    dyz    dz2    dxz  x2-y2    tot
    1  0.191  0.194  0.000  0.014  0.000  0.000  0.000  0.000  0.000  0.399
 
band     2 # energy    7.53703931 # occ.  2.00000000
 
ion      s     py     pz     px    dxy    dyz    dz2    dxz  x2-y2    tot
    1  0.370  0.140  0.000  0.001  0.000  0.000  0.000  0.000  0.000  0.512
 
band     3 # energy    7.89463395 # occ.  2.00000000
 
ion      s     py     pz     px    dxy    dyz    dz2    dxz  x2-y2    tot
    1  0.000  0.000  0.321  0.000  0.000  0.000  0.000  0.000  0.000  0.321
 
band     4 # energy    9.05186324 # occ.  1.91352511
 
ion      s     py     pz     px    dxy    dyz    dz2    dxz  x2-y2    tot
    1  0.060  0.005  0.000  0.221  0.000  0.000  0.000  0.000  0.000  0.286
 
band     5 # energy   22.29551484 # occ.  0.00000000
 
ion      s     py     pz     px    dxy    dyz    dz2    dxz  x2-y2    tot
    1  0.000  0.000  0.145  0.000  0.000  0.000  0.000  0.000  0.000  0.145
 
band     6 # energy   22.81481610 # occ.  0.00000000
 
ion      s     py     pz     px    dxy    dyz    dz2    dxz  x2-y2    tot
    1  0.045  0.003  0.000  0.326  0.000  0.000  0.000  0.000  0.000  0.373
 
band     7 # energy   26.84468793 # occ.  0.00000000
 
ion      s     py     pz     px    dxy    dyz    dz2    dxz  x2-y2    tot
    1  0.029  0.070  0.000  0.019  0.000  0.000  0.000  0.000  0.000  0.118
 
band     8 # energy   29.03042913 # occ.  0.00000000
 
ion      s     py     pz     px    dxy    dyz    dz2    dxz  x2-y2    tot
    1  0.034  0.047  0.000  0.062  0.000  0.000  0.000  0.000  0.000  0.142
 

 k-point   120 :   -0.26666667 0.46666667 0.20000000     weight = 0.00711111

band     1 # energy    6.21136116 # occ.  2.00000000
 
ion      s     py     pz     px    dxy    dyz    dz2    dxz  x2-y2    tot
    1  0.299  0.000  0.147  0.011  0.000  0.000  0.000  0.000  0.000  0.457
 
band     2 # energy    6.61695115 # occ.  2.00000000
 
ion      s     py     pz     px    dxy    dyz    dz2    dxz  x2-y2    tot
    1  0.000  0.332  0.000  0.000  0.000  0.000  0.000  0.000  0.000  0.332
 
band     3 # energy    7.40695520 # occ.  2.00000000
 
ion      s     py     pz     px    dxy    dyz    dz2    dxz  x2-y2    tot
    1  0.276  0.000  0.095  0.063  0.000  0.000  0.000  0.000  0.000  0.435
 
band     4 # energy    9.12411721 # occ.  1.88131169
 
ion      s     py     pz     px    dxy    dyz    dz2    dxz  x2-y2    tot
    1  0.051  0.000  0.087  0.156  0.000  0.000  0.000  0.000  0.000  0.294
 
band     5 # energy   22.94102335 # occ.  0.00000000
 
ion      s     py     pz     px    dxy    dyz    dz2    dxz  x2-y2    tot
    1  0.014  0.000  0.063  0.201  0.000  0.000  0.000  0.000  0.000  0.278
 
band     6 # energy   24.76083728 # occ.  0.00000000
 
ion      s     py     pz     px    dxy    dyz    dz2    dxz  x2-y2    tot
    1  0.000  0.000  0.063  0.204  0.000  0.000  0.000  0.000  0.000  0.267
 
band     7 # energy   25.68021370 # occ.  0.00000000
 
ion      s     py     pz     px    dxy    dyz    dz2    dxz  x2-y2    tot
    1  0.000  0.126  0.000  0.000  0.000  0.000  0.000  0.000  0.000  0.126
 
band     8 # energy   27.46725903 # occ.  0.00000000
 
ion      s     py     pz     px    dxy    dyz    dz2    dxz  x2-y2    tot
    1  0.089  0.000  0.014  0.013  0.000  0.000  0.000  0.000  0.000  0.117
 
