<?xml version="1.0" encoding="ISO-8859-1"?>
<modeling>
 <generator>
  <i name="program" type="string">vasp </i>
  <i name="version" type="string">5.4.4.18Apr17-6-g9f103f2a35  </i>
  <i name="subversion" type="string">(build Mar 07 2019 17:46:06) complex            parallel </i>
  <i name="platform" type="string">Magnus_Intel_PSXE_2016U4 </i>
  <i name="date" type="string">2025 09 30 </i>
  <i name="time" type="string">14:59:16 </i>
 </generator>
 <incar>
  <i type="string" name="SYSTEM"> fcc Si</i>
  <i type="string" name="PREC">normal</i>
  <i name="ENCUT">    240.00000000</i>
  <i name="EMIN">      0.00000000</i>
  <i name="EMAX">     17.00000000</i>
  <i type="int" name="ISMEAR">    -5</i>
  <i type="int" name="LORBIT">    11</i>
  <v type="int" name="KPOINT_BSE">    -1     0     0     0</v>
 </incar>
 <structure name="primitive_cell" >
  <crystal>
   <varray name="basis" >
    <v>       1.95000000       1.95000000       0.00000000 </v>
    <v>       0.00000000       1.95000000       1.95000000 </v>
    <v>       1.95000000       0.00000000       1.95000000 </v>
   </varray>
   <i name="volume">     14.82975000 </i>
   <varray name="rec_basis" >
    <v>       0.25641026       0.25641026      -0.25641026 </v>
    <v>      -0.25641026       0.25641026       0.25641026 </v>
    <v>       0.25641026      -0.25641026       0.25641026 </v>
   </varray>
  </crystal>
  <varray name="positions" >
   <v>       0.00000000       0.00000000       0.00000000 </v>
  </varray>
 </structure>
 <varray name="primitive_index" >
  <v type="int" >        1 </v>
 </varray>
 <kpoints>
  <generation param="Monkhorst-Pack">
   <v type="int" name="divisions">      15       15       15 </v>
   <v name="usershift">      0.00000000       0.00000000       0.00000000 </v>
   <v name="genvec1">      0.06666667       0.00000000       0.00000000 </v>
   <v name="genvec2">      0.00000000       0.06666667       0.00000000 </v>
   <v name="genvec3">      0.00000000       0.00000000       0.06666667 </v>
   <v name="shift">      0.00000000       0.00000000       0.00000000 </v>
  </generation>
  <varray name="kpointlist" >
   <v>       0.00000000       0.00000000       0.00000000 </v>
   <v>       0.06666667       0.00000000       0.00000000 </v>
   <v>       0.13333333       0.00000000       0.00000000 </v>
   <v>       0.20000000       0.00000000       0.00000000 </v>
   <v>       0.26666667       0.00000000       0.00000000 </v>
   <v>       0.33333333       0.00000000       0.00000000 </v>
   <v>       0.40000000       0.00000000       0.00000000 </v>
   <v>       0.46666667       0.00000000       0.00000000 </v>
   <v>       0.06666667       0.06666667       0.00000000 </v>
   <v>       0.13333333       0.06666667       0.00000000 </v>
   <v>       0.20000000       0.06666667       0.00000000 </v>
   <v>       0.26666667       0.06666667       0.00000000 </v>
   <v>       0.33333333       0.06666667       0.00000000 </v>
   <v>       0.40000000       0.06666667       0.00000000 </v>
   <v>       0.46666667       0.06666667       0.00000000 </v>
   <v>      -0.46666667       0.06666667       0.00000000 </v>
   <v>      -0.40000000       0.06666667       0.00000000 </v>
   <v>      -0.33333333       0.06666667       0.00000000 </v>
   <v>      -0.26666667       0.06666667       0.00000000 </v>
   <v>      -0.20000000       0.06666667       0.00000000 </v>
   <v>      -0.13333333       0.06666667       0.00000000 </v>
   <v>      -0.06666667       0.06666667       0.00000000 </v>
   <v>       0.13333333       0.13333333       0.00000000 </v>
   <v>       0.20000000       0.13333333       0.00000000 </v>
   <v>       0.26666667       0.13333333       0.00000000 </v>
   <v>       0.33333333       0.13333333       0.00000000 </v>
   <v>       0.40000000       0.13333333       0.00000000 </v>
   <v>       0.46666667       0.13333333       0.00000000 </v>
   <v>      -0.46666667       0.13333333       0.00000000 </v>
   <v>      -0.40000000       0.13333333       0.00000000 </v>
   <v>      -0.33333333       0.13333333       0.00000000 </v>
   <v>      -0.26666667       0.13333333       0.00000000 </v>
   <v>      -0.20000000       0.13333333       0.00000000 </v>
   <v>      -0.13333333       0.13333333       0.00000000 </v>
   <v>       0.20000000       0.20000000       0.00000000 </v>
   <v>       0.26666667       0.20000000       0.00000000 </v>
   <v>       0.33333333       0.20000000       0.00000000 </v>
   <v>       0.40000000       0.20000000       0.00000000 </v>
   <v>       0.46666667       0.20000000       0.00000000 </v>
   <v>      -0.46666667       0.20000000       0.00000000 </v>
   <v>      -0.40000000       0.20000000       0.00000000 </v>
   <v>      -0.33333333       0.20000000       0.00000000 </v>
   <v>      -0.26666667       0.20000000       0.00000000 </v>
   <v>      -0.20000000       0.20000000       0.00000000 </v>
   <v>       0.26666667       0.26666667       0.00000000 </v>
   <v>       0.33333333       0.26666667       0.00000000 </v>
   <v>       0.40000000       0.26666667       0.00000000 </v>
   <v>       0.46666667       0.26666667       0.00000000 </v>
   <v>      -0.46666667       0.26666667       0.00000000 </v>
   <v>      -0.40000000       0.26666667       0.00000000 </v>
   <v>      -0.33333333       0.26666667       0.00000000 </v>
   <v>      -0.26666667       0.26666667       0.00000000 </v>
   <v>       0.33333333       0.33333333       0.00000000 </v>
   <v>       0.40000000       0.33333333       0.00000000 </v>
   <v>       0.46666667       0.33333333       0.00000000 </v>
   <v>      -0.46666667       0.33333333       0.00000000 </v>
   <v>      -0.40000000       0.33333333       0.00000000 </v>
   <v>      -0.33333333       0.33333333       0.00000000 </v>
   <v>       0.40000000       0.40000000       0.00000000 </v>
   <v>       0.46666667       0.40000000       0.00000000 </v>
   <v>      -0.46666667       0.40000000       0.00000000 </v>
   <v>      -0.40000000       0.40000000       0.00000000 </v>
   <v>       0.46666667       0.46666667       0.00000000 </v>
   <v>      -0.46666667       0.46666667       0.00000000 </v>
   <v>       0.20000000       0.13333333       0.06666667 </v>
   <v>       0.26666667       0.13333333       0.06666667 </v>
   <v>       0.33333333       0.13333333       0.06666667 </v>
   <v>       0.40000000       0.13333333       0.06666667 </v>
   <v>       0.46666667       0.13333333       0.06666667 </v>
   <v>      -0.46666667       0.13333333       0.06666667 </v>
   <v>       0.26666667       0.20000000       0.06666667 </v>
   <v>       0.33333333       0.20000000       0.06666667 </v>
   <v>       0.40000000       0.20000000       0.06666667 </v>
   <v>       0.46666667       0.20000000       0.06666667 </v>
   <v>      -0.46666667       0.20000000       0.06666667 </v>
   <v>      -0.40000000       0.20000000       0.06666667 </v>
   <v>      -0.33333333       0.20000000       0.06666667 </v>
   <v>      -0.26666667       0.20000000       0.06666667 </v>
   <v>      -0.20000000       0.20000000       0.06666667 </v>
   <v>      -0.13333333       0.20000000       0.06666667 </v>
   <v>       0.33333333       0.26666667       0.06666667 </v>
   <v>       0.40000000       0.26666667       0.06666667 </v>
   <v>       0.46666667       0.26666667       0.06666667 </v>
   <v>      -0.46666667       0.26666667       0.06666667 </v>
   <v>      -0.40000000       0.26666667       0.06666667 </v>
   <v>      -0.33333333       0.26666667       0.06666667 </v>
   <v>      -0.26666667       0.26666667       0.06666667 </v>
   <v>      -0.20000000       0.26666667       0.06666667 </v>
   <v>       0.40000000       0.33333333       0.06666667 </v>
   <v>       0.46666667       0.33333333       0.06666667 </v>
   <v>      -0.46666667       0.33333333       0.06666667 </v>
   <v>      -0.40000000       0.33333333       0.06666667 </v>
   <v>      -0.33333333       0.33333333       0.06666667 </v>
   <v>      -0.26666667       0.33333333       0.06666667 </v>
   <v>       0.46666667       0.40000000       0.06666667 </v>
   <v>      -0.46666667       0.40000000       0.06666667 </v>
   <v>      -0.40000000       0.40000000       0.06666667 </v>
   <v>      -0.33333333       0.40000000       0.06666667 </v>
   <v>      -0.46666667       0.46666667       0.06666667 </v>
   <v>      -0.40000000       0.46666667       0.06666667 </v>
   <v>       0.40000000       0.26666667       0.13333333 </v>
   <v>       0.46666667       0.26666667       0.13333333 </v>
   <v>      -0.46666667       0.26666667       0.13333333 </v>
   <v>      -0.40000000       0.26666667       0.13333333 </v>
   <v>       0.46666667       0.33333333       0.13333333 </v>
   <v>      -0.46666667       0.33333333       0.13333333 </v>
   <v>      -0.40000000       0.33333333       0.13333333 </v>
   <v>      -0.33333333       0.33333333       0.13333333 </v>
   <v>      -0.26666667       0.33333333       0.13333333 </v>
   <v>      -0.20000000       0.33333333       0.13333333 </v>
   <v>      -0.46666667       0.40000000       0.13333333 </v>
   <v>      -0.40000000       0.40000000       0.13333333 </v>
   <v>      -0.33333333       0.40000000       0.13333333 </v>
   <v>      -0.26666667       0.40000000       0.13333333 </v>
   <v>      -0.40000000       0.46666667       0.13333333 </v>
   <v>      -0.33333333       0.46666667       0.13333333 </v>
   <v>      -0.40000000       0.40000000       0.20000000 </v>
   <v>      -0.33333333       0.40000000       0.20000000 </v>
   <v>      -0.33333333       0.46666667       0.20000000 </v>
   <v>      -0.26666667       0.46666667       0.20000000 </v>
  </varray>
  <varray name="weights" >
   <v>       0.00029630 </v>
   <v>       0.00237037 </v>
   <v>       0.00237037 </v>
   <v>       0.00237037 </v>
   <v>       0.00237037 </v>
   <v>       0.00237037 </v>
   <v>       0.00237037 </v>
   <v>       0.00237037 </v>
   <v>       0.00177778 </v>
   <v>       0.00711111 </v>
   <v>       0.00711111 </v>
   <v>       0.00711111 </v>
   <v>       0.00711111 </v>
   <v>       0.00711111 </v>
   <v>       0.00711111 </v>
   <v>       0.00711111 </v>
   <v>       0.00711111 </v>
   <v>       0.00711111 </v>
   <v>       0.00711111 </v>
   <v>       0.00711111 </v>
   <v>       0.00711111 </v>
   <v>       0.00355556 </v>
   <v>       0.00177778 </v>
   <v>       0.00711111 </v>
   <v>       0.00711111 </v>
   <v>       0.00711111 </v>
   <v>       0.00711111 </v>
   <v>       0.00711111 </v>
   <v>       0.00711111 </v>
   <v>       0.00711111 </v>
   <v>       0.00711111 </v>
   <v>       0.00711111 </v>
   <v>       0.00711111 </v>
   <v>       0.00355556 </v>
   <v>       0.00177778 </v>
   <v>       0.00711111 </v>
   <v>       0.00711111 </v>
   <v>       0.00711111 </v>
   <v>       0.00711111 </v>
   <v>       0.00711111 </v>
   <v>       0.00711111 </v>
   <v>       0.00711111 </v>
   <v>       0.00711111 </v>
   <v>       0.00355556 </v>
   <v>       0.00177778 </v>
   <v>       0.00711111 </v>
   <v>       0.00711111 </v>
   <v>       0.00711111 </v>
   <v>       0.00711111 </v>
   <v>       0.00711111 </v>
   <v>       0.00711111 </v>
   <v>       0.00355556 </v>
   <v>       0.00177778 </v>
   <v>       0.00711111 </v>
   <v>       0.00711111 </v>
   <v>       0.00711111 </v>
   <v>       0.00711111 </v>
   <v>       0.00355556 </v>
   <v>       0.00177778 </v>
   <v>       0.00711111 </v>
   <v>       0.00711111 </v>
   <v>       0.00355556 </v>
   <v>       0.00177778 </v>
   <v>       0.00355556 </v>
   <v>       0.00711111 </v>
   <v>       0.01422222 </v>
   <v>       0.01422222 </v>
   <v>       0.01422222 </v>
   <v>       0.01422222 </v>
   <v>       0.01422222 </v>
   <v>       0.00711111 </v>
   <v>       0.01422222 </v>
   <v>       0.01422222 </v>
   <v>       0.01422222 </v>
   <v>       0.01422222 </v>
   <v>       0.01422222 </v>
   <v>       0.01422222 </v>
   <v>       0.01422222 </v>
   <v>       0.01422222 </v>
   <v>       0.00711111 </v>
   <v>       0.00711111 </v>
   <v>       0.01422222 </v>
   <v>       0.01422222 </v>
   <v>       0.01422222 </v>
   <v>       0.01422222 </v>
   <v>       0.01422222 </v>
   <v>       0.01422222 </v>
   <v>       0.00711111 </v>
   <v>       0.00711111 </v>
   <v>       0.01422222 </v>
   <v>       0.01422222 </v>
   <v>       0.01422222 </v>
   <v>       0.01422222 </v>
   <v>       0.00711111 </v>
   <v>       0.00711111 </v>
   <v>       0.01422222 </v>
   <v>       0.01422222 </v>
   <v>       0.00711111 </v>
   <v>       0.00711111 </v>
   <v>       0.00711111 </v>
   <v>       0.00711111 </v>
   <v>       0.01422222 </v>
   <v>       0.01422222 </v>
   <v>       0.01422222 </v>
   <v>       0.00711111 </v>
   <v>       0.01422222 </v>
   <v>       0.01422222 </v>
   <v>       0.01422222 </v>
   <v>       0.01422222 </v>
   <v>       0.00711111 </v>
   <v>       0.00711111 </v>
   <v>       0.01422222 </v>
   <v>       0.01422222 </v>
   <v>       0.00711111 </v>
   <v>       0.00711111 </v>
   <v>       0.00711111 </v>
   <v>       0.00711111 </v>
   <v>       0.01422222 </v>
   <v>       0.00711111 </v>
   <v>       0.00711111 </v>
  </varray>
  <varray name="tetrahedronlist"  type="int" >
   <v type="int" >       24        1        2        2        9 </v>
   <v type="int" >       48        2        9       10       22 </v>
   <v type="int" >       48        2        3       10       22 </v>
   <v type="int" >       24        2        2        9       22 </v>
   <v type="int" >       48        3       10       11       21 </v>
   <v type="int" >       48        3        4       11       21 </v>
   <v type="int" >       48        3       10       21       22 </v>
   <v type="int" >       48        4       11       12       20 </v>
   <v type="int" >       48        4        5       12       20 </v>
   <v type="int" >       48        4       11       20       21 </v>
   <v type="int" >       48        5       12       13       19 </v>
   <v type="int" >       48        5        6       13       19 </v>
   <v type="int" >       48        5       12       19       20 </v>
   <v type="int" >       48        6       13       14       18 </v>
   <v type="int" >       48        6        7       14       18 </v>
   <v type="int" >       48        6       13       18       19 </v>
   <v type="int" >       48        7       14       15       17 </v>
   <v type="int" >       48        7        8       15       17 </v>
   <v type="int" >       48        7       14       17       18 </v>
   <v type="int" >       48        8       15       16       16 </v>
   <v type="int" >       24        8        8       16       16 </v>
   <v type="int" >       48        8       15       16       17 </v>
   <v type="int" >       24        9       10       10       23 </v>
   <v type="int" >       24        9       10       10       22 </v>
   <v type="int" >       48       10       23       24       65 </v>
   <v type="int" >       48       10       11       24       65 </v>
   <v type="int" >       48       10       11       21       65 </v>
   <v type="int" >       24       10       10       23       65 </v>
   <v type="int" >       24       10       10       22       65 </v>
   <v type="int" >       48       10       21       22       65 </v>
   <v type="int" >       48       11       24       25       66 </v>
   <v type="int" >       48       11       12       25       66 </v>
   <v type="int" >       48       11       12       20       66 </v>
   <v type="int" >       48       11       24       65       66 </v>
   <v type="int" >       48       11       21       65       66 </v>
   <v type="int" >       48       11       20       21       66 </v>
   <v type="int" >       48       12       25       26       67 </v>
   <v type="int" >       48       12       13       26       67 </v>
   <v type="int" >       48       12       13       19       67 </v>
   <v type="int" >       48       12       25       66       67 </v>
   <v type="int" >       48       12       20       66       67 </v>
   <v type="int" >       48       12       19       20       67 </v>
   <v type="int" >       48       13       26       27       68 </v>
   <v type="int" >       48       13       14       27       68 </v>
   <v type="int" >       48       13       14       18       68 </v>
   <v type="int" >       48       13       26       67       68 </v>
   <v type="int" >       48       13       19       67       68 </v>
   <v type="int" >       48       13       18       19       68 </v>
   <v type="int" >       48       14       27       28       69 </v>
   <v type="int" >       48       14       15       28       69 </v>
   <v type="int" >       48       14       15       17       69 </v>
   <v type="int" >       48       14       27       68       69 </v>
   <v type="int" >       48       14       18       68       69 </v>
   <v type="int" >       48       14       17       18       69 </v>
   <v type="int" >       48       15       28       29       70 </v>
   <v type="int" >       48       15       16       29       70 </v>
   <v type="int" >       48       15       16       16       70 </v>
   <v type="int" >       48       15       28       69       70 </v>
   <v type="int" >       48       15       17       69       70 </v>
   <v type="int" >       48       15       16       17       70 </v>
   <v type="int" >       48       16       29       30       70 </v>
   <v type="int" >       48       16       17       30       70 </v>
   <v type="int" >       48       16       29       70       70 </v>
   <v type="int" >       24       16       16       70       70 </v>
   <v type="int" >       48       17       30       31       69 </v>
   <v type="int" >       48       17       18       31       69 </v>
   <v type="int" >       48       17       30       69       70 </v>
   <v type="int" >       48       18       31       32       68 </v>
   <v type="int" >       48       18       19       32       68 </v>
   <v type="int" >       48       18       31       68       69 </v>
   <v type="int" >       48       19       32       33       67 </v>
   <v type="int" >       48       19       20       33       67 </v>
   <v type="int" >       48       19       32       67       68 </v>
   <v type="int" >       48       20       33       34       66 </v>
   <v type="int" >       48       20       21       34       66 </v>
   <v type="int" >       48       20       33       66       67 </v>
   <v type="int" >       24       21       21       34       65 </v>
   <v type="int" >       24       21       21       22       65 </v>
   <v type="int" >       48       21       34       65       66 </v>
   <v type="int" >       24       23       24       24       35 </v>
   <v type="int" >       24       23       24       24       65 </v>
   <v type="int" >       48       24       35       36       71 </v>
   <v type="int" >       48       24       25       36       71 </v>
   <v type="int" >       48       24       25       66       71 </v>
   <v type="int" >       24       24       24       35       71 </v>
   <v type="int" >       24       24       24       65       71 </v>
   <v type="int" >       48       24       65       66       71 </v>
   <v type="int" >       48       25       36       37       72 </v>
   <v type="int" >       48       25       26       37       72 </v>
   <v type="int" >       48       25       26       67       72 </v>
   <v type="int" >       48       25       36       71       72 </v>
   <v type="int" >       48       25       66       71       72 </v>
   <v type="int" >       48       25       66       67       72 </v>
   <v type="int" >       48       26       37       38       73 </v>
   <v type="int" >       48       26       27       38       73 </v>
   <v type="int" >       48       26       27       68       73 </v>
   <v type="int" >       48       26       37       72       73 </v>
   <v type="int" >       48       26       67       72       73 </v>
   <v type="int" >       48       26       67       68       73 </v>
   <v type="int" >       48       27       38       39       74 </v>
   <v type="int" >       48       27       28       39       74 </v>
   <v type="int" >       48       27       28       69       74 </v>
   <v type="int" >       48       27       38       73       74 </v>
   <v type="int" >       48       27       68       73       74 </v>
   <v type="int" >       48       27       68       69       74 </v>
   <v type="int" >       48       28       39       40       75 </v>
   <v type="int" >       48       28       29       40       75 </v>
   <v type="int" >       48       28       29       70       75 </v>
   <v type="int" >       48       28       39       74       75 </v>
   <v type="int" >       48       28       69       74       75 </v>
   <v type="int" >       48       28       69       70       75 </v>
   <v type="int" >       48       29       40       41       76 </v>
   <v type="int" >       48       29       30       41       76 </v>
   <v type="int" >       48       29       30       70       76 </v>
   <v type="int" >       48       29       40       75       76 </v>
   <v type="int" >       48       29       70       75       76 </v>
   <v type="int" >       48       29       70       70       76 </v>
   <v type="int" >       48       30       41       42       77 </v>
   <v type="int" >       48       30       31       42       77 </v>
   <v type="int" >       48       30       31       69       77 </v>
   <v type="int" >       48       30       41       76       77 </v>
   <v type="int" >       48       30       70       76       77 </v>
   <v type="int" >       48       30       69       70       77 </v>
   <v type="int" >       48       31       42       43       78 </v>
   <v type="int" >       48       31       32       43       78 </v>
   <v type="int" >       48       31       32       68       78 </v>
   <v type="int" >       48       31       42       77       78 </v>
   <v type="int" >       48       31       69       77       78 </v>
   <v type="int" >       48       31       68       69       78 </v>
   <v type="int" >       48       32       43       44       79 </v>
   <v type="int" >       48       32       33       44       79 </v>
   <v type="int" >       48       32       33       67       79 </v>
   <v type="int" >       48       32       43       78       79 </v>
   <v type="int" >       48       32       68       78       79 </v>
   <v type="int" >       48       32       67       68       79 </v>
   <v type="int" >       24       33       33       44       80 </v>
   <v type="int" >       24       33       33       34       80 </v>
   <v type="int" >       48       33       34       66       80 </v>
   <v type="int" >       48       33       44       79       80 </v>
   <v type="int" >       48       33       67       79       80 </v>
   <v type="int" >       48       33       66       67       80 </v>
   <v type="int" >       24       34       66       66       80 </v>
   <v type="int" >       24       34       65       66       66 </v>
   <v type="int" >       24       35       36       36       45 </v>
   <v type="int" >       24       35       36       36       71 </v>
   <v type="int" >       48       36       45       46       81 </v>
   <v type="int" >       48       36       37       46       81 </v>
   <v type="int" >       48       36       37       72       81 </v>
   <v type="int" >       24       36       36       45       81 </v>
   <v type="int" >       24       36       36       71       81 </v>
   <v type="int" >       48       36       71       72       81 </v>
   <v type="int" >       48       37       46       47       82 </v>
   <v type="int" >       48       37       38       47       82 </v>
   <v type="int" >       48       37       38       73       82 </v>
   <v type="int" >       48       37       46       81       82 </v>
   <v type="int" >       48       37       72       81       82 </v>
   <v type="int" >       48       37       72       73       82 </v>
   <v type="int" >       48       38       47       48       83 </v>
   <v type="int" >       48       38       39       48       83 </v>
   <v type="int" >       48       38       39       74       83 </v>
   <v type="int" >       48       38       47       82       83 </v>
   <v type="int" >       48       38       73       82       83 </v>
   <v type="int" >       48       38       73       74       83 </v>
   <v type="int" >       48       39       48       49       84 </v>
   <v type="int" >       48       39       40       49       84 </v>
   <v type="int" >       48       39       40       75       84 </v>
   <v type="int" >       48       39       48       83       84 </v>
   <v type="int" >       48       39       74       83       84 </v>
   <v type="int" >       48       39       74       75       84 </v>
   <v type="int" >       48       40       49       50       85 </v>
   <v type="int" >       48       40       41       50       85 </v>
   <v type="int" >       48       40       41       76       85 </v>
   <v type="int" >       48       40       49       84       85 </v>
   <v type="int" >       48       40       75       84       85 </v>
   <v type="int" >       48       40       75       76       85 </v>
   <v type="int" >       48       41       50       51       86 </v>
   <v type="int" >       48       41       42       51       86 </v>
   <v type="int" >       48       41       42       77       86 </v>
   <v type="int" >       48       41       50       85       86 </v>
   <v type="int" >       48       41       76       85       86 </v>
   <v type="int" >       48       41       76       77       86 </v>
   <v type="int" >       48       42       51       52       87 </v>
   <v type="int" >       48       42       43       52       87 </v>
   <v type="int" >       48       42       43       78       87 </v>
   <v type="int" >       48       42       51       86       87 </v>
   <v type="int" >       48       42       77       86       87 </v>
   <v type="int" >       48       42       77       78       87 </v>
   <v type="int" >       24       43       43       52       88 </v>
   <v type="int" >       24       43       43       44       88 </v>
   <v type="int" >       48       43       44       79       88 </v>
   <v type="int" >       48       43       52       87       88 </v>
   <v type="int" >       48       43       78       87       88 </v>
   <v type="int" >       48       43       78       79       88 </v>
   <v type="int" >       24       44       79       79       88 </v>
   <v type="int" >       24       44       79       79       80 </v>
   <v type="int" >       24       45       46       46       53 </v>
   <v type="int" >       24       45       46       46       81 </v>
   <v type="int" >       48       46       53       54       89 </v>
   <v type="int" >       48       46       47       54       89 </v>
   <v type="int" >       48       46       47       82       89 </v>
   <v type="int" >       24       46       46       53       89 </v>
   <v type="int" >       24       46       46       81       89 </v>
   <v type="int" >       48       46       81       82       89 </v>
   <v type="int" >       48       47       54       55       90 </v>
   <v type="int" >       48       47       48       55       90 </v>
   <v type="int" >       48       47       48       83       90 </v>
   <v type="int" >       48       47       54       89       90 </v>
   <v type="int" >       48       47       82       89       90 </v>
   <v type="int" >       48       47       82       83       90 </v>
   <v type="int" >       48       48       55       56       91 </v>
   <v type="int" >       48       48       49       56       91 </v>
   <v type="int" >       48       48       49       84       91 </v>
   <v type="int" >       48       48       55       90       91 </v>
   <v type="int" >       48       48       83       90       91 </v>
   <v type="int" >       48       48       83       84       91 </v>
   <v type="int" >       48       49       56       57       92 </v>
   <v type="int" >       48       49       50       57       92 </v>
   <v type="int" >       48       49       50       85       92 </v>
   <v type="int" >       48       49       56       91       92 </v>
   <v type="int" >       48       49       84       91       92 </v>
   <v type="int" >       48       49       84       85       92 </v>
   <v type="int" >       48       50       57       58       93 </v>
   <v type="int" >       48       50       51       58       93 </v>
   <v type="int" >       48       50       51       86       93 </v>
   <v type="int" >       48       50       57       92       93 </v>
   <v type="int" >       48       50       85       92       93 </v>
   <v type="int" >       48       50       85       86       93 </v>
   <v type="int" >       24       51       51       58       94 </v>
   <v type="int" >       24       51       51       52       94 </v>
   <v type="int" >       48       51       52       87       94 </v>
   <v type="int" >       48       51       58       93       94 </v>
   <v type="int" >       48       51       86       93       94 </v>
   <v type="int" >       48       51       86       87       94 </v>
   <v type="int" >       24       52       87       87       94 </v>
   <v type="int" >       24       52       87       87       88 </v>
   <v type="int" >       24       53       54       54       59 </v>
   <v type="int" >       24       53       54       54       89 </v>
   <v type="int" >       48       54       59       60       95 </v>
   <v type="int" >       48       54       55       60       95 </v>
   <v type="int" >       48       54       55       90       95 </v>
   <v type="int" >       24       54       54       59       95 </v>
   <v type="int" >       24       54       54       89       95 </v>
   <v type="int" >       48       54       89       90       95 </v>
   <v type="int" >       48       55       60       61       96 </v>
   <v type="int" >       48       55       56       61       96 </v>
   <v type="int" >       48       55       56       91       96 </v>
   <v type="int" >       48       55       60       95       96 </v>
   <v type="int" >       48       55       90       95       96 </v>
   <v type="int" >       48       55       90       91       96 </v>
   <v type="int" >       48       56       61       62       97 </v>
   <v type="int" >       48       56       57       62       97 </v>
   <v type="int" >       48       56       57       92       97 </v>
   <v type="int" >       48       56       61       96       97 </v>
   <v type="int" >       48       56       91       96       97 </v>
   <v type="int" >       48       56       91       92       97 </v>
   <v type="int" >       24       57       57       62       98 </v>
   <v type="int" >       24       57       57       58       98 </v>
   <v type="int" >       48       57       58       93       98 </v>
   <v type="int" >       48       57       62       97       98 </v>
   <v type="int" >       48       57       92       97       98 </v>
   <v type="int" >       48       57       92       93       98 </v>
   <v type="int" >       24       58       93       93       98 </v>
   <v type="int" >       24       58       93       93       94 </v>
   <v type="int" >       24       59       60       60       63 </v>
   <v type="int" >       24       59       60       60       95 </v>
   <v type="int" >       48       60       63       64       99 </v>
   <v type="int" >       48       60       61       64       99 </v>
   <v type="int" >       48       60       61       96       99 </v>
   <v type="int" >       24       60       60       63       99 </v>
   <v type="int" >       24       60       60       95       99 </v>
   <v type="int" >       48       60       95       96       99 </v>
   <v type="int" >       24       61       61       64      100 </v>
   <v type="int" >       24       61       61       62      100 </v>
   <v type="int" >       48       61       62       97      100 </v>
   <v type="int" >       48       61       64       99      100 </v>
   <v type="int" >       48       61       96       99      100 </v>
   <v type="int" >       48       61       96       97      100 </v>
   <v type="int" >       24       62       97       97      100 </v>
   <v type="int" >       24       62       97       97       98 </v>
   <v type="int" >       12       63       63       64       64 </v>
   <v type="int" >       24       63       64       64       99 </v>
   <v type="int" >       12       64       64       99       99 </v>
   <v type="int" >       24       64       99       99      100 </v>
   <v type="int" >       24       65       66       66       71 </v>
   <v type="int" >       48       66       71       72       80 </v>
   <v type="int" >       48       66       67       72       80 </v>
   <v type="int" >       24       66       66       71       80 </v>
   <v type="int" >       48       67       72       73       79 </v>
   <v type="int" >       48       67       68       73       79 </v>
   <v type="int" >       48       67       72       79       80 </v>
   <v type="int" >       48       68       73       74       78 </v>
   <v type="int" >       48       68       69       74       78 </v>
   <v type="int" >       48       68       73       78       79 </v>
   <v type="int" >       48       69       74       75       77 </v>
   <v type="int" >       48       69       70       75       77 </v>
   <v type="int" >       48       69       74       77       78 </v>
   <v type="int" >       48       70       75       76       76 </v>
   <v type="int" >       24       70       70       76       76 </v>
   <v type="int" >       48       70       75       76       77 </v>
   <v type="int" >       24       71       72       72       81 </v>
   <v type="int" >       24       71       72       72       80 </v>
   <v type="int" >       48       72       81       82      101 </v>
   <v type="int" >       48       72       73       82      101 </v>
   <v type="int" >       48       72       73       79      101 </v>
   <v type="int" >       24       72       72       81      101 </v>
   <v type="int" >       24       72       72       80      101 </v>
   <v type="int" >       48       72       79       80      101 </v>
   <v type="int" >       48       73       82       83      102 </v>
   <v type="int" >       48       73       74       83      102 </v>
   <v type="int" >       48       73       74       78      102 </v>
   <v type="int" >       48       73       82      101      102 </v>
   <v type="int" >       48       73       79      101      102 </v>
   <v type="int" >       48       73       78       79      102 </v>
   <v type="int" >       48       74       83       84      103 </v>
   <v type="int" >       48       74       75       84      103 </v>
   <v type="int" >       48       74       75       77      103 </v>
   <v type="int" >       48       74       83      102      103 </v>
   <v type="int" >       48       74       78      102      103 </v>
   <v type="int" >       48       74       77       78      103 </v>
   <v type="int" >       48       75       84       85      104 </v>
   <v type="int" >       48       75       76       85      104 </v>
   <v type="int" >       48       75       76       76      104 </v>
   <v type="int" >       48       75       84      103      104 </v>
   <v type="int" >       48       75       77      103      104 </v>
   <v type="int" >       48       75       76       77      104 </v>
   <v type="int" >       48       76       85       86      104 </v>
   <v type="int" >       48       76       77       86      104 </v>
   <v type="int" >       48       76       85      104      104 </v>
   <v type="int" >       24       76       76      104      104 </v>
   <v type="int" >       48       77       86       87      103 </v>
   <v type="int" >       48       77       78       87      103 </v>
   <v type="int" >       48       77       86      103      104 </v>
   <v type="int" >       48       78       87       88      102 </v>
   <v type="int" >       48       78       79       88      102 </v>
   <v type="int" >       48       78       87      102      103 </v>
   <v type="int" >       24       79       79       88      101 </v>
   <v type="int" >       24       79       79       80      101 </v>
   <v type="int" >       48       79       88      101      102 </v>
   <v type="int" >       24       81       82       82       89 </v>
   <v type="int" >       24       81       82       82      101 </v>
   <v type="int" >       48       82       89       90      105 </v>
   <v type="int" >       48       82       83       90      105 </v>
   <v type="int" >       48       82       83      102      105 </v>
   <v type="int" >       24       82       82       89      105 </v>
   <v type="int" >       24       82       82      101      105 </v>
   <v type="int" >       48       82      101      102      105 </v>
   <v type="int" >       48       83       90       91      106 </v>
   <v type="int" >       48       83       84       91      106 </v>
   <v type="int" >       48       83       84      103      106 </v>
   <v type="int" >       48       83       90      105      106 </v>
   <v type="int" >       48       83      102      105      106 </v>
   <v type="int" >       48       83      102      103      106 </v>
   <v type="int" >       48       84       91       92      107 </v>
   <v type="int" >       48       84       85       92      107 </v>
   <v type="int" >       48       84       85      104      107 </v>
   <v type="int" >       48       84       91      106      107 </v>
   <v type="int" >       48       84      103      106      107 </v>
   <v type="int" >       48       84      103      104      107 </v>
   <v type="int" >       48       85       92       93      108 </v>
   <v type="int" >       48       85       86       93      108 </v>
   <v type="int" >       48       85       86      104      108 </v>
   <v type="int" >       48       85       92      107      108 </v>
   <v type="int" >       48       85      104      107      108 </v>
   <v type="int" >       48       85      104      104      108 </v>
   <v type="int" >       48       86       93       94      109 </v>
   <v type="int" >       48       86       87       94      109 </v>
   <v type="int" >       48       86       87      103      109 </v>
   <v type="int" >       48       86       93      108      109 </v>
   <v type="int" >       48       86      104      108      109 </v>
   <v type="int" >       48       86      103      104      109 </v>
   <v type="int" >       24       87       87       94      110 </v>
   <v type="int" >       24       87       87       88      110 </v>
   <v type="int" >       48       87       88      102      110 </v>
   <v type="int" >       48       87       94      109      110 </v>
   <v type="int" >       48       87      103      109      110 </v>
   <v type="int" >       48       87      102      103      110 </v>
   <v type="int" >       24       88      102      102      110 </v>
   <v type="int" >       24       88      101      102      102 </v>
   <v type="int" >       24       89       90       90       95 </v>
   <v type="int" >       24       89       90       90      105 </v>
   <v type="int" >       48       90       95       96      111 </v>
   <v type="int" >       48       90       91       96      111 </v>
   <v type="int" >       48       90       91      106      111 </v>
   <v type="int" >       24       90       90       95      111 </v>
   <v type="int" >       24       90       90      105      111 </v>
   <v type="int" >       48       90      105      106      111 </v>
   <v type="int" >       48       91       96       97      112 </v>
   <v type="int" >       48       91       92       97      112 </v>
   <v type="int" >       48       91       92      107      112 </v>
   <v type="int" >       48       91       96      111      112 </v>
   <v type="int" >       48       91      106      111      112 </v>
   <v type="int" >       48       91      106      107      112 </v>
   <v type="int" >       48       92       97       98      113 </v>
   <v type="int" >       48       92       93       98      113 </v>
   <v type="int" >       48       92       93      108      113 </v>
   <v type="int" >       48       92       97      112      113 </v>
   <v type="int" >       48       92      107      112      113 </v>
   <v type="int" >       48       92      107      108      113 </v>
   <v type="int" >       24       93       93       98      114 </v>
   <v type="int" >       24       93       93       94      114 </v>
   <v type="int" >       48       93       94      109      114 </v>
   <v type="int" >       48       93       98      113      114 </v>
   <v type="int" >       48       93      108      113      114 </v>
   <v type="int" >       48       93      108      109      114 </v>
   <v type="int" >       24       94      109      109      114 </v>
   <v type="int" >       24       94      109      109      110 </v>
   <v type="int" >       24       95       96       96       99 </v>
   <v type="int" >       24       95       96       96      111 </v>
   <v type="int" >       48       96       99      100      115 </v>
   <v type="int" >       48       96       97      100      115 </v>
   <v type="int" >       48       96       97      112      115 </v>
   <v type="int" >       24       96       96       99      115 </v>
   <v type="int" >       24       96       96      111      115 </v>
   <v type="int" >       48       96      111      112      115 </v>
   <v type="int" >       24       97       97      100      116 </v>
   <v type="int" >       24       97       97       98      116 </v>
   <v type="int" >       48       97       98      113      116 </v>
   <v type="int" >       48       97      100      115      116 </v>
   <v type="int" >       48       97      112      115      116 </v>
   <v type="int" >       48       97      112      113      116 </v>
   <v type="int" >       24       98      113      113      116 </v>
   <v type="int" >       24       98      113      113      114 </v>
   <v type="int" >       12       99       99      100      100 </v>
   <v type="int" >       24       99      100      100      115 </v>
   <v type="int" >       12      100      100      115      115 </v>
   <v type="int" >       24      100      115      115      116 </v>
   <v type="int" >       24      101      102      102      105 </v>
   <v type="int" >       48      102      105      106      110 </v>
   <v type="int" >       48      102      103      106      110 </v>
   <v type="int" >       24      102      102      105      110 </v>
   <v type="int" >       48      103      106      107      109 </v>
   <v type="int" >       48      103      104      107      109 </v>
   <v type="int" >       48      103      106      109      110 </v>
   <v type="int" >       48      104      107      108      108 </v>
   <v type="int" >       24      104      104      108      108 </v>
   <v type="int" >       48      104      107      108      109 </v>
   <v type="int" >       24      105      106      106      111 </v>
   <v type="int" >       24      105      106      106      110 </v>
   <v type="int" >       48      106      111      112      117 </v>
   <v type="int" >       48      106      107      112      117 </v>
   <v type="int" >       48      106      107      109      117 </v>
   <v type="int" >       24      106      106      111      117 </v>
   <v type="int" >       24      106      106      110      117 </v>
   <v type="int" >       48      106      109      110      117 </v>
   <v type="int" >       48      107      112      113      118 </v>
   <v type="int" >       48      107      108      113      118 </v>
   <v type="int" >       48      107      108      108      118 </v>
   <v type="int" >       48      107      112      117      118 </v>
   <v type="int" >       48      107      109      117      118 </v>
   <v type="int" >       48      107      108      109      118 </v>
   <v type="int" >       48      108      113      114      118 </v>
   <v type="int" >       48      108      109      114      118 </v>
   <v type="int" >       48      108      113      118      118 </v>
   <v type="int" >       24      108      108      118      118 </v>
   <v type="int" >       24      109      109      114      117 </v>
   <v type="int" >       24      109      109      110      117 </v>
   <v type="int" >       48      109      114      117      118 </v>
   <v type="int" >       24      111      112      112      115 </v>
   <v type="int" >       24      111      112      112      117 </v>
   <v type="int" >       48      112      115      116      119 </v>
   <v type="int" >       48      112      113      116      119 </v>
   <v type="int" >       48      112      113      118      119 </v>
   <v type="int" >       24      112      112      115      119 </v>
   <v type="int" >       24      112      112      117      119 </v>
   <v type="int" >       48      112      117      118      119 </v>
   <v type="int" >       24      113      113      116      120 </v>
   <v type="int" >       24      113      113      114      120 </v>
   <v type="int" >       48      113      114      118      120 </v>
   <v type="int" >       48      113      116      119      120 </v>
   <v type="int" >       48      113      118      119      120 </v>
   <v type="int" >       48      113      118      118      120 </v>
   <v type="int" >       24      114      118      118      120 </v>
   <v type="int" >       24      114      117      118      118 </v>
   <v type="int" >       12      115      115      116      116 </v>
   <v type="int" >       24      115      116      116      119 </v>
   <v type="int" >       12      116      116      119      119 </v>
   <v type="int" >       24      116      119      119      120 </v>
   <v type="int" >       24      117      118      118      119 </v>
   <v type="int" >       48      118      119      120      120 </v>
   <v type="int" >       24      118      118      120      120 </v>
   <v type="int" >       24      118      118      119      120 </v>
   <v type="int" >       12      119      119      120      120 </v>
   <v type="int" >       24      119      120      120      120 </v>
   <v type="int" >        6      120      120      120      120 </v>
  </varray>
  <i name="volumeweight">      0.00004938 </i>
 </kpoints>
 <parameters>
  <separator name="general" >
   <i type="string" name="SYSTEM">fcc Si</i>
   <i type="logical" name="LCOMPAT"> F  </i>
  </separator>
  <separator name="electronic" >
   <i type="string" name="PREC">normal</i>
   <i name="ENMAX">    240.00000000</i>
   <i name="ENAUG">    322.06900000</i>
   <i name="EDIFF">      0.00010000</i>
   <i type="int" name="IALGO">    38</i>
   <i type="int" name="IWAVPR">    10</i>
   <i type="int" name="NBANDS">     8</i>
   <i name="NELECT">      4.00000000</i>
   <i type="int" name="TURBO">     0</i>
   <i type="int" name="IRESTART">     0</i>
   <i type="int" name="NREBOOT">     0</i>
   <i type="int" name="NMIN">     0</i>
   <i name="EREF">      0.00000000</i>
   <separator name="electronic smearing" >
    <i type="int" name="ISMEAR">    -5</i>
    <i name="SIGMA">      0.20000000</i>
    <i name="KSPACING">      0.50000000</i>
    <i type="logical" name="KGAMMA"> T  </i>
   </separator>
   <separator name="electronic projectors" >
    <i type="logical" name="LREAL"> F  </i>
    <v name="ROPT">      0.00000000</v>
    <i type="int" name="LMAXPAW">  -100</i>
    <i type="int" name="LMAXMIX">     2</i>
    <i type="logical" name="NLSPLINE"> F  </i>
   </separator>
   <separator name="electronic startup" >
    <i type="int" name="ISTART">     0</i>
    <i type="int" name="ICHARG">     2</i>
    <i type="int" name="INIWAV">     1</i>
   </separator>
   <separator name="electronic spin" >
    <i type="int" name="ISPIN">     1</i>
    <i type="logical" name="LNONCOLLINEAR"> F  </i>
    <v name="MAGMOM">      1.00000000</v>
    <i name="NUPDOWN">     -1.00000000</i>
    <i type="logical" name="LSORBIT"> F  </i>
    <v name="SAXIS">      0.00000000      0.00000000      1.00000000</v>
    <i type="logical" name="LSPIRAL"> F  </i>
    <v name="QSPIRAL">      0.00000000      0.00000000      0.00000000</v>
    <i type="logical" name="LZEROZ"> F  </i>
   </separator>
   <separator name="electronic exchange-correlation" >
    <i type="logical" name="LASPH"> F  </i>
    <i type="logical" name="LMETAGGA"> F  </i>
   </separator>
   <separator name="electronic convergence" >
    <i type="int" name="NELM">    60</i>
    <i type="int" name="NELMDL">    -5</i>
    <i type="int" name="NELMIN">     2</i>
    <i name="ENINI">    240.00000000</i>
    <separator name="electronic convergence detail" >
     <i type="logical" name="LDIAG"> T  </i>
     <i type="logical" name="LSUBROT"> F  </i>
     <i name="WEIMIN">      0.00000000</i>
     <i name="EBREAK">      0.00000313</i>
     <i name="DEPER">      0.30000000</i>
     <i type="int" name="NRMM">     4</i>
     <i name="TIME">      0.40000000</i>
    </separator>
   </separator>
   <separator name="electronic mixer" >
    <i name="AMIX">      0.40000000</i>
    <i name="BMIX">      1.00000000</i>
    <i name="AMIN">      0.10000000</i>
    <i name="AMIX_MAG">      1.60000000</i>
    <i name="BMIX_MAG">      1.00000000</i>
    <separator name="electronic mixer details" >
     <i type="int" name="IMIX">     4</i>
     <i type="logical" name="MIXFIRST"> F  </i>
     <i type="int" name="MAXMIX">   -45</i>
     <i name="WC">    100.00000000</i>
     <i type="int" name="INIMIX">     1</i>
     <i type="int" name="MIXPRE">     1</i>
     <i type="int" name="MREMOVE">     5</i>
    </separator>
   </separator>
   <separator name="electronic dipolcorrection" >
    <i type="logical" name="LDIPOL"> F  </i>
    <i type="logical" name="LMONO"> F  </i>
    <i type="int" name="IDIPOL">     0</i>
    <i name="EPSILON">      1.00000000</i>
    <v name="DIPOL">   -100.00000000   -100.00000000   -100.00000000</v>
    <i name="EFIELD">      0.00000000</i>
   </separator>
  </separator>
  <separator name="grids" >
   <i type="int" name="NGX">    10</i>
   <i type="int" name="NGY">    10</i>
   <i type="int" name="NGZ">    10</i>
   <i type="int" name="NGXF">    20</i>
   <i type="int" name="NGYF">    20</i>
   <i type="int" name="NGZF">    20</i>
   <i type="logical" name="ADDGRID"> F  </i>
  </separator>
  <separator name="ionic" >
   <i type="int" name="NSW">     0</i>
   <i type="int" name="IBRION">    -1</i>
   <i type="int" name="MDALGO">     0</i>
   <i type="int" name="ISIF">     2</i>
   <i name="PSTRESS">      0.00000000</i>
   <i name="EDIFFG">      0.00100000</i>
   <i type="int" name="NFREE">     0</i>
   <i name="POTIM">      0.50000000</i>
   <i name="SMASS">     -3.00000000</i>
   <i name="SCALEE">      1.00000000</i>
  </separator>
  <separator name="ionic md" >
   <i name="TEBEG">      0.00010000</i>
   <i name="TEEND">      0.00010000</i>
   <i type="int" name="NBLOCK">     1</i>
   <i type="int" name="KBLOCK">     1</i>
   <i type="int" name="NPACO">   256</i>
   <i name="APACO">     16.00000000</i>
  </separator>
  <separator name="symmetry" >
   <i type="int" name="ISYM">     2</i>
   <i name="SYMPREC">      0.00001000</i>
  </separator>
  <separator name="dos" >
   <i type="int" name="LORBIT">    11</i>
   <v name="RWIGS">     -1.00000000</v>
   <i type="int" name="NEDOS">   301</i>
   <i name="EMIN">      0.00000000</i>
   <i name="EMAX">     17.00000000</i>
   <i name="EFERMI">      0.00000000</i>
  </separator>
  <separator name="writing" >
   <i type="int" name="NWRITE">     2</i>
   <i type="logical" name="LWAVE"> T  </i>
   <i type="logical" name="LDOWNSAMPLE"> F  </i>
   <i type="logical" name="LCHARG"> T  </i>
   <i type="logical" name="LPARD"> F  </i>
   <i type="logical" name="LVTOT"> F  </i>
   <i type="logical" name="LVHAR"> F  </i>
   <i type="logical" name="LELF"> F  </i>
   <i type="logical" name="LOPTICS"> F  </i>
   <v name="STM">      0.00000000      0.00000000      0.00000000      0.00000000      0.00000000      0.00000000      0.00000000</v>
  </separator>
  <separator name="performance" >
   <i type="int" name="NPAR">     4</i>
   <i type="int" name="NSIM">     4</i>
   <i type="int" name="NBLK">    -1</i>
   <i type="logical" name="LPLANE"> T  </i>
   <i type="logical" name="LSCALAPACK"> T  </i>
   <i type="logical" name="LSCAAWARE"> F  </i>
   <i type="logical" name="LSCALU"> F  </i>
   <i type="logical" name="LASYNC"> F  </i>
   <i type="logical" name="LORBITALREAL"> F  </i>
  </separator>
  <separator name="miscellaneous" >
   <i type="int" name="IDIOT">     3</i>
   <i type="int" name="ISPECIAL">     0</i>
   <i type="logical" name="LMUSIC"> F  </i>
   <v name="POMASS">     28.08500000</v>
   <v name="DARWINR">      0.00000000</v>
   <v name="DARWINV">      1.00000000</v>
   <i type="logical" name="LCORR"> T  </i>
  </separator>
  <i type="logical" name="GGA_COMPAT"> T  </i>
  <i type="logical" name="LBERRY"> F  </i>
  <i type="int" name="ICORELEVEL">     0</i>
  <i type="logical" name="LDAU"> F  </i>
  <i type="int" name="I_CONSTRAINED_M">     0</i>
  <separator name="electronic exchange-correlation" >
   <i type="string" name="GGA">--</i>
   <i type="int" name="VOSKOWN">     0</i>
   <i type="logical" name="LHFCALC"> F  </i>
   <i type="string" name="PRECFOCK"></i>
   <i type="logical" name="LSYMGRAD"> F  </i>
   <i type="logical" name="LHFONE"> F  </i>
   <i type="logical" name="LRHFCALC"> F  </i>
   <i type="logical" name="LTHOMAS"> F  </i>
   <i type="logical" name="LMODELHF"> F  </i>
   <i name="ENCUT4O">     -1.00000000</i>
   <i type="int" name="EXXOEP">     0</i>
   <i type="int" name="FOURORBIT">     0</i>
   <i name="AEXX">      0.00000000</i>
   <i name="HFALPHA">      0.00000000</i>
   <i name="MCALPHA">      0.00000000</i>
   <i name="ALDAX">      1.00000000</i>
   <i name="AGGAX">      1.00000000</i>
   <i name="ALDAC">      1.00000000</i>
   <i name="AGGAC">      1.00000000</i>
   <i type="int" name="NKREDX">     1</i>
   <i type="int" name="NKREDY">     1</i>
   <i type="int" name="NKREDZ">     1</i>
   <i type="logical" name="SHIFTRED"> F  </i>
   <i type="logical" name="ODDONLY"> F  </i>
   <i type="logical" name="EVENONLY"> F  </i>
   <i type="int" name="LMAXFOCK">     0</i>
   <i type="int" name="NMAXFOCKAE">     0</i>
   <i type="logical" name="LFOCKAEDFT"> F  </i>
   <i name="HFSCREEN">      0.00000000</i>
   <i name="HFSCREENC">      0.00000000</i>
   <i type="int" name="NBANDSGWLOW">     0</i>
  </separator>
  <separator name="vdW DFT" >
   <i type="logical" name="LUSE_VDW"> F  </i>
   <i name="Zab_VDW">     -0.84910000</i>
   <i name="PARAM1">      0.12340000</i>
   <i name="PARAM2">      1.00000000</i>
   <i name="PARAM3">      0.00000000</i>
  </separator>
  <separator name="model GW" >
   <i type="int" name="MODEL_GW">     0</i>
   <i name="MODEL_EPS0">      8.89785000</i>
   <i name="MODEL_ALPHA">      1.00000000</i>
  </separator>
  <separator name="linear response parameters" >
   <i type="logical" name="LEPSILON"> F  </i>
   <i type="logical" name="LRPA"> F  </i>
   <i type="logical" name="LNABLA"> F  </i>
   <i type="logical" name="LVEL"> F  </i>
   <i type="int" name="KINTER">     0</i>
   <i name="CSHIFT">      0.10000000</i>
   <i name="OMEGAMAX">     -1.00000000</i>
   <i name="DEG_THRESHOLD">      0.00200000</i>
   <i name="RTIME">     -0.10000000</i>
   <i name="WPLASMAI">      0.00000000</i>
   <v name="DFIELD">      0.00000000      0.00000000      0.00000000</v>
   <v name="WPLASMA">      0.00000000      0.00000000      0.00000000      0.00000000      0.00000000      0.00000000      0.00000000      0.00000000      0.00000000</v>
  </separator>
  <separator name="orbital magnetization" >
   <i type="logical" name="NUCIND"> F  </i>
   <v name="MAGPOS">      0.00000000      0.00000000      0.00000000</v>
   <i type="logical" name="LNICSALL"> T  </i>
   <i type="logical" name="ORBITALMAG"> F  </i>
   <i type="logical" name="LMAGBLOCH"> F  </i>
   <i type="logical" name="LCHIMAG"> F  </i>
   <i type="logical" name="LGAUGE"> T  </i>
   <i type="int" name="MAGATOM">     0</i>
   <v name="MAGDIPOL">      0.00000000      0.00000000      0.00000000</v>
   <v name="AVECCONST">      0.00000000      0.00000000      0.00000000</v>
  </separator>
  <separator name="response functions" >
   <i type="logical" name="LADDER"> F  </i>
   <i type="logical" name="LRPAFORCE"> F  </i>
   <i type="logical" name="LFXC"> F  </i>
   <i type="logical" name="LHARTREE"> T  </i>
   <i type="int" name="IBSE">     0</i>
   <v type="int" name="KPOINT">    -1     0     0     0</v>
   <i type="logical" name="LTCTE"> F  </i>
   <i type="logical" name="LTETE"> F  </i>
   <i type="logical" name="LTRIPLET"> F  </i>
   <i type="logical" name="LFXCEPS"> F  </i>
   <i type="logical" name="LFXHEG"> F  </i>
   <i type="int" name="NATURALO">     2</i>
   <i type="logical" name="L2ORDER"> F  </i>
   <i type="logical" name="LMP2LT"> F  </i>
   <i type="logical" name="LUSEW"> F  </i>
   <i name="ENCUTGW">     -2.00000000</i>
   <i name="ENCUTGWSOFT">     -2.00000000</i>
   <i name="ENCUTLF">     -1.00000000</i>
   <i type="int" name="LMAXMP2">    -1</i>
   <i name="SCISSOR">      0.00000000</i>
   <i type="int" name="NOMEGA">     0</i>
   <i type="int" name="NOMEGAR">     0</i>
   <i type="int" name="NBANDSGW">    -1</i>
   <i type="int" name="NBANDSO">    -1</i>
   <i type="int" name="NBANDSV">    -1</i>
   <i type="int" name="NELM">     1</i>
   <i type="int" name="NELMHF">     1</i>
   <i type="int" name="DIM">     3</i>
   <i type="int" name="ANTIRES">     0</i>
   <i name="OMEGAMAX">    -30.00000000</i>
   <i name="OMEGAMIN">    -30.00000000</i>
   <i name="OMEGATL">   -200.00000000</i>
   <i type="int" name="OMEGAGRID">   140</i>
   <i name="CSHIFT">     -0.10000000</i>
   <i type="logical" name="SELFENERGY"> F  </i>
   <i type="logical" name="LSPECTRAL"> F  </i>
   <i type="logical" name="LSPECTRALGW"> F  </i>
   <i type="logical" name="LSINGLES"> F  </i>
   <i type="logical" name="LFERMIGW"> F  </i>
   <i type="logical" name="ODDONLYGW"> F  </i>
   <i type="logical" name="EVENONLYGW"> F  </i>
   <i type="int" name="NKREDLFX">     1</i>
   <i type="int" name="NKREDLFY">     1</i>
   <i type="int" name="NKREDLFZ">     1</i>
   <i type="int" name="MAXMEM">  2800</i>
   <i type="int" name="TELESCOPE">     0</i>
   <i type="int" name="TAUPAR">     1</i>
   <i type="int" name="OMEGAPAR">    -1</i>
   <i name="LAMBDA">      1.00000000</i>
  </separator>
  <separator name="External order field" >
   <i name="OFIELD_KAPPA">      0.00000000</i>
   <v name="OFIELD_K">      0.00000000      0.00000000      0.00000000</v>
   <i name="OFIELD_Q6_NEAR">      0.00000000</i>
   <i name="OFIELD_Q6_FAR">      0.00000000</i>
   <i name="OFIELD_A">      0.00000000</i>
  </separator>
 </parameters>
 <atominfo>
  <atoms>       1 </atoms>
  <types>       1 </types>
  <array name="atoms" >
   <dimension dim="1">ion</dimension>
   <field type="string">element</field>
   <field type="int">atomtype</field>
   <set>
    <rc><c>Si</c><c>   1</c></rc>
   </set>
  </array>
  <array name="atomtypes" >
   <dimension dim="1">type</dimension>
   <field type="int">atomspertype</field>
   <field type="string">element</field>
   <field>mass</field>
   <field>valence</field>
   <field type="string">pseudopotential</field>
   <set>
    <rc><c>   1</c><c>Si</c><c>     28.08500000</c><c>      4.00000000</c><c> PAW_PBE Si 05Jan2001                   </c></rc>
   </set>
  </array>
 </atominfo>
 <structure name="initialpos" >
  <crystal>
   <varray name="basis" >
    <v>       1.95000000       1.95000000       0.00000000 </v>
    <v>       0.00000000       1.95000000       1.95000000 </v>
    <v>       1.95000000       0.00000000       1.95000000 </v>
   </varray>
   <i name="volume">     14.82975000 </i>
   <varray name="rec_basis" >
    <v>       0.25641026       0.25641026      -0.25641026 </v>
    <v>      -0.25641026       0.25641026       0.25641026 </v>
    <v>       0.25641026      -0.25641026       0.25641026 </v>
   </varray>
  </crystal>
  <varray name="positions" >
   <v>       0.00000000       0.00000000       0.00000000 </v>
  </varray>
 </structure>
 <calculation>
  <scstep>
   <time name="dav">    0.17    0.17</time>
   <time name="total">    0.18    0.18</time>
   <energy>
    <i name="alphaZ">      2.26996938 </i>
    <i name="ewald">   -135.42777035 </i>
    <i name="hartreedc">     -0.65300110 </i>
    <i name="XCdc">     -8.87078791 </i>
    <i name="pawpsdc">     32.97760406 </i>
    <i name="pawaedc">    -15.38426339 </i>
    <i name="eentropy">      0.00000000 </i>
    <i name="bandstr">     17.97632133 </i>
    <i name="atom">    103.06077658 </i>
    <i name="e_fr_energy">     -4.05115141 </i>
    <i name="e_wo_entrp">     -4.05115141 </i>
    <i name="e_0_energy">     -4.05115141 </i>
   </energy>
  </scstep>
  <scstep>
   <time name="dav">    0.22    0.22</time>
   <time name="total">    0.22    0.23</time>
   <energy>
    <i name="e_fr_energy">     -4.88327411 </i>
    <i name="e_wo_entrp">     -4.88327411 </i>
    <i name="e_0_energy">     -4.88327411 </i>
   </energy>
  </scstep>
  <scstep>
   <time name="dav">    0.16    0.16</time>
   <time name="total">    0.17    0.17</time>
   <energy>
    <i name="e_fr_energy">     -4.88599341 </i>
    <i name="e_wo_entrp">     -4.88599341 </i>
    <i name="e_0_energy">     -4.88599341 </i>
   </energy>
  </scstep>
  <scstep>
   <time name="dav">    0.24    0.24</time>
   <time name="total">    0.25    0.25</time>
   <energy>
    <i name="e_fr_energy">     -4.88599486 </i>
    <i name="e_wo_entrp">     -4.88599486 </i>
    <i name="e_0_energy">     -4.88599486 </i>
   </energy>
  </scstep>
  <scstep>
   <time name="dav">    0.14    0.14</time>
   <time name="total">    0.15    0.15</time>
   <energy>
    <i name="e_fr_energy">     -4.88599486 </i>
    <i name="e_wo_entrp">     -4.88599486 </i>
    <i name="e_0_energy">     -4.88599486 </i>
   </energy>
  </scstep>
  <scstep>
   <time name="dav">    0.14    0.14</time>
   <time name="total">    0.15    0.15</time>
   <energy>
    <i name="e_fr_energy">     -4.87330850 </i>
    <i name="e_wo_entrp">     -4.87330850 </i>
    <i name="e_0_energy">     -4.87330850 </i>
   </energy>
  </scstep>
  <scstep>
   <time name="dav">    0.15    0.15</time>
   <time name="total">    0.16    0.16</time>
   <energy>
    <i name="e_fr_energy">     -4.86601321 </i>
    <i name="e_wo_entrp">     -4.86601321 </i>
    <i name="e_0_energy">     -4.86601321 </i>
   </energy>
  </scstep>
  <scstep>
   <time name="dav">    0.15    0.15</time>
   <time name="total">    0.16    0.16</time>
   <energy>
    <i name="alphaZ">      2.26996938 </i>
    <i name="ewald">   -135.42777035 </i>
    <i name="hartreedc">     -0.49220600 </i>
    <i name="XCdc">     -8.81712355 </i>
    <i name="pawpsdc">     34.03454129 </i>
    <i name="pawaedc">    -16.44875632 </i>
    <i name="eentropy">      0.00000000 </i>
    <i name="bandstr">     16.95456373 </i>
    <i name="atom">    103.06077658 </i>
    <i name="e_fr_energy">     -4.86600524 </i>
    <i name="e_wo_entrp">     -4.86600524 </i>
    <i name="e_0_energy">     -4.86600524 </i>
   </energy>
  </scstep>
  <structure>
   <crystal>
    <varray name="basis" >
     <v>       1.95000000       1.95000000       0.00000000 </v>
     <v>       0.00000000       1.95000000       1.95000000 </v>
     <v>       1.95000000       0.00000000       1.95000000 </v>
    </varray>
    <i name="volume">     14.82975000 </i>
    <varray name="rec_basis" >
     <v>       0.25641026       0.25641026      -0.25641026 </v>
     <v>      -0.25641026       0.25641026       0.25641026 </v>
     <v>       0.25641026      -0.25641026       0.25641026 </v>
    </varray>
   </crystal>
   <varray name="positions" >
    <v>       0.00000000       0.00000000       0.00000000 </v>
   </varray>
  </structure>
  <varray name="forces" >
   <v>       0.00000000       0.00000000       0.00000000 </v>
  </varray>
  <varray name="stress" >
   <v>     -19.41239994       0.00000000       0.00000000 </v>
   <v>      -0.00000000     -19.41239994      -0.00000000 </v>
   <v>       0.00000000       0.00000000     -19.41239994 </v>
  </varray>
  <energy>
   <i name="e_fr_energy">     -4.86600524 </i>
   <i name="e_wo_entrp">     -4.86600524 </i>
   <i name="e_0_energy">      0.00000000 </i>
  </energy>
  <time name="totalsc">    1.48    1.52</time>
  <eigenvalues>
   <array>
    <dimension dim="1">band</dimension>
    <dimension dim="2">kpoint</dimension>
    <dimension dim="3">spin</dimension>
    <field>eigene</field>
    <field>occ</field>
    <set>
     <set comment="spin 1">
      <set comment="kpoint 1">
       <r>   -4.3780    1.0000 </r>
       <r>   20.6954    0.0000 </r>
       <r>   20.6956    0.0000 </r>
       <r>   20.6956    0.0000 </r>
       <r>   21.7715    0.0000 </r>
       <r>   21.7716    0.0000 </r>
       <r>   21.7716    0.0000 </r>
       <r>   26.9782    0.0000 </r>
      </set>
      <set comment="kpoint 2">
       <r>   -4.2504    1.0000 </r>
       <r>   18.7122    0.0000 </r>
       <r>   20.1233    0.0000 </r>
       <r>   20.1235    0.0000 </r>
       <r>   22.5322    0.0000 </r>
       <r>   22.5323    0.0000 </r>
       <r>   22.6906    0.0000 </r>
       <r>   28.0213    0.0000 </r>
      </set>
      <set comment="kpoint 3">
       <r>   -3.8690    1.0000 </r>
       <r>   15.9440    0.0000 </r>
       <r>   19.3917    0.0000 </r>
       <r>   19.3918    0.0000 </r>
       <r>   22.9496    0.0000 </r>
       <r>   23.5819    0.0000 </r>
       <r>   23.5822    0.0000 </r>
       <r>   26.9737    0.0000 </r>
      </set>
      <set comment="kpoint 4">
       <r>   -3.2351    1.0000 </r>
       <r>   13.1568    0.0000 </r>
       <r>   18.8219    0.0000 </r>
       <r>   18.8221    0.0000 </r>
       <r>   22.8677    0.0000 </r>
       <r>   23.8278    0.0000 </r>
       <r>   23.8285    0.0000 </r>
       <r>   26.9196    0.0000 </r>
      </set>
      <set comment="kpoint 5">
       <r>   -2.3513    1.0000 </r>
       <r>   10.4968    0.1829 </r>
       <r>   18.4396    0.0000 </r>
       <r>   18.4398    0.0000 </r>
       <r>   22.7655    0.0000 </r>
       <r>   22.9767    0.0000 </r>
       <r>   22.9774    0.0000 </r>
       <r>   28.1408    0.0000 </r>
      </set>
      <set comment="kpoint 6">
       <r>   -1.2209    1.0000 </r>
       <r>    8.0156    1.0410 </r>
       <r>   18.2390    0.0000 </r>
       <r>   18.2392    0.0000 </r>
       <r>   22.0031    0.0000 </r>
       <r>   22.0037    0.0000 </r>
       <r>   22.7713    0.0000 </r>
       <r>   27.0086    0.0000 </r>
      </set>
      <set comment="kpoint 7">
       <r>    0.1478    1.0000 </r>
       <r>    5.7374    1.0000 </r>
       <r>   18.1763    0.0000 </r>
       <r>   18.1764    0.0000 </r>
       <r>   21.2293    0.0000 </r>
       <r>   21.2298    0.0000 </r>
       <r>   22.8605    0.0000 </r>
       <r>   26.1161    0.0000 </r>
      </set>
      <set comment="kpoint 8">
       <r>    1.7175    1.0000 </r>
       <r>    3.7104    1.0000 </r>
       <r>   18.1860    0.0000 </r>
       <r>   18.1861    0.0000 </r>
       <r>   20.7925    0.0000 </r>
       <r>   20.7930    0.0000 </r>
       <r>   22.9630    0.0000 </r>
       <r>   25.5949    0.0000 </r>
      </set>
      <set comment="kpoint 9">
       <r>   -4.2079    1.0000 </r>
       <r>   19.1686    0.0000 </r>
       <r>   19.1687    0.0000 </r>
       <r>   20.2937    0.0000 </r>
       <r>   20.8896    0.0000 </r>
       <r>   23.5605    0.0000 </r>
       <r>   23.5605    0.0000 </r>
       <r>   26.8720    0.0000 </r>
      </set>
      <set comment="kpoint 10">
       <r>   -3.9113    1.0000 </r>
       <r>   16.9339    0.0000 </r>
       <r>   18.3456    0.0000 </r>
       <r>   19.8403    0.0000 </r>
       <r>   21.2839    0.0000 </r>
       <r>   24.2500    0.0000 </r>
       <r>   24.6851    0.0000 </r>
       <r>   25.4025    0.0000 </r>
      </set>
      <set comment="kpoint 11">
       <r>   -3.3616    1.0000 </r>
       <r>   14.1635    0.0000 </r>
       <r>   17.7179    0.0000 </r>
       <r>   19.2202    0.0000 </r>
       <r>   21.9749    0.0000 </r>
       <r>   24.0733    0.0000 </r>
       <r>   24.8846    0.0000 </r>
       <r>   25.3068    0.0000 </r>
      </set>
      <set comment="kpoint 12">
       <r>   -2.5612    1.0000 </r>
       <r>   11.4647   -0.0621 </r>
       <r>   17.2973    0.0000 </r>
       <r>   18.6990    0.0000 </r>
       <r>   21.4850    0.0000 </r>
       <r>   23.8371    0.0000 </r>
       <r>   24.6857    0.0000 </r>
       <r>   25.8894    0.0000 </r>
      </set>
      <set comment="kpoint 13">
       <r>   -1.5131    1.0000 </r>
       <r>    8.9241    0.9644 </r>
       <r>   17.0892    0.0000 </r>
       <r>   18.2492    0.0000 </r>
       <r>   20.6671    0.0000 </r>
       <r>   23.6746    0.0000 </r>
       <r>   23.8007    0.0000 </r>
       <r>   27.4504    0.0000 </r>
      </set>
      <set comment="kpoint 14">
       <r>   -0.2226    1.0000 </r>
       <r>    6.5781    1.0000 </r>
       <r>   17.0875    0.0000 </r>
       <r>   17.7805    0.0000 </r>
       <r>   20.1460    0.0000 </r>
       <r>   22.7321    0.0000 </r>
       <r>   23.8305    0.0000 </r>
       <r>   27.3260    0.0000 </r>
      </set>
      <set comment="kpoint 15">
       <r>    1.2907    1.0000 </r>
       <r>    4.4567    1.0000 </r>
       <r>   17.2672    0.0000 </r>
       <r>   17.2810    0.0000 </r>
       <r>   20.0894    0.0000 </r>
       <r>   21.9670    0.0000 </r>
       <r>   23.8448    0.0000 </r>
       <r>   26.8056    0.0000 </r>
      </set>
      <set comment="kpoint 16">
       <r>    2.3163    1.0000 </r>
       <r>    3.2782    1.0000 </r>
       <r>   16.8060    0.0000 </r>
       <r>   17.6470    0.0000 </r>
       <r>   20.4068    0.0000 </r>
       <r>   21.4583    0.0000 </r>
       <r>   23.7779    0.0000 </r>
       <r>   26.7200    0.0000 </r>
      </set>
      <set comment="kpoint 17">
       <r>    0.7642    1.0000 </r>
       <r>    5.1352    1.0000 </r>
       <r>   16.4843    0.0000 </r>
       <r>   18.1498    0.0000 </r>
       <r>   21.0399    0.0000 </r>
       <r>   21.2680    0.0000 </r>
       <r>   23.6435    0.0000 </r>
       <r>   27.0996    0.0000 </r>
      </set>
      <set comment="kpoint 18">
       <r>   -0.6794    1.0000 </r>
       <r>    7.3363    1.0000 </r>
       <r>   16.3461    0.0000 </r>
       <r>   18.7045    0.0000 </r>
       <r>   21.4325    0.0000 </r>
       <r>   21.9116    0.0000 </r>
       <r>   23.5086    0.0000 </r>
       <r>   27.8132    0.0000 </r>
      </set>
      <set comment="kpoint 19">
       <r>   -1.8899    1.0000 </r>
       <r>    9.7503    0.5646 </r>
       <r>   16.4149    0.0000 </r>
       <r>   19.2470    0.0000 </r>
       <r>   21.9861    0.0000 </r>
       <r>   22.9717    0.0000 </r>
       <r>   23.4521    0.0000 </r>
       <r>   27.5268    0.0000 </r>
      </set>
      <set comment="kpoint 20">
       <r>   -2.8557    1.0000 </r>
       <r>   12.3488   -0.0023 </r>
       <r>   16.6928    0.0000 </r>
       <r>   19.7888    0.0000 </r>
       <r>   22.7653    0.0000 </r>
       <r>   23.4651    0.0000 </r>
       <r>   24.1131    0.0000 </r>
       <r>   25.8922    0.0000 </r>
      </set>
      <set comment="kpoint 21">
       <r>   -3.5728    1.0000 </r>
       <r>   15.0900    0.0000 </r>
       <r>   17.1842    0.0000 </r>
       <r>   20.3666    0.0000 </r>
       <r>   22.8582    0.0000 </r>
       <r>   23.4241    0.0000 </r>
       <r>   24.7019    0.0000 </r>
       <r>   25.5332    0.0000 </r>
      </set>
      <set comment="kpoint 22">
       <r>   -4.0384    1.0000 </r>
       <r>   17.7680    0.0000 </r>
       <r>   17.9534    0.0000 </r>
       <r>   20.7675    0.0000 </r>
       <r>   22.1260    0.0000 </r>
       <r>   23.0713    0.0000 </r>
       <r>   24.0193    0.0000 </r>
       <r>   26.6473    0.0000 </r>
      </set>
      <set comment="kpoint 23">
       <r>   -3.6995    1.0000 </r>
       <r>   17.4498    0.0000 </r>
       <r>   17.4499    0.0000 </r>
       <r>   19.2236    0.0000 </r>
       <r>   19.2542    0.0000 </r>
       <r>   23.6081    0.0000 </r>
       <r>   25.8964    0.0000 </r>
       <r>   25.8964    0.0000 </r>
      </set>
      <set comment="kpoint 24">
       <r>   -3.2347    1.0000 </r>
       <r>   15.3120    0.0000 </r>
       <r>   16.7513    0.0000 </r>
       <r>   18.4999    0.0000 </r>
       <r>   19.6781    0.0000 </r>
       <r>   22.2536    0.0000 </r>
       <r>   26.6039    0.0000 </r>
       <r>   26.8498    0.0000 </r>
      </set>
      <set comment="kpoint 25">
       <r>   -2.5187    1.0000 </r>
       <r>   12.6342    0.0000 </r>
       <r>   16.2664    0.0000 </r>
       <r>   17.7619    0.0000 </r>
       <r>   19.6581    0.0000 </r>
       <r>   22.5280    0.0000 </r>
       <r>   26.6238    0.0000 </r>
       <r>   26.7550    0.0000 </r>
      </set>
      <set comment="kpoint 26">
       <r>   -1.5539    1.0000 </r>
       <r>   10.0551    0.4048 </r>
       <r>   15.9992    0.0000 </r>
       <r>   16.9516    0.0000 </r>
       <r>   19.0902    0.0000 </r>
       <r>   23.9594    0.0000 </r>
       <r>   25.6819    0.0000 </r>
       <r>   26.9499    0.0000 </r>
      </set>
      <set comment="kpoint 27">
       <r>   -0.3453    1.0000 </r>
       <r>    7.6508    1.0036 </r>
       <r>   15.9446    0.0000 </r>
       <r>   16.0785    0.0000 </r>
       <r>   18.8154    0.0000 </r>
       <r>   24.6949    0.0000 </r>
       <r>   25.1600    0.0000 </r>
       <r>   27.6946    0.0000 </r>
      </set>
      <set comment="kpoint 28">
       <r>    1.0961    1.0000 </r>
       <r>    5.4554    1.0000 </r>
       <r>   15.2703    0.0000 </r>
       <r>   16.1091    0.0000 </r>
       <r>   18.9008    0.0000 </r>
       <r>   23.8655    0.0000 </r>
       <r>   25.5487    0.0000 </r>
       <r>   29.1643    0.0000 </r>
      </set>
      <set comment="kpoint 29">
       <r>    2.6494    1.0000 </r>
       <r>    3.5984    1.0000 </r>
       <r>   14.6144    0.0000 </r>
       <r>   16.4827    0.0000 </r>
       <r>   19.2790    0.0000 </r>
       <r>   23.2342    0.0000 </r>
       <r>   25.4694    0.0000 </r>
       <r>   29.2749    0.0000 </r>
      </set>
      <set comment="kpoint 30">
       <r>    1.6215    1.0000 </r>
       <r>    4.7775    1.0000 </r>
       <r>   14.1530    0.0000 </r>
       <r>   17.0534    0.0000 </r>
       <r>   19.9098    0.0000 </r>
       <r>   22.8068    0.0000 </r>
       <r>   25.2464    0.0000 </r>
       <r>   29.5658    0.0000 </r>
      </set>
      <set comment="kpoint 31">
       <r>    0.1102    1.0000 </r>
       <r>    6.8928    1.0000 </r>
       <r>   13.9059    0.0000 </r>
       <r>   17.8038    0.0000 </r>
       <r>   20.7716    0.0000 </r>
       <r>   22.6457    0.0000 </r>
       <r>   25.0220    0.0000 </r>
       <r>   29.1905    0.0000 </r>
      </set>
      <set comment="kpoint 32">
       <r>   -1.1781    1.0000 </r>
       <r>    9.2284    0.8418 </r>
       <r>   13.8814    0.0000 </r>
       <r>   18.6951    0.0000 </r>
       <r>   21.8573    0.0000 </r>
       <r>   22.7660    0.0000 </r>
       <r>   24.8218    0.0000 </r>
       <r>   27.0107    0.0000 </r>
      </set>
      <set comment="kpoint 33">
       <r>   -2.2249    1.0000 </r>
       <r>   11.7416   -0.0450 </r>
       <r>   14.0936    0.0000 </r>
       <r>   19.6414    0.0000 </r>
       <r>   23.0938    0.0000 </r>
       <r>   23.1337    0.0000 </r>
       <r>   24.6012    0.0000 </r>
       <r>   25.1681    0.0000 </r>
      </set>
      <set comment="kpoint 34">
       <r>   -3.0241    1.0000 </r>
       <r>   14.1908    0.0000 </r>
       <r>   14.7357    0.0000 </r>
       <r>   20.4261    0.0000 </r>
       <r>   23.1075    0.0000 </r>
       <r>   24.1593    0.0000 </r>
       <r>   24.2890    0.0000 </r>
       <r>   24.4692    0.0000 </r>
      </set>
      <set comment="kpoint 35">
       <r>   -2.8550    1.0000 </r>
       <r>   15.9826    0.0000 </r>
       <r>   15.9827    0.0000 </r>
       <r>   17.5060    0.0000 </r>
       <r>   17.6970    0.0000 </r>
       <r>   20.5775    0.0000 </r>
       <r>   28.2892    0.0000 </r>
       <r>   28.2892    0.0000 </r>
      </set>
      <set comment="kpoint 36">
       <r>   -2.2240    1.0000 </r>
       <r>   13.9376    0.0000 </r>
       <r>   15.4270    0.0000 </r>
       <r>   16.4455    0.0000 </r>
       <r>   17.9167    0.0000 </r>
       <r>   20.0893    0.0000 </r>
       <r>   28.6657    0.0000 </r>
       <r>   29.0135    0.0000 </r>
      </set>
      <set comment="kpoint 37">
       <r>   -1.3438    1.0000 </r>
       <r>   11.3856   -0.0604 </r>
       <r>   15.0862    0.0000 </r>
       <r>   15.2698    0.0000 </r>
       <r>   17.8080    0.0000 </r>
       <r>   21.3076    0.0000 </r>
       <r>   27.8860    0.0000 </r>
       <r>   29.1809    0.0000 </r>
      </set>
      <set comment="kpoint 38">
       <r>   -0.2183    1.0000 </r>
       <r>    8.9449    0.9616 </r>
       <r>   14.1411    0.0000 </r>
       <r>   14.9697    0.0000 </r>
       <r>   17.6796    0.0000 </r>
       <r>   23.1878    0.0000 </r>
       <r>   26.9292    0.0000 </r>
       <r>   29.1487    0.0000 </r>
      </set>
      <set comment="kpoint 39">
       <r>    1.1437    1.0000 </r>
       <r>    6.6893    1.0000 </r>
       <r>   13.1610    0.0000 </r>
       <r>   15.0716    0.0000 </r>
       <r>   17.7690    0.0000 </r>
       <r>   25.1597    0.0000 </r>
       <r>   26.0384    0.0000 </r>
       <r>   29.0193    0.0000 </r>
      </set>
      <set comment="kpoint 40">
       <r>    2.7091    1.0000 </r>
       <r>    4.6734    1.0000 </r>
       <r>   12.3788   -0.0062 </r>
       <r>   15.3912    0.0000 </r>
       <r>   18.1154    0.0000 </r>
       <r>   25.3381    0.0000 </r>
       <r>   26.6712    0.0000 </r>
       <r>   29.3486    0.0000 </r>
      </set>
      <set comment="kpoint 41">
       <r>    2.7084    1.0000 </r>
       <r>    4.6724    1.0000 </r>
       <r>   11.8135   -0.0409 </r>
       <r>   15.9234    0.0000 </r>
       <r>   18.7030    0.0000 </r>
       <r>   24.8378    0.0000 </r>
       <r>   26.9781    0.0000 </r>
       <r>   30.5381    0.0000 </r>
      </set>
      <set comment="kpoint 42">
       <r>    1.1427    1.0000 </r>
       <r>    6.6833    1.0000 </r>
       <r>   11.4790   -0.0534 </r>
       <r>   16.6595    0.0000 </r>
       <r>   19.5206    0.0000 </r>
       <r>   24.5583    0.0000 </r>
       <r>   26.7424    0.0000 </r>
       <r>   29.0125    0.0000 </r>
      </set>
      <set comment="kpoint 43">
       <r>   -0.2196    1.0000 </r>
       <r>    8.9180    1.0230 </r>
       <r>   11.3932   -0.0191 </r>
       <r>   17.5781    0.0000 </r>
       <r>   20.5581    0.0000 </r>
       <r>   24.4913    0.0000 </r>
       <r>   26.3186    0.0000 </r>
       <r>   26.7546    0.0000 </r>
      </set>
      <set comment="kpoint 44">
       <r>   -1.3449    1.0000 </r>
       <r>   11.0678   -0.0667 </r>
       <r>   11.8160    0.0000 </r>
       <r>   18.6316    0.0000 </r>
       <r>   21.7733    0.0000 </r>
       <r>   24.6588    0.0000 </r>
       <r>   24.7713    0.0000 </r>
       <r>   25.6409    0.0000 </r>
      </set>
      <set comment="kpoint 45">
       <r>   -1.6776    1.0000 </r>
       <r>   14.7958    0.0000 </r>
       <r>   14.7959    0.0000 </r>
       <r>   14.8945    0.0000 </r>
       <r>   16.3777    0.0000 </r>
       <r>   18.6864    0.0000 </r>
       <r>   30.5977    0.0000 </r>
       <r>   30.5980    0.0000 </r>
      </set>
      <set comment="kpoint 46">
       <r>   -0.8832    1.0000 </r>
       <r>   12.7935    0.0000 </r>
       <r>   13.6089    0.0000 </r>
       <r>   14.3863    0.0000 </r>
       <r>   16.6560    0.0000 </r>
       <r>   18.8392    0.0000 </r>
       <r>   30.1822    0.0000 </r>
       <r>   31.2831    0.0000 </r>
      </set>
      <set comment="kpoint 47">
       <r>    0.1568    1.0000 </r>
       <r>   10.4186    0.2094 </r>
       <r>   12.2873    0.0000 </r>
       <r>   14.1979    0.0000 </r>
       <r>   16.7292    0.0000 </r>
       <r>   20.4279    0.0000 </r>
       <r>   29.3023    0.0000 </r>
       <r>   31.3184    0.0000 </r>
      </set>
      <set comment="kpoint 48">
       <r>    1.4363    1.0000 </r>
       <r>    8.1362    1.0450 </r>
       <r>   11.1718   -0.0420 </r>
       <r>   14.2304    0.0000 </r>
       <r>   16.8211    0.0000 </r>
       <r>   22.5300    0.0000 </r>
       <r>   28.4150    0.0000 </r>
       <r>   30.9647    0.0000 </r>
      </set>
      <set comment="kpoint 49">
       <r>    2.9380    1.0000 </r>
       <r>    6.0474    1.0000 </r>
       <r>   10.2798    0.2704 </r>
       <r>   14.4837    0.0000 </r>
       <r>   17.1166    0.0000 </r>
       <r>   24.8370    0.0000 </r>
       <r>   27.6611    0.0000 </r>
       <r>   30.4138    0.0000 </r>
      </set>
      <set comment="kpoint 50">
       <r>    3.9712    1.0000 </r>
       <r>    4.8619    1.0000 </r>
       <r>    9.6229    0.6403 </r>
       <r>   14.9550    0.0000 </r>
       <r>   17.6463    0.0000 </r>
       <r>   27.0822    0.0000 </r>
       <r>   27.0928    0.0000 </r>
       <r>   29.8281    0.0000 </r>
      </set>
      <set comment="kpoint 51">
       <r>    2.4126    1.0000 </r>
       <r>    6.6922    1.0000 </r>
       <r>    9.2218    0.8525 </r>
       <r>   15.6385    0.0000 </r>
       <r>   18.4060    0.0000 </r>
       <r>   26.7001    0.0000 </r>
       <r>   28.3661    0.0000 </r>
       <r>   29.0917    0.0000 </r>
      </set>
      <set comment="kpoint 52">
       <r>    0.9804    1.0000 </r>
       <r>    8.5312    1.0000 </r>
       <r>    9.3644    0.6239 </r>
       <r>   16.5235    0.0000 </r>
       <r>   19.3856    0.0000 </r>
       <r>   26.3074    0.0000 </r>
       <r>   27.0243    0.0000 </r>
       <r>   27.6445    0.0000 </r>
      </set>
      <set comment="kpoint 53">
       <r>   -0.1747    1.0000 </r>
       <r>   11.8872   -0.0329 </r>
       <r>   13.9038    0.0000 </r>
       <r>   13.9039    0.0000 </r>
       <r>   15.3843    0.0000 </r>
       <r>   17.5838    0.0000 </r>
       <r>   32.2022    0.0000 </r>
       <r>   32.7116    0.0000 </r>
      </set>
      <set comment="kpoint 54">
       <r>    0.7790    1.0000 </r>
       <r>   10.4562    0.1911 </r>
       <r>   12.1658    0.0000 </r>
       <r>   13.6424    0.0000 </r>
       <r>   15.8139    0.0000 </r>
       <r>   18.0295    0.0000 </r>
       <r>   31.6906    0.0000 </r>
       <r>   33.2818    0.0000 </r>
      </set>
      <set comment="kpoint 55">
       <r>    1.9724    1.0000 </r>
       <r>    9.1549    1.0100 </r>
       <r>    9.9942    0.2431 </r>
       <r>   13.6030    0.0000 </r>
       <r>   16.0538    0.0000 </r>
       <r>   19.8408    0.0000 </r>
       <r>   30.8870    0.0000 </r>
       <r>   33.0862    0.0000 </r>
      </set>
      <set comment="kpoint 56">
       <r>    3.3926    1.0000 </r>
       <r>    7.5469    1.0000 </r>
       <r>    8.4814    1.0787 </r>
       <r>   13.7852    0.0000 </r>
       <r>   16.3234    0.0000 </r>
       <r>   22.1255    0.0000 </r>
       <r>   30.1040    0.0000 </r>
       <r>   32.4008    0.0000 </r>
      </set>
      <set comment="kpoint 57">
       <r>    4.9451    1.0000 </r>
       <r>    5.7538    1.0000 </r>
       <r>    7.6817    1.0113 </r>
       <r>   14.1885    0.0000 </r>
       <r>   16.7943    0.0000 </r>
       <r>   24.6354    0.0000 </r>
       <r>   29.4495    0.0000 </r>
       <r>   31.4276    0.0000 </r>
      </set>
      <set comment="kpoint 58">
       <r>    3.9051    1.0000 </r>
       <r>    6.6168    1.0000 </r>
       <r>    7.4926    1.0000 </r>
       <r>   14.8088    0.0000 </r>
       <r>   17.4892    0.0000 </r>
       <r>   27.1478    0.0000 </r>
       <r>   28.6499    0.0000 </r>
       <r>   29.8072    0.0000 </r>
      </set>
      <set comment="kpoint 59">
       <r>    1.6457    1.0000 </r>
       <r>    8.9632    0.9515 </r>
       <r>   13.3079    0.0000 </r>
       <r>   13.3080    0.0000 </r>
       <r>   14.7181    0.0000 </r>
       <r>   16.9177    0.0000 </r>
       <r>   33.4839    0.0000 </r>
       <r>   34.6629    0.0000 </r>
      </set>
      <set comment="kpoint 60">
       <r>    2.7484    1.0000 </r>
       <r>    7.6610    1.0148 </r>
       <r>   11.6775   -0.0732 </r>
       <r>   13.1951    0.0000 </r>
       <r>   15.3179    0.0000 </r>
       <r>   17.5599    0.0000 </r>
       <r>   33.2135    0.0000 </r>
       <r>   34.9620    0.0000 </r>
      </set>
      <set comment="kpoint 61">
       <r>    4.0691    1.0000 </r>
       <r>    6.5936    1.0000 </r>
       <r>    9.5723    0.7333 </r>
       <r>   13.3051    0.0000 </r>
       <r>   15.7213    0.0000 </r>
       <r>   19.5442    0.0000 </r>
       <r>   32.4973    0.0000 </r>
       <r>   34.3145    0.0000 </r>
      </set>
      <set comment="kpoint 62">
       <r>    5.3363    1.0000 </r>
       <r>    5.9843    1.0000 </r>
       <r>    7.6565    1.0000 </r>
       <r>   13.6368    0.0000 </r>
       <r>   16.1634    0.0000 </r>
       <r>   21.9992    0.0000 </r>
       <r>   31.4458    0.0000 </r>
       <r>   32.9390    0.0000 </r>
      </set>
      <set comment="kpoint 63">
       <r>    3.7481    1.0000 </r>
       <r>    6.2916    1.0000 </r>
       <r>   13.0089    0.0000 </r>
       <r>   13.0090    0.0000 </r>
       <r>   14.3823    0.0000 </r>
       <r>   16.5935    0.0000 </r>
       <r>   34.4483    0.0000 </r>
       <r>   36.0157    0.0000 </r>
      </set>
      <set comment="kpoint 64">
       <r>    4.6953    1.0000 </r>
       <r>    5.4307    1.0000 </r>
       <r>   11.5184   -0.0706 </r>
       <r>   13.0456    0.0000 </r>
       <r>   15.1527    0.0000 </r>
       <r>   17.4061    0.0000 </r>
       <r>   34.0920    0.0000 </r>
       <r>   35.7137    0.0000 </r>
      </set>
      <set comment="kpoint 65">
       <r>   -3.5305    1.0000 </r>
       <r>   16.0042    0.0000 </r>
       <r>   16.3365    0.0000 </r>
       <r>   20.0721    0.0000 </r>
       <r>   20.9487    0.0000 </r>
       <r>   23.9108    0.0000 </r>
       <r>   25.1562    0.0000 </r>
       <r>   25.5125    0.0000 </r>
      </set>
      <set comment="kpoint 66">
       <r>   -2.8976    1.0000 </r>
       <r>   13.4256    0.0000 </r>
       <r>   15.6385    0.0000 </r>
       <r>   19.4751    0.0000 </r>
       <r>   21.3719    0.0000 </r>
       <r>   23.3905    0.0000 </r>
       <r>   25.3999    0.0000 </r>
       <r>   25.6020    0.0000 </r>
      </set>
      <set comment="kpoint 67">
       <r>   -2.0150    1.0000 </r>
       <r>   10.7957    0.0481 </r>
       <r>   15.2808    0.0000 </r>
       <r>   18.6375    0.0000 </r>
       <r>   20.9442    0.0000 </r>
       <r>   23.8993    0.0000 </r>
       <r>   24.8565    0.0000 </r>
       <r>   26.0286    0.0000 </r>
      </set>
      <set comment="kpoint 68">
       <r>   -0.8864    1.0000 </r>
       <r>    8.3261    1.0728 </r>
       <r>   15.1486    0.0000 </r>
       <r>   17.7433    0.0000 </r>
       <r>   20.6077    0.0000 </r>
       <r>   23.2018    0.0000 </r>
       <r>   25.0467    0.0000 </r>
       <r>   27.4287    0.0000 </r>
      </set>
      <set comment="kpoint 69">
       <r>    0.4804    1.0000 </r>
       <r>    6.0557    1.0000 </r>
       <r>   15.2231    0.0000 </r>
       <r>   16.9189    0.0000 </r>
       <r>   20.5412    0.0000 </r>
       <r>   22.3520    0.0000 </r>
       <r>   25.2012    0.0000 </r>
       <r>   28.7921    0.0000 </r>
      </set>
      <set comment="kpoint 70">
       <r>    2.0487    1.0000 </r>
       <r>    4.0323    1.0000 </r>
       <r>   15.4431    0.0000 </r>
       <r>   16.3054    0.0000 </r>
       <r>   20.6460    0.0000 </r>
       <r>   21.7782    0.0000 </r>
       <r>   25.2867    0.0000 </r>
       <r>   28.5308    0.0000 </r>
      </set>
      <set comment="kpoint 71">
       <r>   -2.6867    1.0000 </r>
       <r>   14.4706    0.0000 </r>
       <r>   14.8832    0.0000 </r>
       <r>   18.1550    0.0000 </r>
       <r>   19.4856    0.0000 </r>
       <r>   21.3101    0.0000 </r>
       <r>   27.1043    0.0000 </r>
       <r>   27.7243    0.0000 </r>
      </set>
      <set comment="kpoint 72">
       <r>   -1.8885    1.0000 </r>
       <r>   12.0338   -0.0179 </r>
       <r>   14.2898    0.0000 </r>
       <r>   17.0558    0.0000 </r>
       <r>   19.6908    0.0000 </r>
       <r>   21.9363    0.0000 </r>
       <r>   26.3999    0.0000 </r>
       <r>   28.1812    0.0000 </r>
      </set>
      <set comment="kpoint 73">
       <r>   -0.8433    1.0000 </r>
       <r>    9.5358    0.6883 </r>
       <r>   14.0644    0.0000 </r>
       <r>   15.9164    0.0000 </r>
       <r>   19.5292    0.0000 </r>
       <r>   23.5485    0.0000 </r>
       <r>   25.5109    0.0000 </r>
       <r>   28.3442    0.0000 </r>
      </set>
      <set comment="kpoint 74">
       <r>    0.4426    1.0000 </r>
       <r>    7.2084    1.0000 </r>
       <r>   14.0044    0.0000 </r>
       <r>   14.9727    0.0000 </r>
       <r>   19.5366    0.0000 </r>
       <r>   24.1315    0.0000 </r>
       <r>   25.8171    0.0000 </r>
       <r>   28.5693    0.0000 </r>
      </set>
      <set comment="kpoint 75">
       <r>    1.9524    1.0000 </r>
       <r>    5.0981    1.0000 </r>
       <r>   13.7547    0.0000 </r>
       <r>   14.6352    0.0000 </r>
       <r>   19.7714    0.0000 </r>
       <r>   23.4956    0.0000 </r>
       <r>   26.9337    0.0000 </r>
       <r>   29.3898    0.0000 </r>
      </set>
      <set comment="kpoint 76">
       <r>    2.9815    1.0000 </r>
       <r>    3.9175    1.0000 </r>
       <r>   13.2343    0.0000 </r>
       <r>   14.9976    0.0000 </r>
       <r>   20.2199    0.0000 </r>
       <r>   22.9443    0.0000 </r>
       <r>   27.1249    0.0000 </r>
       <r>   30.5115    0.0000 </r>
      </set>
      <set comment="kpoint 77">
       <r>    1.4265    1.0000 </r>
       <r>    5.7728    1.0000 </r>
       <r>   12.8504    0.0000 </r>
       <r>   15.6633    0.0000 </r>
       <r>   20.8478    0.0000 </r>
       <r>   22.6381    0.0000 </r>
       <r>   26.8731    0.0000 </r>
       <r>   29.3439    0.0000 </r>
      </set>
      <set comment="kpoint 78">
       <r>   -0.0128    1.0000 </r>
       <r>    7.9575    1.0263 </r>
       <r>   12.6791    0.0000 </r>
       <r>   16.5464    0.0000 </r>
       <r>   21.5411    0.0000 </r>
       <r>   22.6642    0.0000 </r>
       <r>   26.0820    0.0000 </r>
       <r>   27.8116    0.0000 </r>
      </set>
      <set comment="kpoint 79">
       <r>   -1.2193    1.0000 </r>
       <r>   10.3349    0.2646 </r>
       <r>   12.7467    0.0000 </r>
       <r>   17.6066    0.0000 </r>
       <r>   22.0692    0.0000 </r>
       <r>   23.0993    0.0000 </r>
       <r>   24.6977    0.0000 </r>
       <r>   27.1465    0.0000 </r>
      </set>
      <set comment="kpoint 80">
       <r>   -2.1825    1.0000 </r>
       <r>   12.6370    0.0000 </r>
       <r>   13.2817    0.0000 </r>
       <r>   18.7435    0.0000 </r>
       <r>   22.1686    0.0000 </r>
       <r>   22.8214    0.0000 </r>
       <r>   24.6795    0.0000 </r>
       <r>   26.5384    0.0000 </r>
      </set>
      <set comment="kpoint 81">
       <r>   -1.5106    1.0000 </r>
       <r>   13.2340    0.0000 </r>
       <r>   13.6370    0.0000 </r>
       <r>   15.3356    0.0000 </r>
       <r>   18.2516    0.0000 </r>
       <r>   19.7632    0.0000 </r>
       <r>   28.5065    0.0000 </r>
       <r>   30.2678    0.0000 </r>
      </set>
      <set comment="kpoint 82">
       <r>   -0.5502    1.0000 </r>
       <r>   10.9312    0.0129 </r>
       <r>   13.1170    0.0000 </r>
       <r>   14.1146    0.0000 </r>
       <r>   18.5450    0.0000 </r>
       <r>   20.9232    0.0000 </r>
       <r>   27.6535    0.0000 </r>
       <r>   30.7220    0.0000 </r>
      </set>
      <set comment="kpoint 83">
       <r>    0.6524    1.0000 </r>
       <r>    8.5782    1.0499 </r>
       <r>   12.5718   -0.0006 </r>
       <r>   13.4459    0.0000 </r>
       <r>   18.5845    0.0000 </r>
       <r>   22.8786    0.0000 </r>
       <r>   26.7569    0.0000 </r>
       <r>   30.6577    0.0000 </r>
      </set>
      <set comment="kpoint 84">
       <r>    2.0866    1.0000 </r>
       <r>    6.4062    1.0000 </r>
       <r>   11.7363   -0.0446 </r>
       <r>   13.5081    0.0000 </r>
       <r>   18.7858    0.0000 </r>
       <r>   24.8222    0.0000 </r>
       <r>   26.1878    0.0000 </r>
       <r>   30.3122    0.0000 </r>
      </set>
      <set comment="kpoint 85">
       <r>    3.6425    1.0000 </r>
       <r>    4.5517    1.0000 </r>
       <r>   11.0328   -0.0136 </r>
       <r>   13.8927    0.0000 </r>
       <r>   19.2078    0.0000 </r>
       <r>   25.0026    0.0000 </r>
       <r>   27.5300    0.0000 </r>
       <r>   29.7053    0.0000 </r>
      </set>
      <set comment="kpoint 86">
       <r>    2.6093    1.0000 </r>
       <r>    5.7287    1.0000 </r>
       <r>   10.5455    0.1320 </r>
       <r>   14.5181    0.0000 </r>
       <r>   19.8415    0.0000 </r>
       <r>   24.6186    0.0000 </r>
       <r>   28.2438    0.0000 </r>
       <r>   29.1652    0.0000 </r>
      </set>
      <set comment="kpoint 87">
       <r>    1.1039    1.0000 </r>
       <r>    7.8055    1.0000 </r>
       <r>   10.3069    0.1468 </r>
       <r>   15.3659    0.0000 </r>
       <r>   20.6789    0.0000 </r>
       <r>   24.3743    0.0000 </r>
       <r>   26.4088    0.0000 </r>
       <r>   29.1233    0.0000 </r>
      </set>
      <set comment="kpoint 88">
       <r>   -0.1775    1.0000 </r>
       <r>    9.8025    0.7845 </r>
       <r>   10.5929   -0.0045 </r>
       <r>   16.4141    0.0000 </r>
       <r>   21.6731    0.0000 </r>
       <r>   24.0299    0.0000 </r>
       <r>   24.7290    0.0000 </r>
       <r>   28.3603    0.0000 </r>
      </set>
      <set comment="kpoint 89">
       <r>   -0.0091    1.0000 </r>
       <r>   11.9097   -0.0503 </r>
       <r>   12.2987    0.0000 </r>
       <r>   13.0713    0.0000 </r>
       <r>   17.2951    0.0000 </r>
       <r>   18.7858    0.0000 </r>
       <r>   29.9517    0.0000 </r>
       <r>   32.5570    0.0000 </r>
      </set>
      <set comment="kpoint 90">
       <r>    1.1086    1.0000 </r>
       <r>   10.0585    0.5561 </r>
       <r>   10.8948   -0.0621 </r>
       <r>   12.6183    0.0000 </r>
       <r>   17.7431    0.0000 </r>
       <r>   20.2006    0.0000 </r>
       <r>   29.1243    0.0000 </r>
       <r>   32.8412    0.0000 </r>
      </set>
      <set comment="kpoint 91">
       <r>    2.4603    1.0000 </r>
       <r>    7.9107    1.0016 </r>
       <r>    9.8214    0.5046 </r>
       <r>   12.6833    0.0000 </r>
       <r>   17.9544    0.0000 </r>
       <r>   22.3596    0.0000 </r>
       <r>   28.3102    0.0000 </r>
       <r>   32.2445    0.0000 </r>
      </set>
      <set comment="kpoint 92">
       <r>    4.0154    1.0000 </r>
       <r>    5.9289    1.0000 </r>
       <r>    8.9987    0.9540 </r>
       <r>   13.0114    0.0000 </r>
       <r>   18.3325    0.0000 </r>
       <r>   24.7354    0.0000 </r>
       <r>   27.6806    0.0000 </r>
       <r>   30.9532    0.0000 </r>
      </set>
      <set comment="kpoint 93">
       <r>    4.0145    1.0000 </r>
       <r>    5.9100    1.0000 </r>
       <r>    8.4353    1.0567 </r>
       <r>   13.5755    0.0000 </r>
       <r>   18.9200    0.0000 </r>
       <r>   26.5759    0.0000 </r>
       <r>   27.7020    0.0000 </r>
       <r>   28.9924    0.0000 </r>
      </set>
      <set comment="kpoint 94">
       <r>    2.4560    1.0000 </r>
       <r>    7.5750    1.0000 </r>
       <r>    8.4206    1.1262 </r>
       <r>   14.3638    0.0000 </r>
       <r>   19.7103    0.0000 </r>
       <r>   26.4906    0.0000 </r>
       <r>   26.6187    0.0000 </r>
       <r>   29.6861    0.0000 </r>
      </set>
      <set comment="kpoint 95">
       <r>    1.8090    1.0000 </r>
       <r>    9.1021    0.9616 </r>
       <r>   11.6734   -0.0565 </r>
       <r>   12.3255    0.0000 </r>
       <r>   16.6600    0.0000 </r>
       <r>   18.1665    0.0000 </r>
       <r>   31.5328    0.0000 </r>
       <r>   34.5795    0.0000 </r>
      </set>
      <set comment="kpoint 96">
       <r>    3.0723    1.0000 </r>
       <r>    7.9424    1.0022 </r>
       <r>    9.7573    0.6532 </r>
       <r>   12.1140    0.0000 </r>
       <r>   17.2659    0.0000 </r>
       <r>   19.7604    0.0000 </r>
       <r>   30.7986    0.0000 </r>
       <r>   33.7754    0.0000 </r>
      </set>
      <set comment="kpoint 97">
       <r>    4.5446    1.0000 </r>
       <r>    6.9345    1.0000 </r>
       <r>    7.8366    1.0000 </r>
       <r>   12.3604    0.0000 </r>
       <r>   17.6439    0.0000 </r>
       <r>   22.0972    0.0000 </r>
       <r>   30.0885    0.0000 </r>
       <r>   31.8538    0.0000 </r>
      </set>
      <set comment="kpoint 98">
       <r>    5.5694    1.0000 </r>
       <r>    5.9767    1.0000 </r>
       <r>    6.9567    1.0000 </r>
       <r>   12.8527    0.0000 </r>
       <r>   18.1814    0.0000 </r>
       <r>   24.6477    0.0000 </r>
       <r>   29.4949    0.0000 </r>
       <r>   29.5167    0.0000 </r>
      </set>
      <set comment="kpoint 99">
       <r>    3.9091    1.0000 </r>
       <r>    6.4462    1.0000 </r>
       <r>   11.3595   -0.1531 </r>
       <r>   12.0015    0.0000 </r>
       <r>   16.3418    0.0000 </r>
       <r>   17.8636    0.0000 </r>
       <r>   33.1277    0.0000 </r>
       <r>   34.7052    0.0000 </r>
      </set>
      <set comment="kpoint 100">
       <r>    5.0157    1.0000 </r>
       <r>    5.7374    1.0000 </r>
       <r>    9.5791    0.8063 </r>
       <r>   11.9541    0.0000 </r>
       <r>   17.1095    0.0000 </r>
       <r>   19.6178    0.0000 </r>
       <r>   32.3426    0.0000 </r>
       <r>   32.8034    0.0000 </r>
      </set>
      <set comment="kpoint 101">
       <r>   -1.0097    1.0000 </r>
       <r>   11.3812   -0.1178 </r>
       <r>   12.0620    0.0000 </r>
       <r>   15.8008    0.0000 </r>
       <r>   21.0064    0.0000 </r>
       <r>   21.8208    0.0000 </r>
       <r>   25.5214    0.0000 </r>
       <r>   29.4108    0.0000 </r>
      </set>
      <set comment="kpoint 102">
       <r>    0.1135    1.0000 </r>
       <r>    9.2274    0.9309 </r>
       <r>   11.6552   -0.0069 </r>
       <r>   14.6085    0.0000 </r>
       <r>   21.2292    0.0000 </r>
       <r>   23.1216    0.0000 </r>
       <r>   24.8036    0.0000 </r>
       <r>   29.9637    0.0000 </r>
      </set>
      <set comment="kpoint 103">
       <r>    1.4734    1.0000 </r>
       <r>    6.9989    1.0000 </r>
       <r>   11.7186   -0.0454 </r>
       <r>   13.6228    0.0000 </r>
       <r>   21.2910    0.0000 </r>
       <r>   23.2475    0.0000 </r>
       <r>   25.9557    0.0000 </r>
       <r>   30.0546    0.0000 </r>
      </set>
      <set comment="kpoint 104">
       <r>    3.0374    1.0000 </r>
       <r>    4.9913    1.0000 </r>
       <r>   11.9461   -0.0351 </r>
       <r>   12.9346    0.0000 </r>
       <r>   21.4219    0.0000 </r>
       <r>   22.7875    0.0000 </r>
       <r>   27.9447    0.0000 </r>
       <r>   29.5220    0.0000 </r>
      </set>
      <set comment="kpoint 105">
       <r>    0.4878    1.0000 </r>
       <r>   10.4334    0.3413 </r>
       <r>   11.0521   -0.0025 </r>
       <r>   12.7836    0.0000 </r>
       <r>   20.0827    0.0000 </r>
       <r>   21.0477    0.0000 </r>
       <r>   26.7719    0.0000 </r>
       <r>   32.1078    0.0000 </r>
      </set>
      <set comment="kpoint 106">
       <r>    1.7647    1.0000 </r>
       <r>    8.4233    1.0306 </r>
       <r>   10.7231    0.0117 </r>
       <r>   11.7548    0.0000 </r>
       <r>   20.5255    0.0000 </r>
       <r>   22.7412    0.0000 </r>
       <r>   25.9565    0.0000 </r>
       <r>   32.1664    0.0000 </r>
      </set>
      <set comment="kpoint 107">
       <r>    3.2645    1.0000 </r>
       <r>    6.3585    1.0000 </r>
       <r>   10.4173    0.2681 </r>
       <r>   11.4109   -0.0000 </r>
       <r>   20.8200    0.0000 </r>
       <r>   24.3491    0.0000 </r>
       <r>   25.9070    0.0000 </r>
       <r>   30.6553    0.0000 </r>
      </set>
      <set comment="kpoint 108">
       <r>    4.2994    1.0000 </r>
       <r>    5.1762    1.0000 </r>
       <r>    9.8771    0.5675 </r>
       <r>   11.7883   -0.0003 </r>
       <r>   21.2672    0.0000 </r>
       <r>   24.2199    0.0000 </r>
       <r>   27.5446    0.0000 </r>
       <r>   28.7822    0.0000 </r>
      </set>
      <set comment="kpoint 109">
       <r>    2.7410    1.0000 </r>
       <r>    7.0071    1.0000 </r>
       <r>    9.5031    0.7394 </r>
       <r>   12.4921   -0.0000 </r>
       <r>   21.8667    0.0000 </r>
       <r>   23.8692    0.0000 </r>
       <r>   26.0239    0.0000 </r>
       <r>   30.2261    0.0000 </r>
      </set>
      <set comment="kpoint 110">
       <r>    1.3117    1.0000 </r>
       <r>    8.8497    1.0044 </r>
       <r>    9.6409    0.4052 </r>
       <r>   13.4418    0.0000 </r>
       <r>   22.4585    0.0000 </r>
       <r>   23.1714    0.0000 </r>
       <r>   24.5710    0.0000 </r>
       <r>   31.4335    0.0000 </r>
      </set>
      <set comment="kpoint 111">
       <r>    2.2991    1.0000 </r>
       <r>    9.4323    0.9953 </r>
       <r>    9.8003    0.5359 </r>
       <r>   10.8377    0.0000 </r>
       <r>   19.4649    0.0000 </r>
       <r>   20.5130    0.0000 </r>
       <r>   28.3445    0.0000 </r>
       <r>   33.3864    0.0000 </r>
      </set>
      <set comment="kpoint 112">
       <r>    3.7166    1.0000 </r>
       <r>    7.8542    1.0000 </r>
       <r>    8.7034    1.0468 </r>
       <r>   10.5889   -0.0040 </r>
       <r>   20.0815    0.0000 </r>
       <r>   22.4068    0.0000 </r>
       <r>   27.5861    0.0000 </r>
       <r>   31.3748    0.0000 </r>
      </set>
      <set comment="kpoint 113">
       <r>    5.2696    1.0000 </r>
       <r>    6.0644    1.0000 </r>
       <r>    7.9625    1.0200 </r>
       <r>   10.9527   -0.0391 </r>
       <r>   20.5378    0.0000 </r>
       <r>   24.7212    0.0000 </r>
       <r>   26.9923    0.0000 </r>
       <r>   29.0468    0.0000 </r>
      </set>
      <set comment="kpoint 114">
       <r>    4.2298    1.0000 </r>
       <r>    6.9365    1.0000 </r>
       <r>    7.7788    1.0000 </r>
       <r>   11.5990   -0.0457 </r>
       <r>   21.1506    0.0000 </r>
       <r>   25.9571    0.0000 </r>
       <r>   26.0720    0.0000 </r>
       <r>   28.3701    0.0000 </r>
      </set>
      <set comment="kpoint 115">
       <r>    4.3899    1.0000 </r>
       <r>    6.8975    1.0000 </r>
       <r>    9.4822    0.9714 </r>
       <r>   10.3932    0.0092 </r>
       <r>   19.1423    0.0000 </r>
       <r>   20.2425    0.0000 </r>
       <r>   30.1295    0.0000 </r>
       <r>   31.9843    0.0000 </r>
      </set>
      <set comment="kpoint 116">
       <r>    5.6564    1.0000 </r>
       <r>    6.2981    1.0000 </r>
       <r>    7.9105    1.0000 </r>
       <r>   10.3941    0.0768 </r>
       <r>   19.9363    0.0000 </r>
       <r>   22.2854    0.0000 </r>
       <r>   29.2191    0.0000 </r>
       <r>   29.7331    0.0000 </r>
      </set>
      <set comment="kpoint 117">
       <r>    3.1105    1.0000 </r>
       <r>    8.2128    1.0000 </r>
       <r>    8.9126    1.0527 </r>
       <r>   10.6328   -0.0185 </r>
       <r>   22.5821    0.0000 </r>
       <r>   22.8368    0.0000 </r>
       <r>   25.2996    0.0000 </r>
       <r>   30.8648    0.0000 </r>
      </set>
      <set comment="kpoint 118">
       <r>    4.6615    1.0000 </r>
       <r>    6.5315    1.0000 </r>
       <r>    8.8583    1.0374 </r>
       <r>    9.9090    0.2713 </r>
       <r>   22.8423    0.0000 </r>
       <r>   24.0303    0.0000 </r>
       <r>   25.7292    0.0000 </r>
       <r>   28.6284    0.0000 </r>
      </set>
      <set comment="kpoint 119">
       <r>    5.1819    1.0000 </r>
       <r>    7.5370    1.0000 </r>
       <r>    7.8946    1.0000 </r>
       <r>    9.0519    0.9568 </r>
       <r>   22.2955    0.0000 </r>
       <r>   22.8148    0.0000 </r>
       <r>   26.8447    0.0000 </r>
       <r>   29.0304    0.0000 </r>
      </set>
      <set comment="kpoint 120">
       <r>    6.2114    1.0000 </r>
       <r>    6.6170    1.0000 </r>
       <r>    7.4070    1.0000 </r>
       <r>    9.1241    0.9407 </r>
       <r>   22.9410    0.0000 </r>
       <r>   24.7608    0.0000 </r>
       <r>   25.6802    0.0000 </r>
       <r>   27.4673    0.0000 </r>
      </set>
     </set>
    </set>
   </array>
  </eigenvalues>
  <separator name="orbital magnetization" >
   <v name="MAGDIPOLOUT">      0.00000000      0.00000000      0.00000000</v>
  </separator>
  <dos>
   <i name="efermi">      9.91285623 </i>
   <total>
    <array>
     <dimension dim="1">gridpoints</dimension>
     <dimension dim="2">spin</dimension>
     <field>energy</field>
     <field>total</field>
     <field>integrated</field>
     <set>
      <set comment="spin 1">
       <r>     0.0000     0.2284     0.6517 </r>
       <r>     0.0567     0.2298     0.6647 </r>
       <r>     0.1133     0.2313     0.6778 </r>
       <r>     0.1700     0.2328     0.6909 </r>
       <r>     0.2267     0.2344     0.7042 </r>
       <r>     0.2833     0.2359     0.7175 </r>
       <r>     0.3400     0.2375     0.7309 </r>
       <r>     0.3967     0.2390     0.7444 </r>
       <r>     0.4533     0.2406     0.7580 </r>
       <r>     0.5100     0.2422     0.7717 </r>
       <r>     0.5667     0.2438     0.7855 </r>
       <r>     0.6233     0.2455     0.7993 </r>
       <r>     0.6800     0.2472     0.8133 </r>
       <r>     0.7367     0.2490     0.8273 </r>
       <r>     0.7933     0.2507     0.8415 </r>
       <r>     0.8500     0.2525     0.8558 </r>
       <r>     0.9067     0.2542     0.8701 </r>
       <r>     0.9633     0.2560     0.8846 </r>
       <r>     1.0200     0.2578     0.8991 </r>
       <r>     1.0767     0.2593     0.9138 </r>
       <r>     1.1333     0.2606     0.9285 </r>
       <r>     1.1900     0.2622     0.9433 </r>
       <r>     1.2467     0.2638     0.9582 </r>
       <r>     1.3033     0.2654     0.9732 </r>
       <r>     1.3600     0.2671     0.9883 </r>
       <r>     1.4167     0.2690     1.0035 </r>
       <r>     1.4733     0.2711     1.0188 </r>
       <r>     1.5300     0.2734     1.0342 </r>
       <r>     1.5867     0.2759     1.0498 </r>
       <r>     1.6433     0.2786     1.0655 </r>
       <r>     1.7000     0.2816     1.0814 </r>
       <r>     1.7567     0.2863     1.0974 </r>
       <r>     1.8133     0.2912     1.1138 </r>
       <r>     1.8700     0.2957     1.1304 </r>
       <r>     1.9267     0.2998     1.1473 </r>
       <r>     1.9833     0.3035     1.1644 </r>
       <r>     2.0400     0.3075     1.1817 </r>
       <r>     2.0967     0.3287     1.1997 </r>
       <r>     2.1533     0.3417     1.2188 </r>
       <r>     2.2100     0.3426     1.2382 </r>
       <r>     2.2667     0.3313     1.2574 </r>
       <r>     2.3233     0.3107     1.2755 </r>
       <r>     2.3800     0.3051     1.2930 </r>
       <r>     2.4367     0.3000     1.3101 </r>
       <r>     2.4933     0.2955     1.3270 </r>
       <r>     2.5500     0.2917     1.3436 </r>
       <r>     2.6067     0.2886     1.3600 </r>
       <r>     2.6633     0.2888     1.3763 </r>
       <r>     2.7200     0.3204     1.3937 </r>
       <r>     2.7767     0.3035     1.4114 </r>
       <r>     2.8333     0.2903     1.4282 </r>
       <r>     2.8900     0.2807     1.4444 </r>
       <r>     2.9467     0.2747     1.4601 </r>
       <r>     3.0033     0.3277     1.4763 </r>
       <r>     3.0600     0.2753     1.4933 </r>
       <r>     3.1167     0.2688     1.5087 </r>
       <r>     3.1733     0.2630     1.5238 </r>
       <r>     3.2300     0.2578     1.5385 </r>
       <r>     3.2867     0.2549     1.5530 </r>
       <r>     3.3433     0.2610     1.5677 </r>
       <r>     3.4000     0.2665     1.5826 </r>
       <r>     3.4567     0.2715     1.5979 </r>
       <r>     3.5133     0.2761     1.6134 </r>
       <r>     3.5700     0.2801     1.6291 </r>
       <r>     3.6267     0.2836     1.6451 </r>
       <r>     3.6833     0.2875     1.6613 </r>
       <r>     3.7400     0.2951     1.6777 </r>
       <r>     3.7967     0.3078     1.6948 </r>
       <r>     3.8533     0.3233     1.7127 </r>
       <r>     3.9100     0.3418     1.7315 </r>
       <r>     3.9667     0.3972     1.7526 </r>
       <r>     4.0233     0.3435     1.7742 </r>
       <r>     4.0800     0.3253     1.7928 </r>
       <r>     4.1367     0.3248     1.8112 </r>
       <r>     4.1933     0.3258     1.8297 </r>
       <r>     4.2500     0.3281     1.8482 </r>
       <r>     4.3067     0.3314     1.8669 </r>
       <r>     4.3633     0.3371     1.8858 </r>
       <r>     4.4200     0.3426     1.9051 </r>
       <r>     4.4767     0.3473     1.9246 </r>
       <r>     4.5333     0.3501     1.9444 </r>
       <r>     4.5900     0.3575     1.9644 </r>
       <r>     4.6467     0.3744     1.9851 </r>
       <r>     4.7033     0.3735     2.0066 </r>
       <r>     4.7600     0.3572     2.0273 </r>
       <r>     4.8167     0.3466     2.0472 </r>
       <r>     4.8733     0.3414     2.0666 </r>
       <r>     4.9300     0.3376     2.0859 </r>
       <r>     4.9867     0.3347     2.1049 </r>
       <r>     5.0433     0.3357     2.1239 </r>
       <r>     5.1000     0.3299     2.1428 </r>
       <r>     5.1567     0.3152     2.1612 </r>
       <r>     5.2133     0.3067     2.1786 </r>
       <r>     5.2700     0.3047     2.1960 </r>
       <r>     5.3267     0.3060     2.2133 </r>
       <r>     5.3833     0.3039     2.2306 </r>
       <r>     5.4400     0.3001     2.2477 </r>
       <r>     5.4967     0.2959     2.2646 </r>
       <r>     5.5533     0.2901     2.2812 </r>
       <r>     5.6100     0.2844     2.2975 </r>
       <r>     5.6667     0.2846     2.3135 </r>
       <r>     5.7233     0.2901     2.3298 </r>
       <r>     5.7800     0.3083     2.3466 </r>
       <r>     5.8367     0.3453     2.3651 </r>
       <r>     5.8933     0.3908     2.3859 </r>
       <r>     5.9500     0.4481     2.4098 </r>
       <r>     6.0067     0.4098     2.4342 </r>
       <r>     6.0633     0.4156     2.4573 </r>
       <r>     6.1200     0.4142     2.4808 </r>
       <r>     6.1767     0.4124     2.5043 </r>
       <r>     6.2333     0.4042     2.5280 </r>
       <r>     6.2900     0.4034     2.5509 </r>
       <r>     6.3467     0.4048     2.5738 </r>
       <r>     6.4033     0.4058     2.5968 </r>
       <r>     6.4600     0.4070     2.6198 </r>
       <r>     6.5167     0.4097     2.6429 </r>
       <r>     6.5733     0.4520     2.6673 </r>
       <r>     6.6300     0.4160     2.6925 </r>
       <r>     6.6867     0.4048     2.7157 </r>
       <r>     6.7433     0.3887     2.7383 </r>
       <r>     6.8000     0.3725     2.7598 </r>
       <r>     6.8567     0.3574     2.7805 </r>
       <r>     6.9133     0.3439     2.8003 </r>
       <r>     6.9700     0.3392     2.8196 </r>
       <r>     7.0267     0.3443     2.8391 </r>
       <r>     7.0833     0.3370     2.8584 </r>
       <r>     7.1400     0.3316     2.8773 </r>
       <r>     7.1967     0.3281     2.8960 </r>
       <r>     7.2533     0.3266     2.9145 </r>
       <r>     7.3100     0.3270     2.9330 </r>
       <r>     7.3667     0.3293     2.9516 </r>
       <r>     7.4233     0.3485     2.9712 </r>
       <r>     7.4800     0.3572     2.9912 </r>
       <r>     7.5367     0.3691     3.0118 </r>
       <r>     7.5933     0.3834     3.0331 </r>
       <r>     7.6500     0.3991     3.0553 </r>
       <r>     7.7067     0.4065     3.0780 </r>
       <r>     7.7633     0.4276     3.1016 </r>
       <r>     7.8200     0.4469     3.1265 </r>
       <r>     7.8767     0.4530     3.1520 </r>
       <r>     7.9333     0.4289     3.1783 </r>
       <r>     7.9900     0.4036     3.2016 </r>
       <r>     8.0467     0.4016     3.2244 </r>
       <r>     8.1033     0.4007     3.2472 </r>
       <r>     8.1600     0.4009     3.2699 </r>
       <r>     8.2167     0.4024     3.2926 </r>
       <r>     8.2733     0.4059     3.3155 </r>
       <r>     8.3300     0.4117     3.3387 </r>
       <r>     8.3867     0.4200     3.3622 </r>
       <r>     8.4433     0.4070     3.3860 </r>
       <r>     8.5000     0.4034     3.4090 </r>
       <r>     8.5567     0.4010     3.4318 </r>
       <r>     8.6133     0.3998     3.4544 </r>
       <r>     8.6700     0.3997     3.4771 </r>
       <r>     8.7267     0.3999     3.4998 </r>
       <r>     8.7833     0.3992     3.5224 </r>
       <r>     8.8400     0.3985     3.5450 </r>
       <r>     8.8967     0.3864     3.5673 </r>
       <r>     8.9533     0.3863     3.5892 </r>
       <r>     9.0100     0.3877     3.6111 </r>
       <r>     9.0667     0.4129     3.6333 </r>
       <r>     9.1233     0.5139     3.6595 </r>
       <r>     9.1800     0.4227     3.6839 </r>
       <r>     9.2367     0.4270     3.7081 </r>
       <r>     9.2933     0.4251     3.7322 </r>
       <r>     9.3500     0.4258     3.7563 </r>
       <r>     9.4067     0.4288     3.7805 </r>
       <r>     9.4633     0.4326     3.8049 </r>
       <r>     9.5200     0.4487     3.8299 </r>
       <r>     9.5767     0.4302     3.8549 </r>
       <r>     9.6333     0.4303     3.8792 </r>
       <r>     9.6900     0.4359     3.9038 </r>
       <r>     9.7467     0.4426     3.9287 </r>
       <r>     9.8033     0.4251     3.9532 </r>
       <r>     9.8600     0.4274     3.9774 </r>
       <r>     9.9167     0.4294     4.0016 </r>
       <r>     9.9733     0.4316     4.0260 </r>
       <r>    10.0300     0.4340     4.0506 </r>
       <r>    10.0867     0.4362     4.0752 </r>
       <r>    10.1433     0.4385     4.1000 </r>
       <r>    10.2000     0.4416     4.1249 </r>
       <r>    10.2567     0.4454     4.1501 </r>
       <r>    10.3133     0.4493     4.1754 </r>
       <r>    10.3700     0.4471     4.2008 </r>
       <r>    10.4267     0.4440     4.2273 </r>
       <r>    10.4833     0.4453     4.2524 </r>
       <r>    10.5400     0.4507     4.2778 </r>
       <r>    10.5967     0.4658     4.3036 </r>
       <r>    10.6533     0.4748     4.3305 </r>
       <r>    10.7100     0.4690     4.3573 </r>
       <r>    10.7667     0.4639     4.3837 </r>
       <r>    10.8233     0.4614     4.4099 </r>
       <r>    10.8800     0.4615     4.4360 </r>
       <r>    10.9367     0.4611     4.4622 </r>
       <r>    10.9933     0.4584     4.4882 </r>
       <r>    11.0500     0.4574     4.5142 </r>
       <r>    11.1067     0.4577     4.5401 </r>
       <r>    11.1633     0.4586     4.5661 </r>
       <r>    11.2200     0.4601     4.5921 </r>
       <r>    11.2767     0.4623     4.6182 </r>
       <r>    11.3333     0.4650     4.6445 </r>
       <r>    11.3900     0.4744     4.6710 </r>
       <r>    11.4467     0.4817     4.6982 </r>
       <r>    11.5033     0.4818     4.7255 </r>
       <r>    11.5600     0.4865     4.7529 </r>
       <r>    11.6167     0.4957     4.7807 </r>
       <r>    11.6733     0.5050     4.8090 </r>
       <r>    11.7300     0.4884     4.8367 </r>
       <r>    11.7867     0.4884     4.8644 </r>
       <r>    11.8433     0.4888     4.8921 </r>
       <r>    11.9000     0.4904     4.9198 </r>
       <r>    11.9567     0.5006     4.9477 </r>
       <r>    12.0133     0.5006     4.9770 </r>
       <r>    12.0700     0.5130     5.0056 </r>
       <r>    12.1267     0.5284     5.0353 </r>
       <r>    12.1833     0.5216     5.0650 </r>
       <r>    12.2400     0.5139     5.0944 </r>
       <r>    12.2967     0.5128     5.1234 </r>
       <r>    12.3533     0.5161     5.1526 </r>
       <r>    12.4100     0.5210     5.1819 </r>
       <r>    12.4667     0.5271     5.2116 </r>
       <r>    12.5233     0.5346     5.2417 </r>
       <r>    12.5800     0.5434     5.2722 </r>
       <r>    12.6367     0.5545     5.3033 </r>
       <r>    12.6933     0.5661     5.3351 </r>
       <r>    12.7500     0.5748     5.3674 </r>
       <r>    12.8067     0.5785     5.4001 </r>
       <r>    12.8633     0.5820     5.4330 </r>
       <r>    12.9200     0.5866     5.4661 </r>
       <r>    12.9767     0.5923     5.4995 </r>
       <r>    13.0333     0.6384     5.5341 </r>
       <r>    13.0900     0.5935     5.5680 </r>
       <r>    13.1467     0.5983     5.6017 </r>
       <r>    13.2033     0.6000     5.6358 </r>
       <r>    13.2600     0.5764     5.6691 </r>
       <r>    13.3167     0.5672     5.7014 </r>
       <r>    13.3733     0.5642     5.7335 </r>
       <r>    13.4300     0.5620     5.7654 </r>
       <r>    13.4867     0.5595     5.7971 </r>
       <r>    13.5433     0.5587     5.8288 </r>
       <r>    13.6000     0.5581     5.8605 </r>
       <r>    13.6567     0.5569     5.8921 </r>
       <r>    13.7133     0.5485     5.9234 </r>
       <r>    13.7700     0.5415     5.9543 </r>
       <r>    13.8267     0.5360     5.9848 </r>
       <r>    13.8833     0.5318     6.0151 </r>
       <r>    13.9400     0.5285     6.0451 </r>
       <r>    13.9967     0.5236     6.0749 </r>
       <r>    14.0533     0.5186     6.1044 </r>
       <r>    14.1100     0.5132     6.1337 </r>
       <r>    14.1667     0.5089     6.1626 </r>
       <r>    14.2233     0.5058     6.1914 </r>
       <r>    14.2800     0.5034     6.2200 </r>
       <r>    14.3367     0.4994     6.2484 </r>
       <r>    14.3933     0.4952     6.2766 </r>
       <r>    14.4500     0.4911     6.3045 </r>
       <r>    14.5067     0.4874     6.3322 </r>
       <r>    14.5633     0.4840     6.3598 </r>
       <r>    14.6200     0.4808     6.3871 </r>
       <r>    14.6767     0.4779     6.4142 </r>
       <r>    14.7333     0.4754     6.4413 </r>
       <r>    14.7900     0.4733     6.4681 </r>
       <r>    14.8467     0.4715     6.4949 </r>
       <r>    14.9033     0.4700     6.5216 </r>
       <r>    14.9600     0.4690     6.5482 </r>
       <r>    15.0167     0.4710     6.5748 </r>
       <r>    15.0733     0.4719     6.6015 </r>
       <r>    15.1300     0.4716     6.6283 </r>
       <r>    15.1867     0.4716     6.6550 </r>
       <r>    15.2433     0.4724     6.6817 </r>
       <r>    15.3000     0.4735     6.7085 </r>
       <r>    15.3567     0.4742     6.7354 </r>
       <r>    15.4133     0.4753     6.7623 </r>
       <r>    15.4700     0.4744     6.7892 </r>
       <r>    15.5267     0.4729     6.8160 </r>
       <r>    15.5833     0.4717     6.8428 </r>
       <r>    15.6400     0.4707     6.8695 </r>
       <r>    15.6967     0.4679     6.8961 </r>
       <r>    15.7533     0.4656     6.9226 </r>
       <r>    15.8100     0.4638     6.9489 </r>
       <r>    15.8667     0.4626     6.9751 </r>
       <r>    15.9233     0.4616     7.0013 </r>
       <r>    15.9800     0.4608     7.0274 </r>
       <r>    16.0367     0.4600     7.0535 </r>
       <r>    16.0933     0.4594     7.0796 </r>
       <r>    16.1500     0.4599     7.1056 </r>
       <r>    16.2067     0.4611     7.1317 </r>
       <r>    16.2633     0.4631     7.1579 </r>
       <r>    16.3200     0.4660     7.1842 </r>
       <r>    16.3767     0.4695     7.2107 </r>
       <r>    16.4333     0.4726     7.2374 </r>
       <r>    16.4900     0.4754     7.2643 </r>
       <r>    16.5467     0.4781     7.2913 </r>
       <r>    16.6033     0.4812     7.3185 </r>
       <r>    16.6600     0.4853     7.3459 </r>
       <r>    16.7167     0.4897     7.3735 </r>
       <r>    16.7733     0.4932     7.4013 </r>
       <r>    16.8300     0.4954     7.4294 </r>
       <r>    16.8867     0.4982     7.4575 </r>
       <r>    16.9433     0.5007     7.4858 </r>
       <r>    17.0000     0.5019     7.5142 </r>
      </set>
     </set>
    </array>
   </total>
   <partial>
    <array>
     <dimension dim="1">gridpoints</dimension>
     <dimension dim="2">spin</dimension>
     <dimension dim="3">ion</dimension>
     <field>energy</field>
     <field>    s</field>
     <field>   py</field>
     <field>   pz</field>
     <field>   px</field>
     <field>  dxy</field>
     <field>  dyz</field>
     <field>  dz2</field>
     <field>  dxz</field>
     <field>x2-y2</field>
     <set>
      <set comment="ion 1">
       <set comment="spin 1">
        <r>     0.0000     0.0681     0.0127     0.0044     0.0050     0.0000     0.0000     0.0000     0.0000     0.0000 </r>
        <r>     0.0567     0.0683     0.0128     0.0046     0.0050     0.0000     0.0000     0.0000     0.0000     0.0000 </r>
        <r>     0.1133     0.0685     0.0130     0.0047     0.0051     0.0000     0.0000     0.0000     0.0000     0.0000 </r>
        <r>     0.1700     0.0688     0.0132     0.0049     0.0052     0.0000     0.0000     0.0000     0.0000     0.0000 </r>
        <r>     0.2267     0.0690     0.0133     0.0050     0.0053     0.0000     0.0000     0.0000     0.0000     0.0000 </r>
        <r>     0.2833     0.0693     0.0135     0.0052     0.0053     0.0000     0.0000     0.0000     0.0000     0.0000 </r>
        <r>     0.3400     0.0696     0.0137     0.0053     0.0054     0.0000     0.0000     0.0000     0.0000     0.0000 </r>
        <r>     0.3967     0.0698     0.0139     0.0054     0.0055     0.0000     0.0000     0.0000     0.0000     0.0000 </r>
        <r>     0.4533     0.0701     0.0141     0.0055     0.0056     0.0000     0.0000     0.0000     0.0000     0.0000 </r>
        <r>     0.5100     0.0704     0.0143     0.0056     0.0056     0.0000     0.0000     0.0000     0.0000     0.0000 </r>
        <r>     0.5667     0.0707     0.0146     0.0057     0.0057     0.0000     0.0000     0.0000     0.0000     0.0000 </r>
        <r>     0.6233     0.0710     0.0148     0.0057     0.0058     0.0000     0.0000     0.0000     0.0000     0.0000 </r>
        <r>     0.6800     0.0714     0.0151     0.0058     0.0058     0.0000     0.0000     0.0000     0.0000     0.0000 </r>
        <r>     0.7367     0.0717     0.0153     0.0058     0.0059     0.0000     0.0000     0.0000     0.0000     0.0000 </r>
        <r>     0.7933     0.0721     0.0156     0.0059     0.0060     0.0000     0.0000     0.0000     0.0000     0.0000 </r>
        <r>     0.8500     0.0725     0.0158     0.0059     0.0060     0.0000     0.0000     0.0000     0.0000     0.0000 </r>
        <r>     0.9067     0.0729     0.0161     0.0059     0.0061     0.0000     0.0000     0.0000     0.0000     0.0000 </r>
        <r>     0.9633     0.0733     0.0163     0.0060     0.0062     0.0000     0.0000     0.0000     0.0000     0.0000 </r>
        <r>     1.0200     0.0737     0.0166     0.0060     0.0062     0.0000     0.0000     0.0000     0.0000     0.0000 </r>
        <r>     1.0767     0.0740     0.0168     0.0061     0.0063     0.0000     0.0000     0.0000     0.0000     0.0000 </r>
        <r>     1.1333     0.0742     0.0171     0.0061     0.0064     0.0000     0.0000     0.0000     0.0000     0.0000 </r>
        <r>     1.1900     0.0745     0.0173     0.0062     0.0065     0.0000     0.0000     0.0000     0.0000     0.0000 </r>
        <r>     1.2467     0.0749     0.0175     0.0063     0.0065     0.0000     0.0000     0.0000     0.0000     0.0000 </r>
        <r>     1.3033     0.0753     0.0177     0.0064     0.0066     0.0000     0.0000     0.0000     0.0000     0.0000 </r>
        <r>     1.3600     0.0757     0.0178     0.0066     0.0066     0.0000     0.0000     0.0000     0.0000     0.0000 </r>
        <r>     1.4167     0.0762     0.0180     0.0067     0.0067     0.0000     0.0000     0.0000     0.0000     0.0000 </r>
        <r>     1.4733     0.0768     0.0181     0.0068     0.0067     0.0000     0.0000     0.0000     0.0000     0.0000 </r>
        <r>     1.5300     0.0775     0.0183     0.0069     0.0068     0.0000     0.0000     0.0000     0.0000     0.0000 </r>
        <r>     1.5867     0.0783     0.0185     0.0071     0.0068     0.0000     0.0000     0.0000     0.0000     0.0000 </r>
        <r>     1.6433     0.0792     0.0187     0.0072     0.0069     0.0000     0.0000     0.0000     0.0000     0.0000 </r>
        <r>     1.7000     0.0802     0.0189     0.0073     0.0069     0.0000     0.0000     0.0000     0.0000     0.0000 </r>
        <r>     1.7567     0.0818     0.0192     0.0074     0.0070     0.0000     0.0000     0.0000     0.0000     0.0000 </r>
        <r>     1.8133     0.0835     0.0195     0.0075     0.0071     0.0000     0.0000     0.0000     0.0000     0.0000 </r>
        <r>     1.8700     0.0851     0.0197     0.0076     0.0071     0.0000     0.0000     0.0000     0.0000     0.0000 </r>
        <r>     1.9267     0.0865     0.0200     0.0077     0.0072     0.0000     0.0000     0.0000     0.0000     0.0000 </r>
        <r>     1.9833     0.0878     0.0203     0.0078     0.0072     0.0000     0.0000     0.0000     0.0000     0.0000 </r>
        <r>     2.0400     0.0892     0.0206     0.0078     0.0073     0.0000     0.0000     0.0000     0.0000     0.0000 </r>
        <r>     2.0967     0.0967     0.0215     0.0081     0.0077     0.0000     0.0000     0.0000     0.0000     0.0000 </r>
        <r>     2.1533     0.1013     0.0222     0.0083     0.0079     0.0000     0.0000     0.0000     0.0000     0.0000 </r>
        <r>     2.2100     0.1015     0.0225     0.0082     0.0079     0.0000     0.0000     0.0000     0.0000     0.0000 </r>
        <r>     2.2667     0.0973     0.0224     0.0081     0.0076     0.0000     0.0000     0.0000     0.0000     0.0000 </r>
        <r>     2.3233     0.0898     0.0220     0.0077     0.0071     0.0000     0.0000     0.0000     0.0000     0.0000 </r>
        <r>     2.3800     0.0878     0.0219     0.0077     0.0070     0.0000     0.0000     0.0000     0.0000     0.0000 </r>
        <r>     2.4367     0.0858     0.0219     0.0076     0.0069     0.0000     0.0000     0.0000     0.0000     0.0000 </r>
        <r>     2.4933     0.0842     0.0220     0.0076     0.0067     0.0000     0.0000     0.0000     0.0000     0.0000 </r>
        <r>     2.5500     0.0828     0.0220     0.0075     0.0066     0.0000     0.0000     0.0000     0.0000     0.0000 </r>
        <r>     2.6067     0.0816     0.0221     0.0075     0.0066     0.0000     0.0000     0.0000     0.0000     0.0000 </r>
        <r>     2.6633     0.0816     0.0223     0.0075     0.0065     0.0000     0.0000     0.0000     0.0000     0.0000 </r>
        <r>     2.7200     0.0924     0.0237     0.0084     0.0072     0.0000     0.0000     0.0000     0.0000     0.0000 </r>
        <r>     2.7767     0.0865     0.0234     0.0080     0.0067     0.0000     0.0000     0.0000     0.0000     0.0000 </r>
        <r>     2.8333     0.0818     0.0232     0.0076     0.0064     0.0000     0.0000     0.0000     0.0000     0.0000 </r>
        <r>     2.8900     0.0784     0.0231     0.0074     0.0062     0.0000     0.0000     0.0000     0.0000     0.0000 </r>
        <r>     2.9467     0.0763     0.0231     0.0072     0.0060     0.0000     0.0000     0.0000     0.0000     0.0000 </r>
        <r>     3.0033     0.0939     0.0260     0.0084     0.0071     0.0000     0.0000     0.0000     0.0000     0.0000 </r>
        <r>     3.0600     0.0762     0.0241     0.0070     0.0059     0.0000     0.0000     0.0000     0.0000     0.0000 </r>
        <r>     3.1167     0.0739     0.0239     0.0069     0.0057     0.0000     0.0000     0.0000     0.0000     0.0000 </r>
        <r>     3.1733     0.0718     0.0238     0.0068     0.0056     0.0000     0.0000     0.0000     0.0000     0.0000 </r>
        <r>     3.2300     0.0699     0.0237     0.0068     0.0054     0.0000     0.0000     0.0000     0.0000     0.0000 </r>
        <r>     3.2867     0.0684     0.0238     0.0068     0.0055     0.0000     0.0000     0.0000     0.0000     0.0000 </r>
        <r>     3.3433     0.0677     0.0247     0.0077     0.0062     0.0000     0.0000     0.0000     0.0000     0.0000 </r>
        <r>     3.4000     0.0671     0.0256     0.0084     0.0068     0.0000     0.0000     0.0000     0.0000     0.0000 </r>
        <r>     3.4567     0.0666     0.0263     0.0091     0.0074     0.0000     0.0000     0.0000     0.0000     0.0000 </r>
        <r>     3.5133     0.0660     0.0270     0.0098     0.0080     0.0000     0.0000     0.0000     0.0000     0.0000 </r>
        <r>     3.5700     0.0655     0.0277     0.0103     0.0084     0.0000     0.0000     0.0000     0.0000     0.0000 </r>
        <r>     3.6267     0.0651     0.0283     0.0109     0.0088     0.0000     0.0000     0.0000     0.0000     0.0000 </r>
        <r>     3.6833     0.0648     0.0290     0.0114     0.0092     0.0000     0.0000     0.0000     0.0000     0.0000 </r>
        <r>     3.7400     0.0651     0.0299     0.0121     0.0098     0.0000     0.0000     0.0000     0.0000     0.0000 </r>
        <r>     3.7967     0.0662     0.0314     0.0131     0.0107     0.0000     0.0000     0.0000     0.0000     0.0000 </r>
        <r>     3.8533     0.0679     0.0331     0.0143     0.0117     0.0000     0.0000     0.0000     0.0000     0.0000 </r>
        <r>     3.9100     0.0702     0.0351     0.0157     0.0129     0.0000     0.0000     0.0000     0.0000     0.0000 </r>
        <r>     3.9667     0.0766     0.0408     0.0199     0.0166     0.0000     0.0000     0.0000     0.0000     0.0000 </r>
        <r>     4.0233     0.0671     0.0380     0.0158     0.0130     0.0000     0.0000     0.0000     0.0000     0.0000 </r>
        <r>     4.0800     0.0633     0.0375     0.0143     0.0118     0.0000     0.0000     0.0000     0.0000     0.0000 </r>
        <r>     4.1367     0.0614     0.0387     0.0144     0.0118     0.0000     0.0000     0.0000     0.0000     0.0000 </r>
        <r>     4.1933     0.0600     0.0398     0.0145     0.0120     0.0000     0.0000     0.0000     0.0000     0.0000 </r>
        <r>     4.2500     0.0591     0.0408     0.0147     0.0122     0.0000     0.0000     0.0000     0.0000     0.0000 </r>
        <r>     4.3067     0.0587     0.0416     0.0150     0.0125     0.0000     0.0000     0.0000     0.0000     0.0000 </r>
        <r>     4.3633     0.0590     0.0425     0.0155     0.0128     0.0000     0.0000     0.0000     0.0000     0.0000 </r>
        <r>     4.4200     0.0592     0.0433     0.0160     0.0132     0.0000     0.0000     0.0000     0.0000     0.0000 </r>
        <r>     4.4767     0.0590     0.0441     0.0165     0.0136     0.0000     0.0000     0.0000     0.0000     0.0000 </r>
        <r>     4.5333     0.0585     0.0444     0.0170     0.0140     0.0000     0.0000     0.0000     0.0000     0.0000 </r>
        <r>     4.5900     0.0582     0.0456     0.0178     0.0147     0.0000     0.0000     0.0000     0.0000     0.0000 </r>
        <r>     4.6467     0.0586     0.0475     0.0195     0.0162     0.0000     0.0000     0.0000     0.0000     0.0000 </r>
        <r>     4.7033     0.0575     0.0471     0.0200     0.0165     0.0000     0.0000     0.0000     0.0000     0.0000 </r>
        <r>     4.7600     0.0553     0.0451     0.0192     0.0156     0.0000     0.0000     0.0000     0.0000     0.0000 </r>
        <r>     4.8167     0.0535     0.0434     0.0190     0.0152     0.0000     0.0000     0.0000     0.0000     0.0000 </r>
        <r>     4.8733     0.0523     0.0421     0.0193     0.0153     0.0000     0.0000     0.0000     0.0000     0.0000 </r>
        <r>     4.9300     0.0512     0.0407     0.0199     0.0156     0.0000     0.0000     0.0000     0.0000     0.0000 </r>
        <r>     4.9867     0.0504     0.0393     0.0205     0.0159     0.0000     0.0000     0.0000     0.0000     0.0000 </r>
        <r>     5.0433     0.0498     0.0386     0.0212     0.0164     0.0000     0.0000     0.0000     0.0000     0.0000 </r>
        <r>     5.1000     0.0486     0.0375     0.0213     0.0164     0.0000     0.0000     0.0000     0.0000     0.0000 </r>
        <r>     5.1567     0.0467     0.0354     0.0205     0.0158     0.0000     0.0000     0.0000     0.0000     0.0000 </r>
        <r>     5.2133     0.0452     0.0342     0.0203     0.0155     0.0000     0.0000     0.0000     0.0000     0.0000 </r>
        <r>     5.2700     0.0442     0.0337     0.0206     0.0156     0.0000     0.0000     0.0000     0.0000     0.0000 </r>
        <r>     5.3267     0.0438     0.0340     0.0210     0.0157     0.0000     0.0000     0.0000     0.0000     0.0000 </r>
        <r>     5.3833     0.0426     0.0337     0.0213     0.0158     0.0000     0.0000     0.0000     0.0000     0.0000 </r>
        <r>     5.4400     0.0412     0.0329     0.0215     0.0159     0.0000     0.0000     0.0000     0.0000     0.0000 </r>
        <r>     5.4967     0.0401     0.0317     0.0218     0.0161     0.0000     0.0000     0.0000     0.0000     0.0000 </r>
        <r>     5.5533     0.0387     0.0301     0.0220     0.0162     0.0000     0.0000     0.0000     0.0000     0.0000 </r>
        <r>     5.6100     0.0376     0.0284     0.0223     0.0163     0.0000     0.0000     0.0000     0.0000     0.0000 </r>
        <r>     5.6667     0.0377     0.0277     0.0226     0.0166     0.0000     0.0000     0.0000     0.0000     0.0000 </r>
        <r>     5.7233     0.0387     0.0281     0.0230     0.0169     0.0000     0.0000     0.0000     0.0000     0.0000 </r>
        <r>     5.7800     0.0418     0.0302     0.0240     0.0177     0.0000     0.0000     0.0000     0.0000     0.0000 </r>
        <r>     5.8367     0.0471     0.0356     0.0257     0.0192     0.0000     0.0000     0.0000     0.0000     0.0000 </r>
        <r>     5.8933     0.0528     0.0429     0.0279     0.0210     0.0000     0.0000     0.0000     0.0000     0.0000 </r>
        <r>     5.9500     0.0585     0.0541     0.0306     0.0222     0.0000     0.0000     0.0000     0.0000     0.0000 </r>
        <r>     6.0067     0.0579     0.0483     0.0273     0.0196     0.0000     0.0000     0.0000     0.0000     0.0000 </r>
        <r>     6.0633     0.0626     0.0479     0.0274     0.0191     0.0000     0.0000     0.0000     0.0000     0.0000 </r>
        <r>     6.1200     0.0645     0.0469     0.0272     0.0188     0.0000     0.0000     0.0000     0.0000     0.0000 </r>
        <r>     6.1767     0.0661     0.0459     0.0270     0.0185     0.0000     0.0000     0.0000     0.0000     0.0000 </r>
        <r>     6.2333     0.0655     0.0448     0.0262     0.0181     0.0000     0.0000     0.0000     0.0000     0.0000 </r>
        <r>     6.2900     0.0666     0.0443     0.0263     0.0179     0.0000     0.0000     0.0000     0.0000     0.0000 </r>
        <r>     6.3467     0.0682     0.0440     0.0264     0.0177     0.0000     0.0000     0.0000     0.0000     0.0000 </r>
        <r>     6.4033     0.0692     0.0439     0.0267     0.0176     0.0000     0.0000     0.0000     0.0000     0.0000 </r>
        <r>     6.4600     0.0695     0.0440     0.0272     0.0175     0.0000     0.0000     0.0000     0.0000     0.0000 </r>
        <r>     6.5167     0.0698     0.0443     0.0278     0.0174     0.0000     0.0000     0.0000     0.0000     0.0000 </r>
        <r>     6.5733     0.0717     0.0528     0.0318     0.0179     0.0000     0.0000     0.0000     0.0000     0.0000 </r>
        <r>     6.6300     0.0703     0.0480     0.0274     0.0167     0.0000     0.0000     0.0000     0.0000     0.0000 </r>
        <r>     6.6867     0.0687     0.0464     0.0267     0.0163     0.0000     0.0000     0.0000     0.0000     0.0000 </r>
        <r>     6.7433     0.0664     0.0437     0.0260     0.0160     0.0000     0.0000     0.0000     0.0000     0.0000 </r>
        <r>     6.8000     0.0637     0.0410     0.0255     0.0156     0.0000     0.0000     0.0000     0.0000     0.0000 </r>
        <r>     6.8567     0.0606     0.0387     0.0252     0.0153     0.0000     0.0000     0.0000     0.0000     0.0000 </r>
        <r>     6.9133     0.0573     0.0368     0.0250     0.0150     0.0000     0.0000     0.0000     0.0000     0.0000 </r>
        <r>     6.9700     0.0556     0.0364     0.0251     0.0149     0.0000     0.0000     0.0000     0.0000     0.0000 </r>
        <r>     7.0267     0.0550     0.0381     0.0253     0.0151     0.0000     0.0000     0.0000     0.0000     0.0000 </r>
        <r>     7.0833     0.0538     0.0366     0.0252     0.0150     0.0000     0.0000     0.0000     0.0000     0.0000 </r>
        <r>     7.1400     0.0528     0.0353     0.0252     0.0151     0.0000     0.0000     0.0000     0.0000     0.0000 </r>
        <r>     7.1967     0.0521     0.0342     0.0253     0.0153     0.0000     0.0000     0.0000     0.0000     0.0000 </r>
        <r>     7.2533     0.0516     0.0333     0.0256     0.0156     0.0000     0.0000     0.0000     0.0000     0.0000 </r>
        <r>     7.3100     0.0513     0.0326     0.0260     0.0161     0.0000     0.0000     0.0000     0.0000     0.0000 </r>
        <r>     7.3667     0.0512     0.0322     0.0265     0.0166     0.0000     0.0000     0.0000     0.0000     0.0000 </r>
        <r>     7.4233     0.0544     0.0320     0.0295     0.0180     0.0000     0.0000     0.0000     0.0000     0.0000 </r>
        <r>     7.4800     0.0552     0.0320     0.0307     0.0188     0.0000     0.0000     0.0000     0.0000     0.0000 </r>
        <r>     7.5367     0.0563     0.0324     0.0322     0.0199     0.0000     0.0000     0.0000     0.0000     0.0000 </r>
        <r>     7.5933     0.0579     0.0331     0.0340     0.0210     0.0000     0.0000     0.0000     0.0000     0.0000 </r>
        <r>     7.6500     0.0594     0.0340     0.0359     0.0221     0.0000     0.0000     0.0000     0.0000     0.0000 </r>
        <r>     7.7067     0.0598     0.0349     0.0372     0.0223     0.0000     0.0000     0.0000     0.0000     0.0000 </r>
        <r>     7.7633     0.0622     0.0368     0.0395     0.0235     0.0000     0.0000     0.0000     0.0000     0.0000 </r>
        <r>     7.8200     0.0646     0.0383     0.0418     0.0244     0.0000     0.0000     0.0000     0.0000     0.0000 </r>
        <r>     7.8767     0.0652     0.0383     0.0433     0.0247     0.0000     0.0000     0.0000     0.0000     0.0000 </r>
        <r>     7.9333     0.0603     0.0381     0.0401     0.0236     0.0000     0.0000     0.0000     0.0000     0.0000 </r>
        <r>     7.9900     0.0560     0.0368     0.0378     0.0220     0.0000     0.0000     0.0000     0.0000     0.0000 </r>
        <r>     8.0467     0.0559     0.0367     0.0375     0.0219     0.0000     0.0000     0.0000     0.0000     0.0000 </r>
        <r>     8.1033     0.0560     0.0367     0.0373     0.0219     0.0000     0.0000     0.0000     0.0000     0.0000 </r>
        <r>     8.1600     0.0563     0.0368     0.0373     0.0220     0.0000     0.0000     0.0000     0.0000     0.0000 </r>
        <r>     8.2167     0.0568     0.0370     0.0374     0.0221     0.0000     0.0000     0.0000     0.0000     0.0000 </r>
        <r>     8.2733     0.0576     0.0374     0.0377     0.0223     0.0000     0.0000     0.0000     0.0000     0.0000 </r>
        <r>     8.3300     0.0586     0.0379     0.0384     0.0226     0.0000     0.0000     0.0000     0.0000     0.0000 </r>
        <r>     8.3867     0.0598     0.0386     0.0394     0.0230     0.0000     0.0000     0.0000     0.0000     0.0000 </r>
        <r>     8.4433     0.0563     0.0379     0.0392     0.0220     0.0000     0.0000     0.0000     0.0000     0.0000 </r>
        <r>     8.5000     0.0560     0.0378     0.0386     0.0219     0.0000     0.0000     0.0000     0.0000     0.0000 </r>
        <r>     8.5567     0.0557     0.0378     0.0382     0.0219     0.0000     0.0000     0.0000     0.0000     0.0000 </r>
        <r>     8.6133     0.0556     0.0379     0.0378     0.0219     0.0000     0.0000     0.0000     0.0000     0.0000 </r>
        <r>     8.6700     0.0556     0.0382     0.0376     0.0219     0.0000     0.0000     0.0000     0.0000     0.0000 </r>
        <r>     8.7267     0.0557     0.0385     0.0374     0.0220     0.0000     0.0000     0.0000     0.0000     0.0000 </r>
        <r>     8.7833     0.0556     0.0389     0.0370     0.0221     0.0000     0.0000     0.0000     0.0000     0.0000 </r>
        <r>     8.8400     0.0555     0.0393     0.0364     0.0222     0.0000     0.0000     0.0000     0.0000     0.0000 </r>
        <r>     8.8967     0.0524     0.0391     0.0347     0.0217     0.0000     0.0000     0.0000     0.0000     0.0000 </r>
        <r>     8.9533     0.0521     0.0393     0.0348     0.0217     0.0000     0.0000     0.0000     0.0000     0.0000 </r>
        <r>     9.0100     0.0522     0.0395     0.0350     0.0219     0.0000     0.0000     0.0000     0.0000     0.0000 </r>
        <r>     9.0667     0.0537     0.0398     0.0364     0.0263     0.0000     0.0000     0.0000     0.0000     0.0000 </r>
        <r>     9.1233     0.0591     0.0407     0.0432     0.0432     0.0000     0.0000     0.0000     0.0000     0.0000 </r>
        <r>     9.1800     0.0545     0.0411     0.0375     0.0270     0.0000     0.0000     0.0000     0.0000     0.0000 </r>
        <r>     9.2367     0.0547     0.0414     0.0380     0.0275     0.0000     0.0000     0.0000     0.0000     0.0000 </r>
        <r>     9.2933     0.0542     0.0411     0.0380     0.0276     0.0000     0.0000     0.0000     0.0000     0.0000 </r>
        <r>     9.3500     0.0542     0.0409     0.0382     0.0280     0.0000     0.0000     0.0000     0.0000     0.0000 </r>
        <r>     9.4067     0.0545     0.0410     0.0386     0.0285     0.0000     0.0000     0.0000     0.0000     0.0000 </r>
        <r>     9.4633     0.0550     0.0411     0.0391     0.0290     0.0000     0.0000     0.0000     0.0000     0.0000 </r>
        <r>     9.5200     0.0550     0.0409     0.0435     0.0300     0.0000     0.0000     0.0000     0.0000     0.0000 </r>
        <r>     9.5767     0.0528     0.0403     0.0405     0.0289     0.0000     0.0000     0.0000     0.0000     0.0000 </r>
        <r>     9.6333     0.0519     0.0400     0.0415     0.0289     0.0000     0.0000     0.0000     0.0000     0.0000 </r>
        <r>     9.6900     0.0516     0.0400     0.0432     0.0293     0.0000     0.0000     0.0000     0.0000     0.0000 </r>
        <r>     9.7467     0.0514     0.0399     0.0451     0.0299     0.0000     0.0000     0.0000     0.0000     0.0000 </r>
        <r>     9.8033     0.0508     0.0400     0.0406     0.0293     0.0000     0.0000     0.0000     0.0000     0.0000 </r>
        <r>     9.8600     0.0507     0.0403     0.0410     0.0297     0.0000     0.0000     0.0000     0.0000     0.0000 </r>
        <r>     9.9167     0.0505     0.0404     0.0413     0.0301     0.0000     0.0000     0.0000     0.0000     0.0000 </r>
        <r>     9.9733     0.0503     0.0405     0.0417     0.0305     0.0000     0.0000     0.0000     0.0000     0.0000 </r>
        <r>    10.0300     0.0502     0.0406     0.0421     0.0310     0.0000     0.0000     0.0000     0.0000     0.0000 </r>
        <r>    10.0867     0.0500     0.0407     0.0424     0.0315     0.0000     0.0000     0.0000     0.0000     0.0000 </r>
        <r>    10.1433     0.0499     0.0409     0.0427     0.0321     0.0000     0.0000     0.0000     0.0000     0.0000 </r>
        <r>    10.2000     0.0500     0.0411     0.0430     0.0327     0.0000     0.0000     0.0000     0.0000     0.0000 </r>
        <r>    10.2567     0.0501     0.0414     0.0433     0.0333     0.0000     0.0000     0.0000     0.0000     0.0000 </r>
        <r>    10.3133     0.0502     0.0418     0.0437     0.0340     0.0000     0.0000     0.0000     0.0000     0.0000 </r>
        <r>    10.3700     0.0494     0.0415     0.0437     0.0341     0.0000     0.0000     0.0000     0.0000     0.0000 </r>
        <r>    10.4267     0.0486     0.0412     0.0438     0.0341     0.0000     0.0000     0.0000     0.0000     0.0000 </r>
        <r>    10.4833     0.0484     0.0411     0.0442     0.0347     0.0000     0.0000     0.0000     0.0000     0.0000 </r>
        <r>    10.5400     0.0486     0.0411     0.0448     0.0359     0.0000     0.0000     0.0000     0.0000     0.0000 </r>
        <r>    10.5967     0.0494     0.0414     0.0459     0.0389     0.0000     0.0000     0.0000     0.0000     0.0000 </r>
        <r>    10.6533     0.0497     0.0421     0.0467     0.0403     0.0000     0.0000     0.0000     0.0000     0.0000 </r>
        <r>    10.7100     0.0493     0.0423     0.0467     0.0391     0.0000     0.0000     0.0000     0.0000     0.0000 </r>
        <r>    10.7667     0.0486     0.0422     0.0466     0.0383     0.0000     0.0000     0.0000     0.0000     0.0000 </r>
        <r>    10.8233     0.0479     0.0422     0.0466     0.0380     0.0000     0.0000     0.0000     0.0000     0.0000 </r>
        <r>    10.8800     0.0475     0.0422     0.0467     0.0383     0.0000     0.0000     0.0000     0.0000     0.0000 </r>
        <r>    10.9367     0.0471     0.0422     0.0467     0.0386     0.0000     0.0000     0.0000     0.0000     0.0000 </r>
        <r>    10.9933     0.0465     0.0421     0.0462     0.0388     0.0000     0.0000     0.0000     0.0000     0.0000 </r>
        <r>    11.0500     0.0462     0.0421     0.0460     0.0391     0.0000     0.0000     0.0000     0.0000     0.0000 </r>
        <r>    11.1067     0.0460     0.0421     0.0460     0.0395     0.0000     0.0000     0.0000     0.0000     0.0000 </r>
        <r>    11.1633     0.0458     0.0422     0.0462     0.0400     0.0000     0.0000     0.0000     0.0000     0.0000 </r>
        <r>    11.2200     0.0457     0.0423     0.0464     0.0405     0.0000     0.0000     0.0000     0.0000     0.0000 </r>
        <r>    11.2767     0.0456     0.0424     0.0468     0.0411     0.0000     0.0000     0.0000     0.0000     0.0000 </r>
        <r>    11.3333     0.0456     0.0425     0.0473     0.0418     0.0000     0.0000     0.0000     0.0000     0.0000 </r>
        <r>    11.3900     0.0457     0.0426     0.0493     0.0430     0.0000     0.0000     0.0000     0.0000     0.0000 </r>
        <r>    11.4467     0.0455     0.0427     0.0510     0.0442     0.0000     0.0000     0.0000     0.0000     0.0000 </r>
        <r>    11.5033     0.0453     0.0428     0.0509     0.0449     0.0000     0.0000     0.0000     0.0000     0.0000 </r>
        <r>    11.5600     0.0452     0.0429     0.0518     0.0459     0.0000     0.0000     0.0000     0.0000     0.0000 </r>
        <r>    11.6167     0.0452     0.0431     0.0536     0.0473     0.0000     0.0000     0.0000     0.0000     0.0000 </r>
        <r>    11.6733     0.0450     0.0432     0.0557     0.0487     0.0000     0.0000     0.0000     0.0000     0.0000 </r>
        <r>    11.7300     0.0441     0.0432     0.0518     0.0480     0.0000     0.0000     0.0000     0.0000     0.0000 </r>
        <r>    11.7867     0.0433     0.0428     0.0522     0.0485     0.0000     0.0000     0.0000     0.0000     0.0000 </r>
        <r>    11.8433     0.0426     0.0424     0.0527     0.0491     0.0000     0.0000     0.0000     0.0000     0.0000 </r>
        <r>    11.9000     0.0420     0.0422     0.0534     0.0498     0.0000     0.0000     0.0000     0.0000     0.0000 </r>
        <r>    11.9567     0.0421     0.0421     0.0546     0.0526     0.0000     0.0000     0.0000     0.0000     0.0000 </r>
        <r>    12.0133     0.0413     0.0420     0.0558     0.0525     0.0000     0.0000     0.0000     0.0000     0.0000 </r>
        <r>    12.0700     0.0414     0.0418     0.0576     0.0559     0.0000     0.0000     0.0000     0.0000     0.0000 </r>
        <r>    12.1267     0.0417     0.0417     0.0596     0.0604     0.0000     0.0000     0.0000     0.0000     0.0000 </r>
        <r>    12.1833     0.0408     0.0415     0.0596     0.0592     0.0000     0.0000     0.0000     0.0000     0.0000 </r>
        <r>    12.2400     0.0400     0.0415     0.0589     0.0585     0.0000     0.0000     0.0000     0.0000     0.0000 </r>
        <r>    12.2967     0.0395     0.0416     0.0592     0.0588     0.0000     0.0000     0.0000     0.0000     0.0000 </r>
        <r>    12.3533     0.0392     0.0416     0.0602     0.0599     0.0000     0.0000     0.0000     0.0000     0.0000 </r>
        <r>    12.4100     0.0390     0.0416     0.0614     0.0614     0.0000     0.0000     0.0000     0.0000     0.0000 </r>
        <r>    12.4667     0.0387     0.0417     0.0627     0.0631     0.0000     0.0000     0.0000     0.0000     0.0000 </r>
        <r>    12.5233     0.0386     0.0419     0.0642     0.0652     0.0000     0.0000     0.0000     0.0000     0.0000 </r>
        <r>    12.5800     0.0384     0.0420     0.0658     0.0675     0.0000     0.0000     0.0000     0.0000     0.0000 </r>
        <r>    12.6367     0.0384     0.0424     0.0676     0.0703     0.0000     0.0000     0.0000     0.0000     0.0000 </r>
        <r>    12.6933     0.0383     0.0428     0.0694     0.0730     0.0000     0.0000     0.0000     0.0000     0.0000 </r>
        <r>    12.7500     0.0382     0.0432     0.0711     0.0752     0.0000     0.0000     0.0000     0.0000     0.0000 </r>
        <r>    12.8067     0.0377     0.0432     0.0725     0.0763     0.0000     0.0000     0.0000     0.0000     0.0000 </r>
        <r>    12.8633     0.0371     0.0432     0.0739     0.0776     0.0000     0.0000     0.0000     0.0000     0.0000 </r>
        <r>    12.9200     0.0366     0.0432     0.0754     0.0790     0.0000     0.0000     0.0000     0.0000     0.0000 </r>
        <r>    12.9767     0.0362     0.0432     0.0771     0.0807     0.0000     0.0000     0.0000     0.0000     0.0000 </r>
        <r>    13.0333     0.0357     0.0433     0.0885     0.0917     0.0000     0.0000     0.0000     0.0000     0.0000 </r>
        <r>    13.0900     0.0352     0.0434     0.0788     0.0810     0.0000     0.0000     0.0000     0.0000     0.0000 </r>
        <r>    13.1467     0.0345     0.0434     0.0807     0.0821     0.0000     0.0000     0.0000     0.0000     0.0000 </r>
        <r>    13.2033     0.0338     0.0433     0.0822     0.0826     0.0000     0.0000     0.0000     0.0000     0.0000 </r>
        <r>    13.2600     0.0330     0.0432     0.0776     0.0771     0.0000     0.0000     0.0000     0.0000     0.0000 </r>
        <r>    13.3167     0.0323     0.0430     0.0763     0.0752     0.0000     0.0000     0.0000     0.0000     0.0000 </r>
        <r>    13.3733     0.0316     0.0429     0.0763     0.0748     0.0000     0.0000     0.0000     0.0000     0.0000 </r>
        <r>    13.4300     0.0310     0.0427     0.0765     0.0745     0.0000     0.0000     0.0000     0.0000     0.0000 </r>
        <r>    13.4867     0.0303     0.0424     0.0768     0.0744     0.0000     0.0000     0.0000     0.0000     0.0000 </r>
        <r>    13.5433     0.0297     0.0422     0.0773     0.0746     0.0000     0.0000     0.0000     0.0000     0.0000 </r>
        <r>    13.6000     0.0291     0.0420     0.0780     0.0749     0.0000     0.0000     0.0000     0.0000     0.0000 </r>
        <r>    13.6567     0.0286     0.0418     0.0782     0.0754     0.0000     0.0000     0.0000     0.0000     0.0000 </r>
        <r>    13.7133     0.0281     0.0415     0.0769     0.0739     0.0000     0.0000     0.0000     0.0000     0.0000 </r>
        <r>    13.7700     0.0276     0.0413     0.0759     0.0728     0.0000     0.0000     0.0000     0.0000     0.0000 </r>
        <r>    13.8267     0.0272     0.0410     0.0753     0.0719     0.0000     0.0000     0.0000     0.0000     0.0000 </r>
        <r>    13.8833     0.0268     0.0407     0.0750     0.0714     0.0000     0.0000     0.0000     0.0000     0.0000 </r>
        <r>    13.9400     0.0264     0.0404     0.0749     0.0710     0.0000     0.0000     0.0000     0.0000     0.0000 </r>
        <r>    13.9967     0.0259     0.0401     0.0743     0.0706     0.0000     0.0000     0.0000     0.0000     0.0000 </r>
        <r>    14.0533     0.0254     0.0397     0.0739     0.0702     0.0000     0.0000     0.0000     0.0000     0.0000 </r>
        <r>    14.1100     0.0247     0.0390     0.0735     0.0700     0.0000     0.0000     0.0000     0.0000     0.0000 </r>
        <r>    14.1667     0.0244     0.0390     0.0730     0.0695     0.0000     0.0000     0.0000     0.0000     0.0000 </r>
        <r>    14.2233     0.0242     0.0394     0.0726     0.0688     0.0000     0.0000     0.0000     0.0000     0.0000 </r>
        <r>    14.2800     0.0241     0.0398     0.0723     0.0683     0.0000     0.0000     0.0000     0.0000     0.0000 </r>
        <r>    14.3367     0.0238     0.0399     0.0719     0.0675     0.0000     0.0000     0.0000     0.0000     0.0000 </r>
        <r>    14.3933     0.0234     0.0398     0.0716     0.0668     0.0000     0.0000     0.0000     0.0000     0.0000 </r>
        <r>    14.4500     0.0230     0.0397     0.0711     0.0661     0.0000     0.0000     0.0000     0.0000     0.0000 </r>
        <r>    14.5067     0.0226     0.0395     0.0706     0.0654     0.0000     0.0000     0.0000     0.0000     0.0000 </r>
        <r>    14.5633     0.0223     0.0393     0.0702     0.0647     0.0000     0.0000     0.0000     0.0000     0.0000 </r>
        <r>    14.6200     0.0219     0.0392     0.0697     0.0640     0.0000     0.0000     0.0000     0.0000     0.0000 </r>
        <r>    14.6767     0.0215     0.0390     0.0693     0.0633     0.0000     0.0000     0.0000     0.0000     0.0000 </r>
        <r>    14.7333     0.0212     0.0389     0.0690     0.0627     0.0000     0.0000     0.0000     0.0000     0.0000 </r>
        <r>    14.7900     0.0209     0.0388     0.0686     0.0622     0.0000     0.0000     0.0000     0.0000     0.0000 </r>
        <r>    14.8467     0.0205     0.0388     0.0683     0.0617     0.0000     0.0000     0.0000     0.0000     0.0000 </r>
        <r>    14.9033     0.0202     0.0387     0.0681     0.0613     0.0000     0.0000     0.0000     0.0000     0.0000 </r>
        <r>    14.9600     0.0198     0.0387     0.0679     0.0611     0.0000     0.0000     0.0000     0.0000     0.0000 </r>
        <r>    15.0167     0.0197     0.0397     0.0680     0.0610     0.0000     0.0000     0.0000     0.0000     0.0000 </r>
        <r>    15.0733     0.0196     0.0402     0.0680     0.0609     0.0000     0.0000     0.0000     0.0000     0.0000 </r>
        <r>    15.1300     0.0193     0.0403     0.0679     0.0608     0.0000     0.0000     0.0000     0.0000     0.0000 </r>
        <r>    15.1867     0.0190     0.0405     0.0678     0.0608     0.0000     0.0000     0.0000     0.0000     0.0000 </r>
        <r>    15.2433     0.0187     0.0406     0.0678     0.0609     0.0000     0.0000     0.0000     0.0000     0.0000 </r>
        <r>    15.3000     0.0184     0.0407     0.0678     0.0612     0.0000     0.0000     0.0000     0.0000     0.0000 </r>
        <r>    15.3567     0.0182     0.0408     0.0675     0.0615     0.0000     0.0000     0.0000     0.0000     0.0000 </r>
        <r>    15.4133     0.0180     0.0409     0.0672     0.0617     0.0000     0.0000     0.0000     0.0000     0.0000 </r>
        <r>    15.4700     0.0179     0.0410     0.0665     0.0615     0.0000     0.0000     0.0000     0.0000     0.0000 </r>
        <r>    15.5267     0.0179     0.0411     0.0656     0.0610     0.0000     0.0000     0.0000     0.0000     0.0000 </r>
        <r>    15.5833     0.0178     0.0412     0.0648     0.0606     0.0000     0.0000     0.0000     0.0000     0.0000 </r>
        <r>    15.6400     0.0178     0.0414     0.0640     0.0603     0.0000     0.0000     0.0000     0.0000     0.0000 </r>
        <r>    15.6967     0.0177     0.0413     0.0631     0.0596     0.0000     0.0000     0.0000     0.0000     0.0000 </r>
        <r>    15.7533     0.0177     0.0413     0.0623     0.0588     0.0000     0.0000     0.0000     0.0000     0.0000 </r>
        <r>    15.8100     0.0177     0.0412     0.0616     0.0582     0.0000     0.0000     0.0000     0.0000     0.0000 </r>
        <r>    15.8667     0.0177     0.0412     0.0609     0.0575     0.0000     0.0000     0.0000     0.0000     0.0000 </r>
        <r>    15.9233     0.0177     0.0411     0.0602     0.0568     0.0000     0.0000     0.0000     0.0000     0.0000 </r>
        <r>    15.9800     0.0178     0.0411     0.0595     0.0562     0.0000     0.0000     0.0000     0.0000     0.0000 </r>
        <r>    16.0367     0.0179     0.0411     0.0588     0.0555     0.0000     0.0000     0.0000     0.0000     0.0000 </r>
        <r>    16.0933     0.0180     0.0411     0.0582     0.0548     0.0000     0.0000     0.0000     0.0000     0.0000 </r>
        <r>    16.1500     0.0182     0.0413     0.0576     0.0543     0.0000     0.0000     0.0000     0.0000     0.0000 </r>
        <r>    16.2067     0.0184     0.0414     0.0573     0.0540     0.0000     0.0000     0.0000     0.0000     0.0000 </r>
        <r>    16.2633     0.0185     0.0417     0.0571     0.0538     0.0000     0.0000     0.0000     0.0000     0.0000 </r>
        <r>    16.3200     0.0187     0.0419     0.0571     0.0539     0.0000     0.0000     0.0000     0.0000     0.0000 </r>
        <r>    16.3767     0.0189     0.0422     0.0572     0.0542     0.0000     0.0000     0.0000     0.0000     0.0000 </r>
        <r>    16.4333     0.0191     0.0424     0.0572     0.0543     0.0000     0.0000     0.0000     0.0000     0.0000 </r>
        <r>    16.4900     0.0192     0.0426     0.0573     0.0543     0.0000     0.0000     0.0000     0.0000     0.0000 </r>
        <r>    16.5467     0.0194     0.0428     0.0573     0.0543     0.0000     0.0000     0.0000     0.0000     0.0000 </r>
        <r>    16.6033     0.0196     0.0430     0.0575     0.0543     0.0000     0.0000     0.0000     0.0000     0.0000 </r>
        <r>    16.6600     0.0200     0.0432     0.0577     0.0544     0.0000     0.0000     0.0000     0.0000     0.0000 </r>
        <r>    16.7167     0.0204     0.0434     0.0580     0.0546     0.0000     0.0000     0.0000     0.0000     0.0000 </r>
        <r>    16.7733     0.0209     0.0437     0.0580     0.0546     0.0000     0.0000     0.0000     0.0000     0.0000 </r>
        <r>    16.8300     0.0214     0.0439     0.0579     0.0544     0.0000     0.0000     0.0000     0.0000     0.0000 </r>
        <r>    16.8867     0.0219     0.0442     0.0579     0.0542     0.0000     0.0000     0.0000     0.0000     0.0000 </r>
        <r>    16.9433     0.0224     0.0445     0.0578     0.0540     0.0000     0.0000     0.0000     0.0000     0.0000 </r>
        <r>    17.0000     0.0230     0.0445     0.0575     0.0537     0.0000     0.0000     0.0000     0.0000     0.0000 </r>
       </set>
      </set>
     </set>
    </array>
   </partial>
  </dos>
  <projected>
   <eigenvalues>
    <array>
     <dimension dim="1">band</dimension>
     <dimension dim="2">kpoint</dimension>
     <dimension dim="3">spin</dimension>
     <field>eigene</field>
     <field>occ</field>
     <set>
      <set comment="spin 1">
       <set comment="kpoint 1">
        <r>   -4.3780    1.0000 </r>
        <r>   20.6954    0.0000 </r>
        <r>   20.6956    0.0000 </r>
        <r>   20.6956    0.0000 </r>
        <r>   21.7715    0.0000 </r>
        <r>   21.7716    0.0000 </r>
        <r>   21.7716    0.0000 </r>
        <r>   26.9782    0.0000 </r>
       </set>
       <set comment="kpoint 2">
        <r>   -4.2504    1.0000 </r>
        <r>   18.7122    0.0000 </r>
        <r>   20.1233    0.0000 </r>
        <r>   20.1235    0.0000 </r>
        <r>   22.5322    0.0000 </r>
        <r>   22.5323    0.0000 </r>
        <r>   22.6906    0.0000 </r>
        <r>   28.0213    0.0000 </r>
       </set>
       <set comment="kpoint 3">
        <r>   -3.8690    1.0000 </r>
        <r>   15.9440    0.0000 </r>
        <r>   19.3917    0.0000 </r>
        <r>   19.3918    0.0000 </r>
        <r>   22.9496    0.0000 </r>
        <r>   23.5819    0.0000 </r>
        <r>   23.5822    0.0000 </r>
        <r>   26.9737    0.0000 </r>
       </set>
       <set comment="kpoint 4">
        <r>   -3.2351    1.0000 </r>
        <r>   13.1568    0.0000 </r>
        <r>   18.8219    0.0000 </r>
        <r>   18.8221    0.0000 </r>
        <r>   22.8677    0.0000 </r>
        <r>   23.8278    0.0000 </r>
        <r>   23.8285    0.0000 </r>
        <r>   26.9196    0.0000 </r>
       </set>
       <set comment="kpoint 5">
        <r>   -2.3513    1.0000 </r>
        <r>   10.4968    0.1829 </r>
        <r>   18.4396    0.0000 </r>
        <r>   18.4398    0.0000 </r>
        <r>   22.7655    0.0000 </r>
        <r>   22.9767    0.0000 </r>
        <r>   22.9774    0.0000 </r>
        <r>   28.1408    0.0000 </r>
       </set>
       <set comment="kpoint 6">
        <r>   -1.2209    1.0000 </r>
        <r>    8.0156    1.0410 </r>
        <r>   18.2390    0.0000 </r>
        <r>   18.2392    0.0000 </r>
        <r>   22.0031    0.0000 </r>
        <r>   22.0037    0.0000 </r>
        <r>   22.7713    0.0000 </r>
        <r>   27.0086    0.0000 </r>
       </set>
       <set comment="kpoint 7">
        <r>    0.1478    1.0000 </r>
        <r>    5.7374    1.0000 </r>
        <r>   18.1763    0.0000 </r>
        <r>   18.1764    0.0000 </r>
        <r>   21.2293    0.0000 </r>
        <r>   21.2298    0.0000 </r>
        <r>   22.8605    0.0000 </r>
        <r>   26.1161    0.0000 </r>
       </set>
       <set comment="kpoint 8">
        <r>    1.7175    1.0000 </r>
        <r>    3.7104    1.0000 </r>
        <r>   18.1860    0.0000 </r>
        <r>   18.1861    0.0000 </r>
        <r>   20.7925    0.0000 </r>
        <r>   20.7930    0.0000 </r>
        <r>   22.9630    0.0000 </r>
        <r>   25.5949    0.0000 </r>
       </set>
       <set comment="kpoint 9">
        <r>   -4.2079    1.0000 </r>
        <r>   19.1686    0.0000 </r>
        <r>   19.1687    0.0000 </r>
        <r>   20.2937    0.0000 </r>
        <r>   20.8896    0.0000 </r>
        <r>   23.5605    0.0000 </r>
        <r>   23.5605    0.0000 </r>
        <r>   26.8720    0.0000 </r>
       </set>
       <set comment="kpoint 10">
        <r>   -3.9113    1.0000 </r>
        <r>   16.9339    0.0000 </r>
        <r>   18.3456    0.0000 </r>
        <r>   19.8403    0.0000 </r>
        <r>   21.2839    0.0000 </r>
        <r>   24.2500    0.0000 </r>
        <r>   24.6851    0.0000 </r>
        <r>   25.4025    0.0000 </r>
       </set>
       <set comment="kpoint 11">
        <r>   -3.3616    1.0000 </r>
        <r>   14.1635    0.0000 </r>
        <r>   17.7179    0.0000 </r>
        <r>   19.2202    0.0000 </r>
        <r>   21.9749    0.0000 </r>
        <r>   24.0733    0.0000 </r>
        <r>   24.8846    0.0000 </r>
        <r>   25.3068    0.0000 </r>
       </set>
       <set comment="kpoint 12">
        <r>   -2.5612    1.0000 </r>
        <r>   11.4647   -0.0621 </r>
        <r>   17.2973    0.0000 </r>
        <r>   18.6990    0.0000 </r>
        <r>   21.4850    0.0000 </r>
        <r>   23.8371    0.0000 </r>
        <r>   24.6857    0.0000 </r>
        <r>   25.8894    0.0000 </r>
       </set>
       <set comment="kpoint 13">
        <r>   -1.5131    1.0000 </r>
        <r>    8.9241    0.9644 </r>
        <r>   17.0892    0.0000 </r>
        <r>   18.2492    0.0000 </r>
        <r>   20.6671    0.0000 </r>
        <r>   23.6746    0.0000 </r>
        <r>   23.8007    0.0000 </r>
        <r>   27.4504    0.0000 </r>
       </set>
       <set comment="kpoint 14">
        <r>   -0.2226    1.0000 </r>
        <r>    6.5781    1.0000 </r>
        <r>   17.0875    0.0000 </r>
        <r>   17.7805    0.0000 </r>
        <r>   20.1460    0.0000 </r>
        <r>   22.7321    0.0000 </r>
        <r>   23.8305    0.0000 </r>
        <r>   27.3260    0.0000 </r>
       </set>
       <set comment="kpoint 15">
        <r>    1.2907    1.0000 </r>
        <r>    4.4567    1.0000 </r>
        <r>   17.2672    0.0000 </r>
        <r>   17.2810    0.0000 </r>
        <r>   20.0894    0.0000 </r>
        <r>   21.9670    0.0000 </r>
        <r>   23.8448    0.0000 </r>
        <r>   26.8056    0.0000 </r>
       </set>
       <set comment="kpoint 16">
        <r>    2.3163    1.0000 </r>
        <r>    3.2782    1.0000 </r>
        <r>   16.8060    0.0000 </r>
        <r>   17.6470    0.0000 </r>
        <r>   20.4068    0.0000 </r>
        <r>   21.4583    0.0000 </r>
        <r>   23.7779    0.0000 </r>
        <r>   26.7200    0.0000 </r>
       </set>
       <set comment="kpoint 17">
        <r>    0.7642    1.0000 </r>
        <r>    5.1352    1.0000 </r>
        <r>   16.4843    0.0000 </r>
        <r>   18.1498    0.0000 </r>
        <r>   21.0399    0.0000 </r>
        <r>   21.2680    0.0000 </r>
        <r>   23.6435    0.0000 </r>
        <r>   27.0996    0.0000 </r>
       </set>
       <set comment="kpoint 18">
        <r>   -0.6794    1.0000 </r>
        <r>    7.3363    1.0000 </r>
        <r>   16.3461    0.0000 </r>
        <r>   18.7045    0.0000 </r>
        <r>   21.4325    0.0000 </r>
        <r>   21.9116    0.0000 </r>
        <r>   23.5086    0.0000 </r>
        <r>   27.8132    0.0000 </r>
       </set>
       <set comment="kpoint 19">
        <r>   -1.8899    1.0000 </r>
        <r>    9.7503    0.5646 </r>
        <r>   16.4149    0.0000 </r>
        <r>   19.2470    0.0000 </r>
        <r>   21.9861    0.0000 </r>
        <r>   22.9717    0.0000 </r>
        <r>   23.4521    0.0000 </r>
        <r>   27.5268    0.0000 </r>
       </set>
       <set comment="kpoint 20">
        <r>   -2.8557    1.0000 </r>
        <r>   12.3488   -0.0023 </r>
        <r>   16.6928    0.0000 </r>
        <r>   19.7888    0.0000 </r>
        <r>   22.7653    0.0000 </r>
        <r>   23.4651    0.0000 </r>
        <r>   24.1131    0.0000 </r>
        <r>   25.8922    0.0000 </r>
       </set>
       <set comment="kpoint 21">
        <r>   -3.5728    1.0000 </r>
        <r>   15.0900    0.0000 </r>
        <r>   17.1842    0.0000 </r>
        <r>   20.3666    0.0000 </r>
        <r>   22.8582    0.0000 </r>
        <r>   23.4241    0.0000 </r>
        <r>   24.7019    0.0000 </r>
        <r>   25.5332    0.0000 </r>
       </set>
       <set comment="kpoint 22">
        <r>   -4.0384    1.0000 </r>
        <r>   17.7680    0.0000 </r>
        <r>   17.9534    0.0000 </r>
        <r>   20.7675    0.0000 </r>
        <r>   22.1260    0.0000 </r>
        <r>   23.0713    0.0000 </r>
        <r>   24.0193    0.0000 </r>
        <r>   26.6473    0.0000 </r>
       </set>
       <set comment="kpoint 23">
        <r>   -3.6995    1.0000 </r>
        <r>   17.4498    0.0000 </r>
        <r>   17.4499    0.0000 </r>
        <r>   19.2236    0.0000 </r>
        <r>   19.2542    0.0000 </r>
        <r>   23.6081    0.0000 </r>
        <r>   25.8964    0.0000 </r>
        <r>   25.8964    0.0000 </r>
       </set>
       <set comment="kpoint 24">
        <r>   -3.2347    1.0000 </r>
        <r>   15.3120    0.0000 </r>
        <r>   16.7513    0.0000 </r>
        <r>   18.4999    0.0000 </r>
        <r>   19.6781    0.0000 </r>
        <r>   22.2536    0.0000 </r>
        <r>   26.6039    0.0000 </r>
        <r>   26.8498    0.0000 </r>
       </set>
       <set comment="kpoint 25">
        <r>   -2.5187    1.0000 </r>
        <r>   12.6342    0.0000 </r>
        <r>   16.2664    0.0000 </r>
        <r>   17.7619    0.0000 </r>
        <r>   19.6581    0.0000 </r>
        <r>   22.5280    0.0000 </r>
        <r>   26.6238    0.0000 </r>
        <r>   26.7550    0.0000 </r>
       </set>
       <set comment="kpoint 26">
        <r>   -1.5539    1.0000 </r>
        <r>   10.0551    0.4048 </r>
        <r>   15.9992    0.0000 </r>
        <r>   16.9516    0.0000 </r>
        <r>   19.0902    0.0000 </r>
        <r>   23.9594    0.0000 </r>
        <r>   25.6819    0.0000 </r>
        <r>   26.9499    0.0000 </r>
       </set>
       <set comment="kpoint 27">
        <r>   -0.3453    1.0000 </r>
        <r>    7.6508    1.0036 </r>
        <r>   15.9446    0.0000 </r>
        <r>   16.0785    0.0000 </r>
        <r>   18.8154    0.0000 </r>
        <r>   24.6949    0.0000 </r>
        <r>   25.1600    0.0000 </r>
        <r>   27.6946    0.0000 </r>
       </set>
       <set comment="kpoint 28">
        <r>    1.0961    1.0000 </r>
        <r>    5.4554    1.0000 </r>
        <r>   15.2703    0.0000 </r>
        <r>   16.1091    0.0000 </r>
        <r>   18.9008    0.0000 </r>
        <r>   23.8655    0.0000 </r>
        <r>   25.5487    0.0000 </r>
        <r>   29.1643    0.0000 </r>
       </set>
       <set comment="kpoint 29">
        <r>    2.6494    1.0000 </r>
        <r>    3.5984    1.0000 </r>
        <r>   14.6144    0.0000 </r>
        <r>   16.4827    0.0000 </r>
        <r>   19.2790    0.0000 </r>
        <r>   23.2342    0.0000 </r>
        <r>   25.4694    0.0000 </r>
        <r>   29.2749    0.0000 </r>
       </set>
       <set comment="kpoint 30">
        <r>    1.6215    1.0000 </r>
        <r>    4.7775    1.0000 </r>
        <r>   14.1530    0.0000 </r>
        <r>   17.0534    0.0000 </r>
        <r>   19.9098    0.0000 </r>
        <r>   22.8068    0.0000 </r>
        <r>   25.2464    0.0000 </r>
        <r>   29.5658    0.0000 </r>
       </set>
       <set comment="kpoint 31">
        <r>    0.1102    1.0000 </r>
        <r>    6.8928    1.0000 </r>
        <r>   13.9059    0.0000 </r>
        <r>   17.8038    0.0000 </r>
        <r>   20.7716    0.0000 </r>
        <r>   22.6457    0.0000 </r>
        <r>   25.0220    0.0000 </r>
        <r>   29.1905    0.0000 </r>
       </set>
       <set comment="kpoint 32">
        <r>   -1.1781    1.0000 </r>
        <r>    9.2284    0.8418 </r>
        <r>   13.8814    0.0000 </r>
        <r>   18.6951    0.0000 </r>
        <r>   21.8573    0.0000 </r>
        <r>   22.7660    0.0000 </r>
        <r>   24.8218    0.0000 </r>
        <r>   27.0107    0.0000 </r>
       </set>
       <set comment="kpoint 33">
        <r>   -2.2249    1.0000 </r>
        <r>   11.7416   -0.0450 </r>
        <r>   14.0936    0.0000 </r>
        <r>   19.6414    0.0000 </r>
        <r>   23.0938    0.0000 </r>
        <r>   23.1337    0.0000 </r>
        <r>   24.6012    0.0000 </r>
        <r>   25.1681    0.0000 </r>
       </set>
       <set comment="kpoint 34">
        <r>   -3.0241    1.0000 </r>
        <r>   14.1908    0.0000 </r>
        <r>   14.7357    0.0000 </r>
        <r>   20.4261    0.0000 </r>
        <r>   23.1075    0.0000 </r>
        <r>   24.1593    0.0000 </r>
        <r>   24.2890    0.0000 </r>
        <r>   24.4692    0.0000 </r>
       </set>
       <set comment="kpoint 35">
        <r>   -2.8550    1.0000 </r>
        <r>   15.9826    0.0000 </r>
        <r>   15.9827    0.0000 </r>
        <r>   17.5060    0.0000 </r>
        <r>   17.6970    0.0000 </r>
        <r>   20.5775    0.0000 </r>
        <r>   28.2892    0.0000 </r>
        <r>   28.2892    0.0000 </r>
       </set>
       <set comment="kpoint 36">
        <r>   -2.2240    1.0000 </r>
        <r>   13.9376    0.0000 </r>
        <r>   15.4270    0.0000 </r>
        <r>   16.4455    0.0000 </r>
        <r>   17.9167    0.0000 </r>
        <r>   20.0893    0.0000 </r>
        <r>   28.6657    0.0000 </r>
        <r>   29.0135    0.0000 </r>
       </set>
       <set comment="kpoint 37">
        <r>   -1.3438    1.0000 </r>
        <r>   11.3856   -0.0604 </r>
        <r>   15.0862    0.0000 </r>
        <r>   15.2698    0.0000 </r>
        <r>   17.8080    0.0000 </r>
        <r>   21.3076    0.0000 </r>
        <r>   27.8860    0.0000 </r>
        <r>   29.1809    0.0000 </r>
       </set>
       <set comment="kpoint 38">
        <r>   -0.2183    1.0000 </r>
        <r>    8.9449    0.9616 </r>
        <r>   14.1411    0.0000 </r>
        <r>   14.9697    0.0000 </r>
        <r>   17.6796    0.0000 </r>
        <r>   23.1878    0.0000 </r>
        <r>   26.9292    0.0000 </r>
        <r>   29.1487    0.0000 </r>
       </set>
       <set comment="kpoint 39">
        <r>    1.1437    1.0000 </r>
        <r>    6.6893    1.0000 </r>
        <r>   13.1610    0.0000 </r>
        <r>   15.0716    0.0000 </r>
        <r>   17.7690    0.0000 </r>
        <r>   25.1597    0.0000 </r>
        <r>   26.0384    0.0000 </r>
        <r>   29.0193    0.0000 </r>
       </set>
       <set comment="kpoint 40">
        <r>    2.7091    1.0000 </r>
        <r>    4.6734    1.0000 </r>
        <r>   12.3788   -0.0062 </r>
        <r>   15.3912    0.0000 </r>
        <r>   18.1154    0.0000 </r>
        <r>   25.3381    0.0000 </r>
        <r>   26.6712    0.0000 </r>
        <r>   29.3486    0.0000 </r>
       </set>
       <set comment="kpoint 41">
        <r>    2.7084    1.0000 </r>
        <r>    4.6724    1.0000 </r>
        <r>   11.8135   -0.0409 </r>
        <r>   15.9234    0.0000 </r>
        <r>   18.7030    0.0000 </r>
        <r>   24.8378    0.0000 </r>
        <r>   26.9781    0.0000 </r>
        <r>   30.5381    0.0000 </r>
       </set>
       <set comment="kpoint 42">
        <r>    1.1427    1.0000 </r>
        <r>    6.6833    1.0000 </r>
        <r>   11.4790   -0.0534 </r>
        <r>   16.6595    0.0000 </r>
        <r>   19.5206    0.0000 </r>
        <r>   24.5583    0.0000 </r>
        <r>   26.7424    0.0000 </r>
        <r>   29.0125    0.0000 </r>
       </set>
       <set comment="kpoint 43">
        <r>   -0.2196    1.0000 </r>
        <r>    8.9180    1.0230 </r>
        <r>   11.3932   -0.0191 </r>
        <r>   17.5781    0.0000 </r>
        <r>   20.5581    0.0000 </r>
        <r>   24.4913    0.0000 </r>
        <r>   26.3186    0.0000 </r>
        <r>   26.7546    0.0000 </r>
       </set>
       <set comment="kpoint 44">
        <r>   -1.3449    1.0000 </r>
        <r>   11.0678   -0.0667 </r>
        <r>   11.8160    0.0000 </r>
        <r>   18.6316    0.0000 </r>
        <r>   21.7733    0.0000 </r>
        <r>   24.6588    0.0000 </r>
        <r>   24.7713    0.0000 </r>
        <r>   25.6409    0.0000 </r>
       </set>
       <set comment="kpoint 45">
        <r>   -1.6776    1.0000 </r>
        <r>   14.7958    0.0000 </r>
        <r>   14.7959    0.0000 </r>
        <r>   14.8945    0.0000 </r>
        <r>   16.3777    0.0000 </r>
        <r>   18.6864    0.0000 </r>
        <r>   30.5977    0.0000 </r>
        <r>   30.5980    0.0000 </r>
       </set>
       <set comment="kpoint 46">
        <r>   -0.8832    1.0000 </r>
        <r>   12.7935    0.0000 </r>
        <r>   13.6089    0.0000 </r>
        <r>   14.3863    0.0000 </r>
        <r>   16.6560    0.0000 </r>
        <r>   18.8392    0.0000 </r>
        <r>   30.1822    0.0000 </r>
        <r>   31.2831    0.0000 </r>
       </set>
       <set comment="kpoint 47">
        <r>    0.1568    1.0000 </r>
        <r>   10.4186    0.2094 </r>
        <r>   12.2873    0.0000 </r>
        <r>   14.1979    0.0000 </r>
        <r>   16.7292    0.0000 </r>
        <r>   20.4279    0.0000 </r>
        <r>   29.3023    0.0000 </r>
        <r>   31.3184    0.0000 </r>
       </set>
       <set comment="kpoint 48">
        <r>    1.4363    1.0000 </r>
        <r>    8.1362    1.0450 </r>
        <r>   11.1718   -0.0420 </r>
        <r>   14.2304    0.0000 </r>
        <r>   16.8211    0.0000 </r>
        <r>   22.5300    0.0000 </r>
        <r>   28.4150    0.0000 </r>
        <r>   30.9647    0.0000 </r>
       </set>
       <set comment="kpoint 49">
        <r>    2.9380    1.0000 </r>
        <r>    6.0474    1.0000 </r>
        <r>   10.2798    0.2704 </r>
        <r>   14.4837    0.0000 </r>
        <r>   17.1166    0.0000 </r>
        <r>   24.8370    0.0000 </r>
        <r>   27.6611    0.0000 </r>
        <r>   30.4138    0.0000 </r>
       </set>
       <set comment="kpoint 50">
        <r>    3.9712    1.0000 </r>
        <r>    4.8619    1.0000 </r>
        <r>    9.6229    0.6403 </r>
        <r>   14.9550    0.0000 </r>
        <r>   17.6463    0.0000 </r>
        <r>   27.0822    0.0000 </r>
        <r>   27.0928    0.0000 </r>
        <r>   29.8281    0.0000 </r>
       </set>
       <set comment="kpoint 51">
        <r>    2.4126    1.0000 </r>
        <r>    6.6922    1.0000 </r>
        <r>    9.2218    0.8525 </r>
        <r>   15.6385    0.0000 </r>
        <r>   18.4060    0.0000 </r>
        <r>   26.7001    0.0000 </r>
        <r>   28.3661    0.0000 </r>
        <r>   29.0917    0.0000 </r>
       </set>
       <set comment="kpoint 52">
        <r>    0.9804    1.0000 </r>
        <r>    8.5312    1.0000 </r>
        <r>    9.3644    0.6239 </r>
        <r>   16.5235    0.0000 </r>
        <r>   19.3856    0.0000 </r>
        <r>   26.3074    0.0000 </r>
        <r>   27.0243    0.0000 </r>
        <r>   27.6445    0.0000 </r>
       </set>
       <set comment="kpoint 53">
        <r>   -0.1747    1.0000 </r>
        <r>   11.8872   -0.0329 </r>
        <r>   13.9038    0.0000 </r>
        <r>   13.9039    0.0000 </r>
        <r>   15.3843    0.0000 </r>
        <r>   17.5838    0.0000 </r>
        <r>   32.2022    0.0000 </r>
        <r>   32.7116    0.0000 </r>
       </set>
       <set comment="kpoint 54">
        <r>    0.7790    1.0000 </r>
        <r>   10.4562    0.1911 </r>
        <r>   12.1658    0.0000 </r>
        <r>   13.6424    0.0000 </r>
        <r>   15.8139    0.0000 </r>
        <r>   18.0295    0.0000 </r>
        <r>   31.6906    0.0000 </r>
        <r>   33.2818    0.0000 </r>
       </set>
       <set comment="kpoint 55">
        <r>    1.9724    1.0000 </r>
        <r>    9.1549    1.0100 </r>
        <r>    9.9942    0.2431 </r>
        <r>   13.6030    0.0000 </r>
        <r>   16.0538    0.0000 </r>
        <r>   19.8408    0.0000 </r>
        <r>   30.8870    0.0000 </r>
        <r>   33.0862    0.0000 </r>
       </set>
       <set comment="kpoint 56">
        <r>    3.3926    1.0000 </r>
        <r>    7.5469    1.0000 </r>
        <r>    8.4814    1.0787 </r>
        <r>   13.7852    0.0000 </r>
        <r>   16.3234    0.0000 </r>
        <r>   22.1255    0.0000 </r>
        <r>   30.1040    0.0000 </r>
        <r>   32.4008    0.0000 </r>
       </set>
       <set comment="kpoint 57">
        <r>    4.9451    1.0000 </r>
        <r>    5.7538    1.0000 </r>
        <r>    7.6817    1.0113 </r>
        <r>   14.1885    0.0000 </r>
        <r>   16.7943    0.0000 </r>
        <r>   24.6354    0.0000 </r>
        <r>   29.4495    0.0000 </r>
        <r>   31.4276    0.0000 </r>
       </set>
       <set comment="kpoint 58">
        <r>    3.9051    1.0000 </r>
        <r>    6.6168    1.0000 </r>
        <r>    7.4926    1.0000 </r>
        <r>   14.8088    0.0000 </r>
        <r>   17.4892    0.0000 </r>
        <r>   27.1478    0.0000 </r>
        <r>   28.6499    0.0000 </r>
        <r>   29.8072    0.0000 </r>
       </set>
       <set comment="kpoint 59">
        <r>    1.6457    1.0000 </r>
        <r>    8.9632    0.9515 </r>
        <r>   13.3079    0.0000 </r>
        <r>   13.3080    0.0000 </r>
        <r>   14.7181    0.0000 </r>
        <r>   16.9177    0.0000 </r>
        <r>   33.4839    0.0000 </r>
        <r>   34.6629    0.0000 </r>
       </set>
       <set comment="kpoint 60">
        <r>    2.7484    1.0000 </r>
        <r>    7.6610    1.0148 </r>
        <r>   11.6775   -0.0732 </r>
        <r>   13.1951    0.0000 </r>
        <r>   15.3179    0.0000 </r>
        <r>   17.5599    0.0000 </r>
        <r>   33.2135    0.0000 </r>
        <r>   34.9620    0.0000 </r>
       </set>
       <set comment="kpoint 61">
        <r>    4.0691    1.0000 </r>
        <r>    6.5936    1.0000 </r>
        <r>    9.5723    0.7333 </r>
        <r>   13.3051    0.0000 </r>
        <r>   15.7213    0.0000 </r>
        <r>   19.5442    0.0000 </r>
        <r>   32.4973    0.0000 </r>
        <r>   34.3145    0.0000 </r>
       </set>
       <set comment="kpoint 62">
        <r>    5.3363    1.0000 </r>
        <r>    5.9843    1.0000 </r>
        <r>    7.6565    1.0000 </r>
        <r>   13.6368    0.0000 </r>
        <r>   16.1634    0.0000 </r>
        <r>   21.9992    0.0000 </r>
        <r>   31.4458    0.0000 </r>
        <r>   32.9390    0.0000 </r>
       </set>
       <set comment="kpoint 63">
        <r>    3.7481    1.0000 </r>
        <r>    6.2916    1.0000 </r>
        <r>   13.0089    0.0000 </r>
        <r>   13.0090    0.0000 </r>
        <r>   14.3823    0.0000 </r>
        <r>   16.5935    0.0000 </r>
        <r>   34.4483    0.0000 </r>
        <r>   36.0157    0.0000 </r>
       </set>
       <set comment="kpoint 64">
        <r>    4.6953    1.0000 </r>
        <r>    5.4307    1.0000 </r>
        <r>   11.5184   -0.0706 </r>
        <r>   13.0456    0.0000 </r>
        <r>   15.1527    0.0000 </r>
        <r>   17.4061    0.0000 </r>
        <r>   34.0920    0.0000 </r>
        <r>   35.7137    0.0000 </r>
       </set>
       <set comment="kpoint 65">
        <r>   -3.5305    1.0000 </r>
        <r>   16.0042    0.0000 </r>
        <r>   16.3365    0.0000 </r>
        <r>   20.0721    0.0000 </r>
        <r>   20.9487    0.0000 </r>
        <r>   23.9108    0.0000 </r>
        <r>   25.1562    0.0000 </r>
        <r>   25.5125    0.0000 </r>
       </set>
       <set comment="kpoint 66">
        <r>   -2.8976    1.0000 </r>
        <r>   13.4256    0.0000 </r>
        <r>   15.6385    0.0000 </r>
        <r>   19.4751    0.0000 </r>
        <r>   21.3719    0.0000 </r>
        <r>   23.3905    0.0000 </r>
        <r>   25.3999    0.0000 </r>
        <r>   25.6020    0.0000 </r>
       </set>
       <set comment="kpoint 67">
        <r>   -2.0150    1.0000 </r>
        <r>   10.7957    0.0481 </r>
        <r>   15.2808    0.0000 </r>
        <r>   18.6375    0.0000 </r>
        <r>   20.9442    0.0000 </r>
        <r>   23.8993    0.0000 </r>
        <r>   24.8565    0.0000 </r>
        <r>   26.0286    0.0000 </r>
       </set>
       <set comment="kpoint 68">
        <r>   -0.8864    1.0000 </r>
        <r>    8.3261    1.0728 </r>
        <r>   15.1486    0.0000 </r>
        <r>   17.7433    0.0000 </r>
        <r>   20.6077    0.0000 </r>
        <r>   23.2018    0.0000 </r>
        <r>   25.0467    0.0000 </r>
        <r>   27.4287    0.0000 </r>
       </set>
       <set comment="kpoint 69">
        <r>    0.4804    1.0000 </r>
        <r>    6.0557    1.0000 </r>
        <r>   15.2231    0.0000 </r>
        <r>   16.9189    0.0000 </r>
        <r>   20.5412    0.0000 </r>
        <r>   22.3520    0.0000 </r>
        <r>   25.2012    0.0000 </r>
        <r>   28.7921    0.0000 </r>
       </set>
       <set comment="kpoint 70">
        <r>    2.0487    1.0000 </r>
        <r>    4.0323    1.0000 </r>
        <r>   15.4431    0.0000 </r>
        <r>   16.3054    0.0000 </r>
        <r>   20.6460    0.0000 </r>
        <r>   21.7782    0.0000 </r>
        <r>   25.2867    0.0000 </r>
        <r>   28.5308    0.0000 </r>
       </set>
       <set comment="kpoint 71">
        <r>   -2.6867    1.0000 </r>
        <r>   14.4706    0.0000 </r>
        <r>   14.8832    0.0000 </r>
        <r>   18.1550    0.0000 </r>
        <r>   19.4856    0.0000 </r>
        <r>   21.3101    0.0000 </r>
        <r>   27.1043    0.0000 </r>
        <r>   27.7243    0.0000 </r>
       </set>
       <set comment="kpoint 72">
        <r>   -1.8885    1.0000 </r>
        <r>   12.0338   -0.0179 </r>
        <r>   14.2898    0.0000 </r>
        <r>   17.0558    0.0000 </r>
        <r>   19.6908    0.0000 </r>
        <r>   21.9363    0.0000 </r>
        <r>   26.3999    0.0000 </r>
        <r>   28.1812    0.0000 </r>
       </set>
       <set comment="kpoint 73">
        <r>   -0.8433    1.0000 </r>
        <r>    9.5358    0.6883 </r>
        <r>   14.0644    0.0000 </r>
        <r>   15.9164    0.0000 </r>
        <r>   19.5292    0.0000 </r>
        <r>   23.5485    0.0000 </r>
        <r>   25.5109    0.0000 </r>
        <r>   28.3442    0.0000 </r>
       </set>
       <set comment="kpoint 74">
        <r>    0.4426    1.0000 </r>
        <r>    7.2084    1.0000 </r>
        <r>   14.0044    0.0000 </r>
        <r>   14.9727    0.0000 </r>
        <r>   19.5366    0.0000 </r>
        <r>   24.1315    0.0000 </r>
        <r>   25.8171    0.0000 </r>
        <r>   28.5693    0.0000 </r>
       </set>
       <set comment="kpoint 75">
        <r>    1.9524    1.0000 </r>
        <r>    5.0981    1.0000 </r>
        <r>   13.7547    0.0000 </r>
        <r>   14.6352    0.0000 </r>
        <r>   19.7714    0.0000 </r>
        <r>   23.4956    0.0000 </r>
        <r>   26.9337    0.0000 </r>
        <r>   29.3898    0.0000 </r>
       </set>
       <set comment="kpoint 76">
        <r>    2.9815    1.0000 </r>
        <r>    3.9175    1.0000 </r>
        <r>   13.2343    0.0000 </r>
        <r>   14.9976    0.0000 </r>
        <r>   20.2199    0.0000 </r>
        <r>   22.9443    0.0000 </r>
        <r>   27.1249    0.0000 </r>
        <r>   30.5115    0.0000 </r>
       </set>
       <set comment="kpoint 77">
        <r>    1.4265    1.0000 </r>
        <r>    5.7728    1.0000 </r>
        <r>   12.8504    0.0000 </r>
        <r>   15.6633    0.0000 </r>
        <r>   20.8478    0.0000 </r>
        <r>   22.6381    0.0000 </r>
        <r>   26.8731    0.0000 </r>
        <r>   29.3439    0.0000 </r>
       </set>
       <set comment="kpoint 78">
        <r>   -0.0128    1.0000 </r>
        <r>    7.9575    1.0263 </r>
        <r>   12.6791    0.0000 </r>
        <r>   16.5464    0.0000 </r>
        <r>   21.5411    0.0000 </r>
        <r>   22.6642    0.0000 </r>
        <r>   26.0820    0.0000 </r>
        <r>   27.8116    0.0000 </r>
       </set>
       <set comment="kpoint 79">
        <r>   -1.2193    1.0000 </r>
        <r>   10.3349    0.2646 </r>
        <r>   12.7467    0.0000 </r>
        <r>   17.6066    0.0000 </r>
        <r>   22.0692    0.0000 </r>
        <r>   23.0993    0.0000 </r>
        <r>   24.6977    0.0000 </r>
        <r>   27.1465    0.0000 </r>
       </set>
       <set comment="kpoint 80">
        <r>   -2.1825    1.0000 </r>
        <r>   12.6370    0.0000 </r>
        <r>   13.2817    0.0000 </r>
        <r>   18.7435    0.0000 </r>
        <r>   22.1686    0.0000 </r>
        <r>   22.8214    0.0000 </r>
        <r>   24.6795    0.0000 </r>
        <r>   26.5384    0.0000 </r>
       </set>
       <set comment="kpoint 81">
        <r>   -1.5106    1.0000 </r>
        <r>   13.2340    0.0000 </r>
        <r>   13.6370    0.0000 </r>
        <r>   15.3356    0.0000 </r>
        <r>   18.2516    0.0000 </r>
        <r>   19.7632    0.0000 </r>
        <r>   28.5065    0.0000 </r>
        <r>   30.2678    0.0000 </r>
       </set>
       <set comment="kpoint 82">
        <r>   -0.5502    1.0000 </r>
        <r>   10.9312    0.0129 </r>
        <r>   13.1170    0.0000 </r>
        <r>   14.1146    0.0000 </r>
        <r>   18.5450    0.0000 </r>
        <r>   20.9232    0.0000 </r>
        <r>   27.6535    0.0000 </r>
        <r>   30.7220    0.0000 </r>
       </set>
       <set comment="kpoint 83">
        <r>    0.6524    1.0000 </r>
        <r>    8.5782    1.0499 </r>
        <r>   12.5718   -0.0006 </r>
        <r>   13.4459    0.0000 </r>
        <r>   18.5845    0.0000 </r>
        <r>   22.8786    0.0000 </r>
        <r>   26.7569    0.0000 </r>
        <r>   30.6577    0.0000 </r>
       </set>
       <set comment="kpoint 84">
        <r>    2.0866    1.0000 </r>
        <r>    6.4062    1.0000 </r>
        <r>   11.7363   -0.0446 </r>
        <r>   13.5081    0.0000 </r>
        <r>   18.7858    0.0000 </r>
        <r>   24.8222    0.0000 </r>
        <r>   26.1878    0.0000 </r>
        <r>   30.3122    0.0000 </r>
       </set>
       <set comment="kpoint 85">
        <r>    3.6425    1.0000 </r>
        <r>    4.5517    1.0000 </r>
        <r>   11.0328   -0.0136 </r>
        <r>   13.8927    0.0000 </r>
        <r>   19.2078    0.0000 </r>
        <r>   25.0026    0.0000 </r>
        <r>   27.5300    0.0000 </r>
        <r>   29.7053    0.0000 </r>
       </set>
       <set comment="kpoint 86">
        <r>    2.6093    1.0000 </r>
        <r>    5.7287    1.0000 </r>
        <r>   10.5455    0.1320 </r>
        <r>   14.5181    0.0000 </r>
        <r>   19.8415    0.0000 </r>
        <r>   24.6186    0.0000 </r>
        <r>   28.2438    0.0000 </r>
        <r>   29.1652    0.0000 </r>
       </set>
       <set comment="kpoint 87">
        <r>    1.1039    1.0000 </r>
        <r>    7.8055    1.0000 </r>
        <r>   10.3069    0.1468 </r>
        <r>   15.3659    0.0000 </r>
        <r>   20.6789    0.0000 </r>
        <r>   24.3743    0.0000 </r>
        <r>   26.4088    0.0000 </r>
        <r>   29.1233    0.0000 </r>
       </set>
       <set comment="kpoint 88">
        <r>   -0.1775    1.0000 </r>
        <r>    9.8025    0.7845 </r>
        <r>   10.5929   -0.0045 </r>
        <r>   16.4141    0.0000 </r>
        <r>   21.6731    0.0000 </r>
        <r>   24.0299    0.0000 </r>
        <r>   24.7290    0.0000 </r>
        <r>   28.3603    0.0000 </r>
       </set>
       <set comment="kpoint 89">
        <r>   -0.0091    1.0000 </r>
        <r>   11.9097   -0.0503 </r>
        <r>   12.2987    0.0000 </r>
        <r>   13.0713    0.0000 </r>
        <r>   17.2951    0.0000 </r>
        <r>   18.7858    0.0000 </r>
        <r>   29.9517    0.0000 </r>
        <r>   32.5570    0.0000 </r>
       </set>
       <set comment="kpoint 90">
        <r>    1.1086    1.0000 </r>
        <r>   10.0585    0.5561 </r>
        <r>   10.8948   -0.0621 </r>
        <r>   12.6183    0.0000 </r>
        <r>   17.7431    0.0000 </r>
        <r>   20.2006    0.0000 </r>
        <r>   29.1243    0.0000 </r>
        <r>   32.8412    0.0000 </r>
       </set>
       <set comment="kpoint 91">
        <r>    2.4603    1.0000 </r>
        <r>    7.9107    1.0016 </r>
        <r>    9.8214    0.5046 </r>
        <r>   12.6833    0.0000 </r>
        <r>   17.9544    0.0000 </r>
        <r>   22.3596    0.0000 </r>
        <r>   28.3102    0.0000 </r>
        <r>   32.2445    0.0000 </r>
       </set>
       <set comment="kpoint 92">
        <r>    4.0154    1.0000 </r>
        <r>    5.9289    1.0000 </r>
        <r>    8.9987    0.9540 </r>
        <r>   13.0114    0.0000 </r>
        <r>   18.3325    0.0000 </r>
        <r>   24.7354    0.0000 </r>
        <r>   27.6806    0.0000 </r>
        <r>   30.9532    0.0000 </r>
       </set>
       <set comment="kpoint 93">
        <r>    4.0145    1.0000 </r>
        <r>    5.9100    1.0000 </r>
        <r>    8.4353    1.0567 </r>
        <r>   13.5755    0.0000 </r>
        <r>   18.9200    0.0000 </r>
        <r>   26.5759    0.0000 </r>
        <r>   27.7020    0.0000 </r>
        <r>   28.9924    0.0000 </r>
       </set>
       <set comment="kpoint 94">
        <r>    2.4560    1.0000 </r>
        <r>    7.5750    1.0000 </r>
        <r>    8.4206    1.1262 </r>
        <r>   14.3638    0.0000 </r>
        <r>   19.7103    0.0000 </r>
        <r>   26.4906    0.0000 </r>
        <r>   26.6187    0.0000 </r>
        <r>   29.6861    0.0000 </r>
       </set>
       <set comment="kpoint 95">
        <r>    1.8090    1.0000 </r>
        <r>    9.1021    0.9616 </r>
        <r>   11.6734   -0.0565 </r>
        <r>   12.3255    0.0000 </r>
        <r>   16.6600    0.0000 </r>
        <r>   18.1665    0.0000 </r>
        <r>   31.5328    0.0000 </r>
        <r>   34.5795    0.0000 </r>
       </set>
       <set comment="kpoint 96">
        <r>    3.0723    1.0000 </r>
        <r>    7.9424    1.0022 </r>
        <r>    9.7573    0.6532 </r>
        <r>   12.1140    0.0000 </r>
        <r>   17.2659    0.0000 </r>
        <r>   19.7604    0.0000 </r>
        <r>   30.7986    0.0000 </r>
        <r>   33.7754    0.0000 </r>
       </set>
       <set comment="kpoint 97">
        <r>    4.5446    1.0000 </r>
        <r>    6.9345    1.0000 </r>
        <r>    7.8366    1.0000 </r>
        <r>   12.3604    0.0000 </r>
        <r>   17.6439    0.0000 </r>
        <r>   22.0972    0.0000 </r>
        <r>   30.0885    0.0000 </r>
        <r>   31.8538    0.0000 </r>
       </set>
       <set comment="kpoint 98">
        <r>    5.5694    1.0000 </r>
        <r>    5.9767    1.0000 </r>
        <r>    6.9567    1.0000 </r>
        <r>   12.8527    0.0000 </r>
        <r>   18.1814    0.0000 </r>
        <r>   24.6477    0.0000 </r>
        <r>   29.4949    0.0000 </r>
        <r>   29.5167    0.0000 </r>
       </set>
       <set comment="kpoint 99">
        <r>    3.9091    1.0000 </r>
        <r>    6.4462    1.0000 </r>
        <r>   11.3595   -0.1531 </r>
        <r>   12.0015    0.0000 </r>
        <r>   16.3418    0.0000 </r>
        <r>   17.8636    0.0000 </r>
        <r>   33.1277    0.0000 </r>
        <r>   34.7052    0.0000 </r>
       </set>
       <set comment="kpoint 100">
        <r>    5.0157    1.0000 </r>
        <r>    5.7374    1.0000 </r>
        <r>    9.5791    0.8063 </r>
        <r>   11.9541    0.0000 </r>
        <r>   17.1095    0.0000 </r>
        <r>   19.6178    0.0000 </r>
        <r>   32.3426    0.0000 </r>
        <r>   32.8034    0.0000 </r>
       </set>
       <set comment="kpoint 101">
        <r>   -1.0097    1.0000 </r>
        <r>   11.3812   -0.1178 </r>
        <r>   12.0620    0.0000 </r>
        <r>   15.8008    0.0000 </r>
        <r>   21.0064    0.0000 </r>
        <r>   21.8208    0.0000 </r>
        <r>   25.5214    0.0000 </r>
        <r>   29.4108    0.0000 </r>
       </set>
       <set comment="kpoint 102">
        <r>    0.1135    1.0000 </r>
        <r>    9.2274    0.9309 </r>
        <r>   11.6552   -0.0069 </r>
        <r>   14.6085    0.0000 </r>
        <r>   21.2292    0.0000 </r>
        <r>   23.1216    0.0000 </r>
        <r>   24.8036    0.0000 </r>
        <r>   29.9637    0.0000 </r>
       </set>
       <set comment="kpoint 103">
        <r>    1.4734    1.0000 </r>
        <r>    6.9989    1.0000 </r>
        <r>   11.7186   -0.0454 </r>
        <r>   13.6228    0.0000 </r>
        <r>   21.2910    0.0000 </r>
        <r>   23.2475    0.0000 </r>
        <r>   25.9557    0.0000 </r>
        <r>   30.0546    0.0000 </r>
       </set>
       <set comment="kpoint 104">
        <r>    3.0374    1.0000 </r>
        <r>    4.9913    1.0000 </r>
        <r>   11.9461   -0.0351 </r>
        <r>   12.9346    0.0000 </r>
        <r>   21.4219    0.0000 </r>
        <r>   22.7875    0.0000 </r>
        <r>   27.9447    0.0000 </r>
        <r>   29.5220    0.0000 </r>
       </set>
       <set comment="kpoint 105">
        <r>    0.4878    1.0000 </r>
        <r>   10.4334    0.3413 </r>
        <r>   11.0521   -0.0025 </r>
        <r>   12.7836    0.0000 </r>
        <r>   20.0827    0.0000 </r>
        <r>   21.0477    0.0000 </r>
        <r>   26.7719    0.0000 </r>
        <r>   32.1078    0.0000 </r>
       </set>
       <set comment="kpoint 106">
        <r>    1.7647    1.0000 </r>
        <r>    8.4233    1.0306 </r>
        <r>   10.7231    0.0117 </r>
        <r>   11.7548    0.0000 </r>
        <r>   20.5255    0.0000 </r>
        <r>   22.7412    0.0000 </r>
        <r>   25.9565    0.0000 </r>
        <r>   32.1664    0.0000 </r>
       </set>
       <set comment="kpoint 107">
        <r>    3.2645    1.0000 </r>
        <r>    6.3585    1.0000 </r>
        <r>   10.4173    0.2681 </r>
        <r>   11.4109   -0.0000 </r>
        <r>   20.8200    0.0000 </r>
        <r>   24.3491    0.0000 </r>
        <r>   25.9070    0.0000 </r>
        <r>   30.6553    0.0000 </r>
       </set>
       <set comment="kpoint 108">
        <r>    4.2994    1.0000 </r>
        <r>    5.1762    1.0000 </r>
        <r>    9.8771    0.5675 </r>
        <r>   11.7883   -0.0003 </r>
        <r>   21.2672    0.0000 </r>
        <r>   24.2199    0.0000 </r>
        <r>   27.5446    0.0000 </r>
        <r>   28.7822    0.0000 </r>
       </set>
       <set comment="kpoint 109">
        <r>    2.7410    1.0000 </r>
        <r>    7.0071    1.0000 </r>
        <r>    9.5031    0.7394 </r>
        <r>   12.4921   -0.0000 </r>
        <r>   21.8667    0.0000 </r>
        <r>   23.8692    0.0000 </r>
        <r>   26.0239    0.0000 </r>
        <r>   30.2261    0.0000 </r>
       </set>
       <set comment="kpoint 110">
        <r>    1.3117    1.0000 </r>
        <r>    8.8497    1.0044 </r>
        <r>    9.6409    0.4052 </r>
        <r>   13.4418    0.0000 </r>
        <r>   22.4585    0.0000 </r>
        <r>   23.1714    0.0000 </r>
        <r>   24.5710    0.0000 </r>
        <r>   31.4335    0.0000 </r>
       </set>
       <set comment="kpoint 111">
        <r>    2.2991    1.0000 </r>
        <r>    9.4323    0.9953 </r>
        <r>    9.8003    0.5359 </r>
        <r>   10.8377    0.0000 </r>
        <r>   19.4649    0.0000 </r>
        <r>   20.5130    0.0000 </r>
        <r>   28.3445    0.0000 </r>
        <r>   33.3864    0.0000 </r>
       </set>
       <set comment="kpoint 112">
        <r>    3.7166    1.0000 </r>
        <r>    7.8542    1.0000 </r>
        <r>    8.7034    1.0468 </r>
        <r>   10.5889   -0.0040 </r>
        <r>   20.0815    0.0000 </r>
        <r>   22.4068    0.0000 </r>
        <r>   27.5861    0.0000 </r>
        <r>   31.3748    0.0000 </r>
       </set>
       <set comment="kpoint 113">
        <r>    5.2696    1.0000 </r>
        <r>    6.0644    1.0000 </r>
        <r>    7.9625    1.0200 </r>
        <r>   10.9527   -0.0391 </r>
        <r>   20.5378    0.0000 </r>
        <r>   24.7212    0.0000 </r>
        <r>   26.9923    0.0000 </r>
        <r>   29.0468    0.0000 </r>
       </set>
       <set comment="kpoint 114">
        <r>    4.2298    1.0000 </r>
        <r>    6.9365    1.0000 </r>
        <r>    7.7788    1.0000 </r>
        <r>   11.5990   -0.0457 </r>
        <r>   21.1506    0.0000 </r>
        <r>   25.9571    0.0000 </r>
        <r>   26.0720    0.0000 </r>
        <r>   28.3701    0.0000 </r>
       </set>
       <set comment="kpoint 115">
        <r>    4.3899    1.0000 </r>
        <r>    6.8975    1.0000 </r>
        <r>    9.4822    0.9714 </r>
        <r>   10.3932    0.0092 </r>
        <r>   19.1423    0.0000 </r>
        <r>   20.2425    0.0000 </r>
        <r>   30.1295    0.0000 </r>
        <r>   31.9843    0.0000 </r>
       </set>
       <set comment="kpoint 116">
        <r>    5.6564    1.0000 </r>
        <r>    6.2981    1.0000 </r>
        <r>    7.9105    1.0000 </r>
        <r>   10.3941    0.0768 </r>
        <r>   19.9363    0.0000 </r>
        <r>   22.2854    0.0000 </r>
        <r>   29.2191    0.0000 </r>
        <r>   29.7331    0.0000 </r>
       </set>
       <set comment="kpoint 117">
        <r>    3.1105    1.0000 </r>
        <r>    8.2128    1.0000 </r>
        <r>    8.9126    1.0527 </r>
        <r>   10.6328   -0.0185 </r>
        <r>   22.5821    0.0000 </r>
        <r>   22.8368    0.0000 </r>
        <r>   25.2996    0.0000 </r>
        <r>   30.8648    0.0000 </r>
       </set>
       <set comment="kpoint 118">
        <r>    4.6615    1.0000 </r>
        <r>    6.5315    1.0000 </r>
        <r>    8.8583    1.0374 </r>
        <r>    9.9090    0.2713 </r>
        <r>   22.8423    0.0000 </r>
        <r>   24.0303    0.0000 </r>
        <r>   25.7292    0.0000 </r>
        <r>   28.6284    0.0000 </r>
       </set>
       <set comment="kpoint 119">
        <r>    5.1819    1.0000 </r>
        <r>    7.5370    1.0000 </r>
        <r>    7.8946    1.0000 </r>
        <r>    9.0519    0.9568 </r>
        <r>   22.2955    0.0000 </r>
        <r>   22.8148    0.0000 </r>
        <r>   26.8447    0.0000 </r>
        <r>   29.0304    0.0000 </r>
       </set>
       <set comment="kpoint 120">
        <r>    6.2114    1.0000 </r>
        <r>    6.6170    1.0000 </r>
        <r>    7.4070    1.0000 </r>
        <r>    9.1241    0.9407 </r>
        <r>   22.9410    0.0000 </r>
        <r>   24.7608    0.0000 </r>
        <r>   25.6802    0.0000 </r>
        <r>   27.4673    0.0000 </r>
       </set>
      </set>
     </set>
    </array>
   </eigenvalues>
   <array>
    <dimension dim="1">ion</dimension>
    <dimension dim="2">band</dimension>
    <dimension dim="3">kpoint</dimension>
    <dimension dim="4">spin</dimension>
    <field>    s</field>
    <field>   py</field>
    <field>   pz</field>
    <field>   px</field>
    <field>  dxy</field>
    <field>  dyz</field>
    <field>  dz2</field>
    <field>  dxz</field>
    <field>x2-y2</field>
    <set>
     <set comment="spin1">
      <set comment="kpoint 1">
       <set comment="band 1">
        <r>  0.3839  0.0000  0.0000  0.0000  0.0000  0.0000  0.0000  0.0000  0.0000 </r>
       </set>
       <set comment="band 2">
        <r>  0.0000  0.2265  0.2255  0.2255  0.0000  0.0000  0.0000  0.0000  0.0000 </r>
       </set>
       <set comment="band 3">
        <r>  0.0000  0.4510  0.1120  0.1145  0.0000  0.0000  0.0000  0.0000  0.0000 </r>
       </set>
       <set comment="band 4">
        <r>  0.0000  0.0000  0.3400  0.3375  0.0000  0.0000  0.0000  0.0000  0.0000 </r>
       </set>
       <set comment="band 5">
        <r>  0.0000  0.0000  0.0000  0.0000  0.0000  0.0000  0.0000  0.0000  0.0000 </r>
       </set>
       <set comment="band 6">
        <r>  0.0000  0.0000  0.0000  0.0000  0.0000  0.0000  0.0000  0.0000  0.0000 </r>
       </set>
       <set comment="band 7">
        <r>  0.0000  0.0000  0.0000  0.0000  0.0000  0.0000  0.0000  0.0000  0.0000 </r>
       </set>
       <set comment="band 8">
        <r>  0.0000  0.0000  0.0000  0.0000  0.0000  0.0000  0.0000  0.0000  0.0000 </r>
       </set>
      </set>
      <set comment="kpoint 2">
       <set comment="band 1">
        <r>  0.3817  0.0011  0.0011  0.0011  0.0000  0.0000  0.0000  0.0000  0.0000 </r>
       </set>
       <set comment="band 2">
        <r>  0.0146  0.1310  0.1310  0.1310  0.0000  0.0000  0.0000  0.0000  0.0000 </r>
       </set>
       <set comment="band 3">
        <r>  0.0000  0.0856  0.3420  0.0853  0.0000  0.0000  0.0000  0.0000  0.0000 </r>
       </set>
       <set comment="band 4">
        <r>  0.0000  0.2563  0.0000  0.2567  0.0000  0.0000  0.0000  0.0000  0.0000 </r>
       </set>
       <set comment="band 5">
        <r>  0.0000  0.0286  0.1141  0.0285  0.0000  0.0000  0.0000  0.0000  0.0000 </r>
       </set>
       <set comment="band 6">
        <r>  0.0000  0.0856  0.0000  0.0857  0.0000  0.0000  0.0000  0.0000  0.0000 </r>
       </set>
       <set comment="band 7">
        <r>  0.0144  0.0808  0.0809  0.0808  0.0000  0.0000  0.0000  0.0000  0.0000 </r>
       </set>
       <set comment="band 8">
        <r>  0.0008  0.0022  0.0016  0.0022  0.0000  0.0000  0.0000  0.0000  0.0000 </r>
       </set>
      </set>
      <set comment="kpoint 3">
       <set comment="band 1">
        <r>  0.3731  0.0043  0.0043  0.0043  0.0000  0.0000  0.0000  0.0000  0.0000 </r>
       </set>
       <set comment="band 2">
        <r>  0.0387  0.1091  0.1091  0.1091  0.0000  0.0000  0.0000  0.0000  0.0000 </r>
       </set>
       <set comment="band 3">
        <r>  0.0000  0.0787  0.3141  0.0783  0.0000  0.0000  0.0000  0.0000  0.0000 </r>
       </set>
       <set comment="band 4">
        <r>  0.0000  0.2354  0.0000  0.2358  0.0000  0.0000  0.0000  0.0000  0.0000 </r>
       </set>
       <set comment="band 5">
        <r>  0.0581  0.0686  0.0685  0.0686  0.0000  0.0000  0.0000  0.0000  0.0000 </r>
       </set>
       <set comment="band 6">
        <r>  0.0000  0.0380  0.1518  0.0379  0.0000  0.0000  0.0000  0.0000  0.0000 </r>
       </set>
       <set comment="band 7">
        <r>  0.0000  0.1138  0.0000  0.1139  0.0000  0.0000  0.0000  0.0000  0.0000 </r>
       </set>
       <set comment="band 8">
        <r>  0.0000  0.0001  0.0001  0.0001  0.0000  0.0000  0.0000  0.0000  0.0000 </r>
       </set>
      </set>
      <set comment="kpoint 4">
       <set comment="band 1">
        <r>  0.3594  0.0093  0.0093  0.0093  0.0000  0.0000  0.0000  0.0000  0.0000 </r>
       </set>
       <set comment="band 2">
        <r>  0.0655  0.0977  0.0977  0.0977  0.0000  0.0000  0.0000  0.0000  0.0000 </r>
       </set>
       <set comment="band 3">
        <r>  0.0000  0.0793  0.3166  0.0790  0.0000  0.0000  0.0000  0.0000  0.0000 </r>
       </set>
       <set comment="band 4">
        <r>  0.0000  0.2373  0.0000  0.2376  0.0000  0.0000  0.0000  0.0000  0.0000 </r>
       </set>
       <set comment="band 5">
        <r>  0.1088  0.0466  0.0466  0.0466  0.0000  0.0000  0.0000  0.0000  0.0000 </r>
       </set>
       <set comment="band 6">
        <r>  0.0000  0.0322  0.1287  0.0321  0.0000  0.0000  0.0000  0.0000  0.0000 </r>
       </set>
       <set comment="band 7">
        <r>  0.0000  0.0965  0.0000  0.0965  0.0000  0.0000  0.0000  0.0000  0.0000 </r>
       </set>
       <set comment="band 8">
        <r>  0.0000  0.0036  0.0088  0.0222  0.0000  0.0000  0.0000  0.0000  0.0000 </r>
       </set>
      </set>
      <set comment="kpoint 5">
       <set comment="band 1">
        <r>  0.3413  0.0159  0.0159  0.0159  0.0000  0.0000  0.0000  0.0000  0.0000 </r>
       </set>
       <set comment="band 2">
        <r>  0.0939  0.0891  0.0891  0.0891  0.0000  0.0000  0.0000  0.0000  0.0000 </r>
       </set>
       <set comment="band 3">
        <r>  0.0000  0.0827  0.3303  0.0824  0.0000  0.0000  0.0000  0.0000  0.0000 </r>
       </set>
       <set comment="band 4">
        <r>  0.0000  0.2476  0.0000  0.2479  0.0000  0.0000  0.0000  0.0000  0.0000 </r>
       </set>
       <set comment="band 5">
        <r>  0.1553  0.0273  0.0272  0.0273  0.0000  0.0000  0.0000  0.0000  0.0000 </r>
       </set>
       <set comment="band 6">
        <r>  0.0000  0.0213  0.0856  0.0213  0.0000  0.0000  0.0000  0.0000  0.0000 </r>
       </set>
       <set comment="band 7">
        <r>  0.0000  0.0641  0.0000  0.0641  0.0000  0.0000  0.0000  0.0000  0.0000 </r>
       </set>
       <set comment="band 8">
        <r>  0.0093  0.0322  0.0324  0.0323  0.0000  0.0000  0.0000  0.0000  0.0000 </r>
       </set>
      </set>
      <set comment="kpoint 6">
       <set comment="band 1">
        <r>  0.3221  0.0235  0.0235  0.0235  0.0000  0.0000  0.0000  0.0000  0.0000 </r>
       </set>
       <set comment="band 2">
        <r>  0.1224  0.0813  0.0813  0.0813  0.0000  0.0000  0.0000  0.0000  0.0000 </r>
       </set>
       <set comment="band 3">
        <r>  0.0000  0.0885  0.3533  0.0881  0.0000  0.0000  0.0000  0.0000  0.0000 </r>
       </set>
       <set comment="band 4">
        <r>  0.0000  0.2648  0.0000  0.2652  0.0000  0.0000  0.0000  0.0000  0.0000 </r>
       </set>
       <set comment="band 5">
        <r>  0.0000  0.0140  0.0560  0.0140  0.0000  0.0000  0.0000  0.0000  0.0000 </r>
       </set>
       <set comment="band 6">
        <r>  0.0000  0.0420  0.0000  0.0420  0.0000  0.0000  0.0000  0.0000  0.0000 </r>
       </set>
       <set comment="band 7">
        <r>  0.1950  0.0134  0.0134  0.0134  0.0000  0.0000  0.0000  0.0000  0.0000 </r>
       </set>
       <set comment="band 8">
        <r>  0.0172  0.0216  0.0216  0.0216  0.0000  0.0000  0.0000  0.0000  0.0000 </r>
       </set>
      </set>
      <set comment="kpoint 7">
       <set comment="band 1">
        <r>  0.3053  0.0306  0.0306  0.0306  0.0000  0.0000  0.0000  0.0000  0.0000 </r>
       </set>
       <set comment="band 2">
        <r>  0.1455  0.0745  0.0745  0.0745  0.0000  0.0000  0.0000  0.0000  0.0000 </r>
       </set>
       <set comment="band 3">
        <r>  0.0000  0.0959  0.3825  0.0954  0.0000  0.0000  0.0000  0.0000  0.0000 </r>
       </set>
       <set comment="band 4">
        <r>  0.0000  0.2866  0.0000  0.2871  0.0000  0.0000  0.0000  0.0000  0.0000 </r>
       </set>
       <set comment="band 5">
        <r>  0.0000  0.0072  0.0287  0.0072  0.0000  0.0000  0.0000  0.0000  0.0000 </r>
       </set>
       <set comment="band 6">
        <r>  0.0000  0.0215  0.0000  0.0215  0.0000  0.0000  0.0000  0.0000  0.0000 </r>
       </set>
       <set comment="band 7">
        <r>  0.2303  0.0047  0.0047  0.0047  0.0000  0.0000  0.0000  0.0000  0.0000 </r>
       </set>
       <set comment="band 8">
        <r>  0.0144  0.0134  0.0134  0.0134  0.0000  0.0000  0.0000  0.0000  0.0000 </r>
       </set>
      </set>
      <set comment="kpoint 8">
       <set comment="band 1">
        <r>  0.3275  0.0284  0.0284  0.0284  0.0000  0.0000  0.0000  0.0000  0.0000 </r>
       </set>
       <set comment="band 2">
        <r>  0.1265  0.0772  0.0772  0.0772  0.0000  0.0000  0.0000  0.0000  0.0000 </r>
       </set>
       <set comment="band 3">
        <r>  0.0000  0.1025  0.4086  0.1018  0.0000  0.0000  0.0000  0.0000  0.0000 </r>
       </set>
       <set comment="band 4">
        <r>  0.0000  0.3062  0.0000  0.3068  0.0000  0.0000  0.0000  0.0000  0.0000 </r>
       </set>
       <set comment="band 5">
        <r>  0.0000  0.0010  0.0041  0.0010  0.0000  0.0000  0.0000  0.0000  0.0000 </r>
       </set>
       <set comment="band 6">
        <r>  0.0000  0.0031  0.0000  0.0031  0.0000  0.0000  0.0000  0.0000  0.0000 </r>
       </set>
       <set comment="band 7">
        <r>  0.2585  0.0005  0.0005  0.0005  0.0000  0.0000  0.0000  0.0000  0.0000 </r>
       </set>
       <set comment="band 8">
        <r>  0.0027  0.0087  0.0087  0.0087  0.0000  0.0000  0.0000  0.0000  0.0000 </r>
       </set>
      </set>
      <set comment="kpoint 9">
       <set comment="band 1">
        <r>  0.3809  0.0044  0.0000  0.0000  0.0000  0.0000  0.0000  0.0000  0.0000 </r>
       </set>
       <set comment="band 2">
        <r>  0.0000  0.0000  0.2218  0.2218  0.0000  0.0000  0.0000  0.0000  0.0000 </r>
       </set>
       <set comment="band 3">
        <r>  0.0000  0.0000  0.2218  0.2218  0.0000  0.0000  0.0000  0.0000  0.0000 </r>
       </set>
       <set comment="band 4">
        <r>  0.0369  0.6408  0.0000  0.0000  0.0000  0.0000  0.0000  0.0000  0.0000 </r>
       </set>
       <set comment="band 5">
        <r>  0.0000  0.0000  0.0000  0.0000  0.0000  0.0000  0.0000  0.0000  0.0000 </r>
       </set>
       <set comment="band 6">
        <r>  0.0000  0.0000  0.1190  0.1190  0.0000  0.0000  0.0000  0.0000  0.0000 </r>
       </set>
       <set comment="band 7">
        <r>  0.0000  0.0000  0.1190  0.1190  0.0000  0.0000  0.0000  0.0000  0.0000 </r>
       </set>
       <set comment="band 8">
        <r>  0.0021  0.0159  0.0000  0.0000  0.0000  0.0000  0.0000  0.0000  0.0000 </r>
       </set>
      </set>
      <set comment="kpoint 10">
       <set comment="band 1">
        <r>  0.3741  0.0097  0.0011  0.0011  0.0000  0.0000  0.0000  0.0000  0.0000 </r>
       </set>
       <set comment="band 2">
        <r>  0.0254  0.0692  0.1410  0.1410  0.0000  0.0000  0.0000  0.0000  0.0000 </r>
       </set>
       <set comment="band 3">
        <r>  0.0000  0.0000  0.2163  0.2162  0.0000  0.0000  0.0000  0.0000  0.0000 </r>
       </set>
       <set comment="band 4">
        <r>  0.0413  0.4244  0.0154  0.0154  0.0000  0.0000  0.0000  0.0000  0.0000 </r>
       </set>
       <set comment="band 5">
        <r>  0.0026  0.1064  0.0694  0.0694  0.0000  0.0000  0.0000  0.0000  0.0000 </r>
       </set>
       <set comment="band 6">
        <r>  0.0218  0.0103  0.0971  0.0972  0.0000  0.0000  0.0000  0.0000  0.0000 </r>
       </set>
       <set comment="band 7">
        <r>  0.0000  0.0000  0.1282  0.1281  0.0000  0.0000  0.0000  0.0000  0.0000 </r>
       </set>
       <set comment="band 8">
        <r>  0.0034  0.0126  0.0001  0.0001  0.0000  0.0000  0.0000  0.0000  0.0000 </r>
       </set>
      </set>
      <set comment="kpoint 11">
       <set comment="band 1">
        <r>  0.3621  0.0168  0.0042  0.0042  0.0000  0.0000  0.0000  0.0000  0.0000 </r>
       </set>
       <set comment="band 2">
        <r>  0.0530  0.0731  0.1162  0.1162  0.0000  0.0000  0.0000  0.0000  0.0000 </r>
       </set>
       <set comment="band 3">
        <r>  0.0000  0.0000  0.2188  0.2187  0.0000  0.0000  0.0000  0.0000  0.0000 </r>
       </set>
       <set comment="band 4">
        <r>  0.0498  0.3857  0.0230  0.0230  0.0000  0.0000  0.0000  0.0000  0.0000 </r>
       </set>
       <set comment="band 5">
        <r>  0.0001  0.1139  0.0769  0.0768  0.0000  0.0000  0.0000  0.0000  0.0000 </r>
       </set>
       <set comment="band 6">
        <r>  0.0273  0.0042  0.0782  0.0783  0.0000  0.0000  0.0000  0.0000  0.0000 </r>
       </set>
       <set comment="band 7">
        <r>  0.0400  0.0050  0.0017  0.0017  0.0000  0.0000  0.0000  0.0000  0.0000 </r>
       </set>
       <set comment="band 8">
        <r>  0.0000  0.0000  0.1206  0.1205  0.0000  0.0000  0.0000  0.0000  0.0000 </r>
       </set>
      </set>
      <set comment="kpoint 12">
       <set comment="band 1">
        <r>  0.3452  0.0254  0.0090  0.0090  0.0000  0.0000  0.0000  0.0000  0.0000 </r>
       </set>
       <set comment="band 2">
        <r>  0.0819  0.0696  0.1040  0.1040  0.0000  0.0000  0.0000  0.0000  0.0000 </r>
       </set>
       <set comment="band 3">
        <r>  0.0000  0.0000  0.2238  0.2238  0.0000  0.0000  0.0000  0.0000  0.0000 </r>
       </set>
       <set comment="band 4">
        <r>  0.0569  0.3849  0.0359  0.0359  0.0000  0.0000  0.0000  0.0000  0.0000 </r>
       </set>
       <set comment="band 5">
        <r>  0.0019  0.0652  0.0237  0.0237  0.0000  0.0000  0.0000  0.0000  0.0000 </r>
       </set>
       <set comment="band 6">
        <r>  0.0704  0.0041  0.0989  0.0990  0.0000  0.0000  0.0000  0.0000  0.0000 </r>
       </set>
       <set comment="band 7">
        <r>  0.0000  0.0000  0.0898  0.0897  0.0000  0.0000  0.0000  0.0000  0.0000 </r>
       </set>
       <set comment="band 8">
        <r>  0.0327  0.0181  0.0116  0.0117  0.0000  0.0000  0.0000  0.0000  0.0000 </r>
       </set>
      </set>
      <set comment="kpoint 13">
       <set comment="band 1">
        <r>  0.3258  0.0351  0.0150  0.0150  0.0000  0.0000  0.0000  0.0000  0.0000 </r>
       </set>
       <set comment="band 2">
        <r>  0.1113  0.0640  0.0948  0.0948  0.0000  0.0000  0.0000  0.0000  0.0000 </r>
       </set>
       <set comment="band 3">
        <r>  0.0000  0.0000  0.2306  0.2306  0.0000  0.0000  0.0000  0.0000  0.0000 </r>
       </set>
       <set comment="band 4">
        <r>  0.0601  0.3951  0.0516  0.0516  0.0000  0.0000  0.0000  0.0000  0.0000 </r>
       </set>
       <set comment="band 5">
        <r>  0.0047  0.0193  0.0043  0.0043  0.0000  0.0000  0.0000  0.0000  0.0000 </r>
       </set>
       <set comment="band 6">
        <r>  0.0000  0.0000  0.0765  0.0772  0.0000  0.0000  0.0000  0.0000  0.0000 </r>
       </set>
       <set comment="band 7">
        <r>  0.1188  0.0145  0.0750  0.0743  0.0000  0.0000  0.0000  0.0000  0.0000 </r>
       </set>
       <set comment="band 8">
        <r>  0.0069  0.0064  0.0415  0.0416  0.0000  0.0000  0.0000  0.0000  0.0000 </r>
       </set>
      </set>
      <set comment="kpoint 14">
       <set comment="band 1">
        <r>  0.3075  0.0448  0.0217  0.0217  0.0000  0.0000  0.0000  0.0000  0.0000 </r>
       </set>
       <set comment="band 2">
        <r>  0.1382  0.0580  0.0863  0.0863  0.0000  0.0000  0.0000  0.0000  0.0000 </r>
       </set>
       <set comment="band 3">
        <r>  0.0000  0.0000  0.2392  0.2392  0.0000  0.0000  0.0000  0.0000  0.0000 </r>
       </set>
       <set comment="band 4">
        <r>  0.0556  0.3873  0.0633  0.0633  0.0000  0.0000  0.0000  0.0000  0.0000 </r>
       </set>
       <set comment="band 5">
        <r>  0.0118  0.0000  0.0003  0.0003  0.0000  0.0000  0.0000  0.0000  0.0000 </r>
       </set>
       <set comment="band 6">
        <r>  0.0000  0.0000  0.0678  0.0679  0.0000  0.0000  0.0000  0.0000  0.0000 </r>
       </set>
       <set comment="band 7">
        <r>  0.1552  0.0284  0.0530  0.0530  0.0000  0.0000  0.0000  0.0000  0.0000 </r>
       </set>
       <set comment="band 8">
        <r>  0.0052  0.0038  0.0218  0.0218  0.0000  0.0000  0.0000  0.0000  0.0000 </r>
       </set>
      </set>
      <set comment="kpoint 15">
       <set comment="band 1">
        <r>  0.3045  0.0500  0.0246  0.0246  0.0000  0.0000  0.0000  0.0000  0.0000 </r>
       </set>
       <set comment="band 2">
        <r>  0.1451  0.0563  0.0823  0.0823  0.0000  0.0000  0.0000  0.0000  0.0000 </r>
       </set>
       <set comment="band 3">
        <r>  0.0489  0.3501  0.0683  0.0683  0.0000  0.0000  0.0000  0.0000  0.0000 </r>
       </set>
       <set comment="band 4">
        <r>  0.0000  0.0000  0.2505  0.2506  0.0000  0.0000  0.0000  0.0000  0.0000 </r>
       </set>
       <set comment="band 5">
        <r>  0.0202  0.0113  0.0074  0.0074  0.0000  0.0000  0.0000  0.0000  0.0000 </r>
       </set>
       <set comment="band 6">
        <r>  0.0000  0.0000  0.0575  0.0575  0.0000  0.0000  0.0000  0.0000  0.0000 </r>
       </set>
       <set comment="band 7">
        <r>  0.1835  0.0465  0.0336  0.0336  0.0000  0.0000  0.0000  0.0000  0.0000 </r>
       </set>
       <set comment="band 8">
        <r>  0.0018  0.0079  0.0084  0.0084  0.0000  0.0000  0.0000  0.0000  0.0000 </r>
       </set>
      </set>
      <set comment="kpoint 16">
       <set comment="band 1">
        <r>  0.4017  0.0029  0.0173  0.0173  0.0000  0.0000  0.0000  0.0000  0.0000 </r>
       </set>
       <set comment="band 2">
        <r>  0.0486  0.1064  0.0883  0.0883  0.0000  0.0000  0.0000  0.0000  0.0000 </r>
       </set>
       <set comment="band 3">
        <r>  0.0437  0.3092  0.0711  0.0711  0.0000  0.0000  0.0000  0.0000  0.0000 </r>
       </set>
       <set comment="band 4">
        <r>  0.0000  0.0000  0.2649  0.2649  0.0000  0.0000  0.0000  0.0000  0.0000 </r>
       </set>
       <set comment="band 5">
        <r>  0.0245  0.0255  0.0183  0.0183  0.0000  0.0000  0.0000  0.0000  0.0000 </r>
       </set>
       <set comment="band 6">
        <r>  0.0000  0.0000  0.0434  0.0434  0.0000  0.0000  0.0000  0.0000  0.0000 </r>
       </set>
       <set comment="band 7">
        <r>  0.1920  0.0664  0.0177  0.0177  0.0000  0.0000  0.0000  0.0000  0.0000 </r>
       </set>
       <set comment="band 8">
        <r>  0.0007  0.0181  0.0034  0.0034  0.0000  0.0000  0.0000  0.0000  0.0000 </r>
       </set>
      </set>
      <set comment="kpoint 17">
       <set comment="band 1">
        <r>  0.3009  0.0185  0.0402  0.0402  0.0000  0.0000  0.0000  0.0000  0.0000 </r>
       </set>
       <set comment="band 2">
        <r>  0.1476  0.0936  0.0637  0.0637  0.0000  0.0000  0.0000  0.0000  0.0000 </r>
       </set>
       <set comment="band 3">
        <r>  0.0403  0.2744  0.0751  0.0751  0.0000  0.0000  0.0000  0.0000  0.0000 </r>
       </set>
       <set comment="band 4">
        <r>  0.0000  0.0000  0.2864  0.2864  0.0000  0.0000  0.0000  0.0000  0.0000 </r>
       </set>
       <set comment="band 5">
        <r>  0.0252  0.0336  0.0291  0.0292  0.0000  0.0000  0.0000  0.0000  0.0000 </r>
       </set>
       <set comment="band 6">
        <r>  0.0000  0.0000  0.0215  0.0214  0.0000  0.0000  0.0000  0.0000  0.0000 </r>
       </set>
       <set comment="band 7">
        <r>  0.1782  0.0873  0.0062  0.0062  0.0000  0.0000  0.0000  0.0000  0.0000 </r>
       </set>
       <set comment="band 8">
        <r>  0.0060  0.0366  0.0029  0.0029  0.0000  0.0000  0.0000  0.0000  0.0000 </r>
       </set>
      </set>
      <set comment="kpoint 18">
       <set comment="band 1">
        <r>  0.3130  0.0140  0.0332  0.0332  0.0000  0.0000  0.0000  0.0000  0.0000 </r>
       </set>
       <set comment="band 2">
        <r>  0.1295  0.1016  0.0684  0.0684  0.0000  0.0000  0.0000  0.0000  0.0000 </r>
       </set>
       <set comment="band 3">
        <r>  0.0380  0.2448  0.0806  0.0806  0.0000  0.0000  0.0000  0.0000  0.0000 </r>
       </set>
       <set comment="band 4">
        <r>  0.0000  0.0000  0.3035  0.3035  0.0000  0.0000  0.0000  0.0000  0.0000 </r>
       </set>
       <set comment="band 5">
        <r>  0.0000  0.0000  0.0031  0.0031  0.0000  0.0000  0.0000  0.0000  0.0000 </r>
       </set>
       <set comment="band 6">
        <r>  0.0240  0.0366  0.0381  0.0381  0.0000  0.0000  0.0000  0.0000  0.0000 </r>
       </set>
       <set comment="band 7">
        <r>  0.1526  0.1144  0.0008  0.0008  0.0000  0.0000  0.0000  0.0000  0.0000 </r>
       </set>
       <set comment="band 8">
        <r>  0.0063  0.0645  0.0047  0.0047  0.0000  0.0000  0.0000  0.0000  0.0000 </r>
       </set>
      </set>
      <set comment="kpoint 19">
       <set comment="band 1">
        <r>  0.3323  0.0086  0.0244  0.0244  0.0000  0.0000  0.0000  0.0000  0.0000 </r>
       </set>
       <set comment="band 2">
        <r>  0.1010  0.1121  0.0748  0.0748  0.0000  0.0000  0.0000  0.0000  0.0000 </r>
       </set>
       <set comment="band 3">
        <r>  0.0359  0.2193  0.0882  0.0882  0.0000  0.0000  0.0000  0.0000  0.0000 </r>
       </set>
       <set comment="band 4">
        <r>  0.0000  0.0000  0.3049  0.3049  0.0000  0.0000  0.0000  0.0000  0.0000 </r>
       </set>
       <set comment="band 5">
        <r>  0.0000  0.0000  0.0028  0.0028  0.0000  0.0000  0.0000  0.0000  0.0000 </r>
       </set>
       <set comment="band 6">
        <r>  0.0234  0.0334  0.0465  0.0465  0.0000  0.0000  0.0000  0.0000  0.0000 </r>
       </set>
       <set comment="band 7">
        <r>  0.1178  0.1548  0.0002  0.0002  0.0000  0.0000  0.0000  0.0000  0.0000 </r>
       </set>
       <set comment="band 8">
        <r>  0.0000  0.0000  0.0432  0.0432  0.0000  0.0000  0.0000  0.0000  0.0000 </r>
       </set>
      </set>
      <set comment="kpoint 20">
       <set comment="band 1">
        <r>  0.3513  0.0040  0.0164  0.0164  0.0000  0.0000  0.0000  0.0000  0.0000 </r>
       </set>
       <set comment="band 2">
        <r>  0.0713  0.1259  0.0801  0.0801  0.0000  0.0000  0.0000  0.0000  0.0000 </r>
       </set>
       <set comment="band 3">
        <r>  0.0328  0.1925  0.0974  0.0974  0.0000  0.0000  0.0000  0.0000  0.0000 </r>
       </set>
       <set comment="band 4">
        <r>  0.0000  0.0000  0.2968  0.2968  0.0000  0.0000  0.0000  0.0000  0.0000 </r>
       </set>
       <set comment="band 5">
        <r>  0.0000  0.0000  0.0258  0.0258  0.0000  0.0000  0.0000  0.0000  0.0000 </r>
       </set>
       <set comment="band 6">
        <r>  0.0784  0.2032  0.0041  0.0041  0.0000  0.0000  0.0000  0.0000  0.0000 </r>
       </set>
       <set comment="band 7">
        <r>  0.0202  0.0456  0.0558  0.0558  0.0000  0.0000  0.0000  0.0000  0.0000 </r>
       </set>
       <set comment="band 8">
        <r>  0.0000  0.0000  0.0315  0.0316  0.0000  0.0000  0.0000  0.0000  0.0000 </r>
       </set>
      </set>
      <set comment="kpoint 21">
       <set comment="band 1">
        <r>  0.3668  0.0010  0.0095  0.0095  0.0000  0.0000  0.0000  0.0000  0.0000 </r>
       </set>
       <set comment="band 2">
        <r>  0.0420  0.1517  0.0825  0.0825  0.0000  0.0000  0.0000  0.0000  0.0000 </r>
       </set>
       <set comment="band 3">
        <r>  0.0299  0.1612  0.1117  0.1118  0.0000  0.0000  0.0000  0.0000  0.0000 </r>
       </set>
       <set comment="band 4">
        <r>  0.0000  0.0000  0.3040  0.3040  0.0000  0.0000  0.0000  0.0000  0.0000 </r>
       </set>
       <set comment="band 5">
        <r>  0.0000  0.0000  0.0492  0.0492  0.0000  0.0000  0.0000  0.0000  0.0000 </r>
       </set>
       <set comment="band 6">
        <r>  0.0267  0.2855  0.0048  0.0048  0.0000  0.0000  0.0000  0.0000  0.0000 </r>
       </set>
       <set comment="band 7">
        <r>  0.0393  0.0404  0.0704  0.0704  0.0000  0.0000  0.0000  0.0000  0.0000 </r>
       </set>
       <set comment="band 8">
        <r>  0.0000  0.0000  0.0011  0.0011  0.0000  0.0000  0.0000  0.0000  0.0000 </r>
       </set>
      </set>
      <set comment="kpoint 22">
       <set comment="band 1">
        <r>  0.3770  0.0000  0.0043  0.0043  0.0000  0.0000  0.0000  0.0000  0.0000 </r>
       </set>
       <set comment="band 2">
        <r>  0.0000  0.3295  0.0000  0.0000  0.0000  0.0000  0.0000  0.0000  0.0000 </r>
       </set>
       <set comment="band 3">
        <r>  0.0396  0.0000  0.2119  0.2119  0.0000  0.0000  0.0000  0.0000  0.0000 </r>
       </set>
       <set comment="band 4">
        <r>  0.0000  0.0000  0.3481  0.3481  0.0000  0.0000  0.0000  0.0000  0.0000 </r>
       </set>
       <set comment="band 5">
        <r>  0.0000  0.0000  0.0000  0.0000  0.0000  0.0000  0.0000  0.0000  0.0000 </r>
       </set>
       <set comment="band 6">
        <r>  0.0000  0.3342  0.0000  0.0000  0.0000  0.0000  0.0000  0.0000  0.0000 </r>
       </set>
       <set comment="band 7">
        <r>  0.0337  0.0000  0.0859  0.0859  0.0000  0.0000  0.0000  0.0000  0.0000 </r>
       </set>
       <set comment="band 8">
        <r>  0.0000  0.0000  0.0022  0.0022  0.0000  0.0000  0.0000  0.0000  0.0000 </r>
       </set>
      </set>
      <set comment="kpoint 23">
       <set comment="band 1">
        <r>  0.3695  0.0171  0.0000  0.0000  0.0000  0.0000  0.0000  0.0000  0.0000 </r>
       </set>
       <set comment="band 2">
        <r>  0.0000  0.0000  0.2134  0.2134  0.0000  0.0000  0.0000  0.0000  0.0000 </r>
       </set>
       <set comment="band 3">
        <r>  0.0000  0.0000  0.2134  0.2134  0.0000  0.0000  0.0000  0.0000  0.0000 </r>
       </set>
       <set comment="band 4">
        <r>  0.1179  0.5674  0.0000  0.0000  0.0000  0.0000  0.0000  0.0000  0.0000 </r>
       </set>
       <set comment="band 5">
        <r>  0.0000  0.0000  0.0000  0.0000  0.0000  0.0000  0.0000  0.0000  0.0000 </r>
       </set>
       <set comment="band 6">
        <r>  0.0050  0.0155  0.0000  0.0000  0.0000  0.0000  0.0000  0.0000  0.0000 </r>
       </set>
       <set comment="band 7">
        <r>  0.0000  0.0000  0.1284  0.1285  0.0000  0.0000  0.0000  0.0000  0.0000 </r>
       </set>
       <set comment="band 8">
        <r>  0.0000  0.0000  0.1285  0.1284  0.0000  0.0000  0.0000  0.0000  0.0000 </r>
       </set>
      </set>
      <set comment="kpoint 24">
       <set comment="band 1">
        <r>  0.3590  0.0264  0.0010  0.0010  0.0000  0.0000  0.0000  0.0000  0.0000 </r>
       </set>
       <set comment="band 2">
        <r>  0.0340  0.0467  0.1460  0.1460  0.0000  0.0000  0.0000  0.0000  0.0000 </r>
       </set>
       <set comment="band 3">
        <r>  0.0000  0.0000  0.2155  0.2155  0.0000  0.0000  0.0000  0.0000  0.0000 </r>
       </set>
       <set comment="band 4">
        <r>  0.1029  0.3671  0.0035  0.0035  0.0000  0.0000  0.0000  0.0000  0.0000 </r>
       </set>
       <set comment="band 5">
        <r>  0.0147  0.1206  0.0588  0.0588  0.0000  0.0000  0.0000  0.0000  0.0000 </r>
       </set>
       <set comment="band 6">
        <r>  0.0137  0.0001  0.0113  0.0113  0.0000  0.0000  0.0000  0.0000  0.0000 </r>
       </set>
       <set comment="band 7">
        <r>  0.0201  0.0006  0.1067  0.1070  0.0000  0.0000  0.0000  0.0000  0.0000 </r>
       </set>
       <set comment="band 8">
        <r>  0.0000  0.0000  0.1243  0.1239  0.0000  0.0000  0.0000  0.0000  0.0000 </r>
       </set>
      </set>
      <set comment="kpoint 25">
       <set comment="band 1">
        <r>  0.3437  0.0370  0.0040  0.0040  0.0000  0.0000  0.0000  0.0000  0.0000 </r>
       </set>
       <set comment="band 2">
        <r>  0.0663  0.0525  0.1214  0.1214  0.0000  0.0000  0.0000  0.0000  0.0000 </r>
       </set>
       <set comment="band 3">
        <r>  0.0000  0.0000  0.2194  0.2194  0.0000  0.0000  0.0000  0.0000  0.0000 </r>
       </set>
       <set comment="band 4">
        <r>  0.1180  0.3774  0.0136  0.0136  0.0000  0.0000  0.0000  0.0000  0.0000 </r>
       </set>
       <set comment="band 5">
        <r>  0.0013  0.0352  0.0220  0.0220  0.0000  0.0000  0.0000  0.0000  0.0000 </r>
       </set>
       <set comment="band 6">
        <r>  0.0149  0.0277  0.0767  0.0767  0.0000  0.0000  0.0000  0.0000  0.0000 </r>
       </set>
       <set comment="band 7">
        <r>  0.0000  0.0000  0.0937  0.0947  0.0000  0.0000  0.0000  0.0000  0.0000 </r>
       </set>
       <set comment="band 8">
        <r>  0.0580  0.0040  0.0689  0.0679  0.0000  0.0000  0.0000  0.0000  0.0000 </r>
       </set>
      </set>
      <set comment="kpoint 26">
       <set comment="band 1">
        <r>  0.3252  0.0488  0.0085  0.0084  0.0000  0.0000  0.0000  0.0000  0.0000 </r>
       </set>
       <set comment="band 2">
        <r>  0.0969  0.0494  0.1088  0.1087  0.0000  0.0000  0.0000  0.0000  0.0000 </r>
       </set>
       <set comment="band 3">
        <r>  0.0000  0.0000  0.2236  0.2236  0.0000  0.0000  0.0000  0.0000  0.0000 </r>
       </set>
       <set comment="band 4">
        <r>  0.1130  0.3640  0.0255  0.0255  0.0000  0.0000  0.0000  0.0000  0.0000 </r>
       </set>
       <set comment="band 5">
        <r>  0.0219  0.0003  0.0019  0.0019  0.0000  0.0000  0.0000  0.0000  0.0000 </r>
       </set>
       <set comment="band 6">
        <r>  0.0006  0.0450  0.1229  0.1230  0.0000  0.0000  0.0000  0.0000  0.0000 </r>
       </set>
       <set comment="band 7">
        <r>  0.0000  0.0000  0.0803  0.0803  0.0000  0.0000  0.0000  0.0000  0.0000 </r>
       </set>
       <set comment="band 8">
        <r>  0.0944  0.0079  0.0241  0.0240  0.0000  0.0000  0.0000  0.0000  0.0000 </r>
       </set>
      </set>
      <set comment="kpoint 27">
       <set comment="band 1">
        <r>  0.3056  0.0608  0.0139  0.0139  0.0000  0.0000  0.0000  0.0000  0.0000 </r>
       </set>
       <set comment="band 2">
        <r>  0.1260  0.0444  0.0990  0.0990  0.0000  0.0000  0.0000  0.0000  0.0000 </r>
       </set>
       <set comment="band 3">
        <r>  0.0000  0.0000  0.2261  0.2261  0.0000  0.0000  0.0000  0.0000  0.0000 </r>
       </set>
       <set comment="band 4">
        <r>  0.0993  0.3243  0.0337  0.0336  0.0000  0.0000  0.0000  0.0000  0.0000 </r>
       </set>
       <set comment="band 5">
        <r>  0.0456  0.0073  0.0010  0.0010  0.0000  0.0000  0.0000  0.0000  0.0000 </r>
       </set>
       <set comment="band 6">
        <r>  0.0000  0.0000  0.0769  0.0771  0.0000  0.0000  0.0000  0.0000  0.0000 </r>
       </set>
       <set comment="band 7">
        <r>  0.0232  0.0632  0.1333  0.1331  0.0000  0.0000  0.0000  0.0000  0.0000 </r>
       </set>
       <set comment="band 8">
        <r>  0.0877  0.0048  0.0006  0.0007  0.0000  0.0000  0.0000  0.0000  0.0000 </r>
       </set>
      </set>
      <set comment="kpoint 28">
       <set comment="band 1">
        <r>  0.2928  0.0707  0.0183  0.0183  0.0000  0.0000  0.0000  0.0000  0.0000 </r>
       </set>
       <set comment="band 2">
        <r>  0.1447  0.0410  0.0916  0.0916  0.0000  0.0000  0.0000  0.0000  0.0000 </r>
       </set>
       <set comment="band 3">
        <r>  0.0902  0.2852  0.0399  0.0399  0.0000  0.0000  0.0000  0.0000  0.0000 </r>
       </set>
       <set comment="band 4">
        <r>  0.0000  0.0000  0.2301  0.2301  0.0000  0.0000  0.0000  0.0000  0.0000 </r>
       </set>
       <set comment="band 5">
        <r>  0.0602  0.0163  0.0073  0.0073  0.0000  0.0000  0.0000  0.0000  0.0000 </r>
       </set>
       <set comment="band 6">
        <r>  0.0000  0.0000  0.0751  0.0751  0.0000  0.0000  0.0000  0.0000  0.0000 </r>
       </set>
       <set comment="band 7">
        <r>  0.0796  0.0845  0.0902  0.0902  0.0000  0.0000  0.0000  0.0000  0.0000 </r>
       </set>
       <set comment="band 8">
        <r>  0.0150  0.0136  0.0177  0.0177  0.0000  0.0000  0.0000  0.0000  0.0000 </r>
       </set>
      </set>
      <set comment="kpoint 29">
       <set comment="band 1">
        <r>  0.3899  0.0447  0.0029  0.0029  0.0000  0.0000  0.0000  0.0000  0.0000 </r>
       </set>
       <set comment="band 2">
        <r>  0.0490  0.0733  0.1041  0.1041  0.0000  0.0000  0.0000  0.0000  0.0000 </r>
       </set>
       <set comment="band 3">
        <r>  0.0865  0.2517  0.0472  0.0472  0.0000  0.0000  0.0000  0.0000  0.0000 </r>
       </set>
       <set comment="band 4">
        <r>  0.0000  0.0000  0.2347  0.2347  0.0000  0.0000  0.0000  0.0000  0.0000 </r>
       </set>
       <set comment="band 5">
        <r>  0.0655  0.0187  0.0162  0.0162  0.0000  0.0000  0.0000  0.0000  0.0000 </r>
       </set>
       <set comment="band 6">
        <r>  0.0000  0.0000  0.0718  0.0719  0.0000  0.0000  0.0000  0.0000  0.0000 </r>
       </set>
       <set comment="band 7">
        <r>  0.1062  0.1089  0.0510  0.0510  0.0000  0.0000  0.0000  0.0000  0.0000 </r>
       </set>
       <set comment="band 8">
        <r>  0.0007  0.0302  0.0011  0.0011  0.0000  0.0000  0.0000  0.0000  0.0000 </r>
       </set>
      </set>
      <set comment="kpoint 30">
       <set comment="band 1">
        <r>  0.2967  0.0086  0.0493  0.0493  0.0000  0.0000  0.0000  0.0000  0.0000 </r>
       </set>
       <set comment="band 2">
        <r>  0.1407  0.1157  0.0545  0.0545  0.0000  0.0000  0.0000  0.0000  0.0000 </r>
       </set>
       <set comment="band 3">
        <r>  0.0843  0.2227  0.0559  0.0559  0.0000  0.0000  0.0000  0.0000  0.0000 </r>
       </set>
       <set comment="band 4">
        <r>  0.0000  0.0000  0.2415  0.2415  0.0000  0.0000  0.0000  0.0000  0.0000 </r>
       </set>
       <set comment="band 5">
        <r>  0.0648  0.0163  0.0262  0.0263  0.0000  0.0000  0.0000  0.0000  0.0000 </r>
       </set>
       <set comment="band 6">
        <r>  0.0000  0.0000  0.0644  0.0644  0.0000  0.0000  0.0000  0.0000  0.0000 </r>
       </set>
       <set comment="band 7">
        <r>  0.1056  0.1375  0.0248  0.0248  0.0000  0.0000  0.0000  0.0000  0.0000 </r>
       </set>
       <set comment="band 8">
        <r>  0.0011  0.0537  0.0011  0.0011  0.0000  0.0000  0.0000  0.0000  0.0000 </r>
       </set>
      </set>
      <set comment="kpoint 31">
       <set comment="band 1">
        <r>  0.3007  0.0071  0.0441  0.0441  0.0000  0.0000  0.0000  0.0000  0.0000 </r>
       </set>
       <set comment="band 2">
        <r>  0.1315  0.1250  0.0557  0.0557  0.0000  0.0000  0.0000  0.0000  0.0000 </r>
       </set>
       <set comment="band 3">
        <r>  0.0827  0.1948  0.0664  0.0665  0.0000  0.0000  0.0000  0.0000  0.0000 </r>
       </set>
       <set comment="band 4">
        <r>  0.0000  0.0000  0.2519  0.2519  0.0000  0.0000  0.0000  0.0000  0.0000 </r>
       </set>
       <set comment="band 5">
        <r>  0.0602  0.0122  0.0361  0.0361  0.0000  0.0000  0.0000  0.0000  0.0000 </r>
       </set>
       <set comment="band 6">
        <r>  0.0000  0.0000  0.0528  0.0528  0.0000  0.0000  0.0000  0.0000  0.0000 </r>
       </set>
       <set comment="band 7">
        <r>  0.0892  0.1755  0.0097  0.0097  0.0000  0.0000  0.0000  0.0000  0.0000 </r>
       </set>
       <set comment="band 8">
        <r>  0.0000  0.0000  0.0390  0.0390  0.0000  0.0000  0.0000  0.0000  0.0000 </r>
       </set>
      </set>
      <set comment="kpoint 32">
       <set comment="band 1">
        <r>  0.3192  0.0036  0.0346  0.0346  0.0000  0.0000  0.0000  0.0000  0.0000 </r>
       </set>
       <set comment="band 2">
        <r>  0.1024  0.1412  0.0595  0.0595  0.0000  0.0000  0.0000  0.0000  0.0000 </r>
       </set>
       <set comment="band 3">
        <r>  0.0819  0.1655  0.0793  0.0793  0.0000  0.0000  0.0000  0.0000  0.0000 </r>
       </set>
       <set comment="band 4">
        <r>  0.0000  0.0000  0.2710  0.2710  0.0000  0.0000  0.0000  0.0000  0.0000 </r>
       </set>
       <set comment="band 5">
        <r>  0.0537  0.0077  0.0459  0.0459  0.0000  0.0000  0.0000  0.0000  0.0000 </r>
       </set>
       <set comment="band 6">
        <r>  0.0000  0.0000  0.0341  0.0340  0.0000  0.0000  0.0000  0.0000  0.0000 </r>
       </set>
       <set comment="band 7">
        <r>  0.0608  0.2270  0.0023  0.0023  0.0000  0.0000  0.0000  0.0000  0.0000 </r>
       </set>
       <set comment="band 8">
        <r>  0.0000  0.0000  0.0460  0.0460  0.0000  0.0000  0.0000  0.0000  0.0000 </r>
       </set>
      </set>
      <set comment="kpoint 33">
       <set comment="band 1">
        <r>  0.3382  0.0010  0.0250  0.0250  0.0000  0.0000  0.0000  0.0000  0.0000 </r>
       </set>
       <set comment="band 2">
        <r>  0.0656  0.1697  0.0572  0.0572  0.0000  0.0000  0.0000  0.0000  0.0000 </r>
       </set>
       <set comment="band 3">
        <r>  0.0834  0.1253  0.0999  0.0999  0.0000  0.0000  0.0000  0.0000  0.0000 </r>
       </set>
       <set comment="band 4">
        <r>  0.0000  0.0000  0.3001  0.3001  0.0000  0.0000  0.0000  0.0000  0.0000 </r>
       </set>
       <set comment="band 5">
        <r>  0.0480  0.0026  0.0552  0.0557  0.0000  0.0000  0.0000  0.0000  0.0000 </r>
       </set>
       <set comment="band 6">
        <r>  0.0000  0.0000  0.0116  0.0111  0.0000  0.0000  0.0000  0.0000  0.0000 </r>
       </set>
       <set comment="band 7">
        <r>  0.0224  0.2972  0.0001  0.0001  0.0000  0.0000  0.0000  0.0000  0.0000 </r>
       </set>
       <set comment="band 8">
        <r>  0.0000  0.0000  0.0438  0.0438  0.0000  0.0000  0.0000  0.0000  0.0000 </r>
       </set>
      </set>
      <set comment="kpoint 34">
       <set comment="band 1">
        <r>  0.3546  0.0000  0.0166  0.0166  0.0000  0.0000  0.0000  0.0000  0.0000 </r>
       </set>
       <set comment="band 2">
        <r>  0.0000  0.2903  0.0000  0.0000  0.0000  0.0000  0.0000  0.0000  0.0000 </r>
       </set>
       <set comment="band 3">
        <r>  0.1114  0.0000  0.1758  0.1758  0.0000  0.0000  0.0000  0.0000  0.0000 </r>
       </set>
       <set comment="band 4">
        <r>  0.0000  0.0000  0.3386  0.3386  0.0000  0.0000  0.0000  0.0000  0.0000 </r>
       </set>
       <set comment="band 5">
        <r>  0.0000  0.0000  0.0000  0.0000  0.0000  0.0000  0.0000  0.0000  0.0000 </r>
       </set>
       <set comment="band 6">
        <r>  0.0000  0.3459  0.0000  0.0000  0.0000  0.0000  0.0000  0.0000  0.0000 </r>
       </set>
       <set comment="band 7">
        <r>  0.0483  0.0000  0.0657  0.0657  0.0000  0.0000  0.0000  0.0000  0.0000 </r>
       </set>
       <set comment="band 8">
        <r>  0.0000  0.0000  0.0171  0.0171  0.0000  0.0000  0.0000  0.0000  0.0000 </r>
       </set>
      </set>
      <set comment="kpoint 35">
       <set comment="band 1">
        <r>  0.3505  0.0377  0.0000  0.0000  0.0000  0.0000  0.0000  0.0000  0.0000 </r>
       </set>
       <set comment="band 2">
        <r>  0.0000  0.0000  0.2177  0.2177  0.0000  0.0000  0.0000  0.0000  0.0000 </r>
       </set>
       <set comment="band 3">
        <r>  0.0000  0.0000  0.2177  0.2177  0.0000  0.0000  0.0000  0.0000  0.0000 </r>
       </set>
       <set comment="band 4">
        <r>  0.1802  0.4836  0.0000  0.0000  0.0000  0.0000  0.0000  0.0000  0.0000 </r>
       </set>
       <set comment="band 5">
        <r>  0.0000  0.0000  0.0000  0.0000  0.0000  0.0000  0.0000  0.0000  0.0000 </r>
       </set>
       <set comment="band 6">
        <r>  0.0374  0.0014  0.0000  0.0000  0.0000  0.0000  0.0000  0.0000  0.0000 </r>
       </set>
       <set comment="band 7">
        <r>  0.0000  0.0000  0.1220  0.1236  0.0000  0.0000  0.0000  0.0000  0.0000 </r>
       </set>
       <set comment="band 8">
        <r>  0.0000  0.0000  0.1236  0.1219  0.0000  0.0000  0.0000  0.0000  0.0000 </r>
       </set>
      </set>
      <set comment="kpoint 36">
       <set comment="band 1">
        <r>  0.3369  0.0503  0.0010  0.0010  0.0000  0.0000  0.0000  0.0000  0.0000 </r>
       </set>
       <set comment="band 2">
        <r>  0.0451  0.0383  0.1475  0.1475  0.0000  0.0000  0.0000  0.0000  0.0000 </r>
       </set>
       <set comment="band 3">
        <r>  0.0000  0.0000  0.2211  0.2211  0.0000  0.0000  0.0000  0.0000  0.0000 </r>
       </set>
       <set comment="band 4">
        <r>  0.1438  0.3694  0.0095  0.0095  0.0000  0.0000  0.0000  0.0000  0.0000 </r>
       </set>
       <set comment="band 5">
        <r>  0.0019  0.0055  0.0330  0.0330  0.0000  0.0000  0.0000  0.0000  0.0000 </r>
       </set>
       <set comment="band 6">
        <r>  0.0697  0.0261  0.0324  0.0324  0.0000  0.0000  0.0000  0.0000  0.0000 </r>
       </set>
       <set comment="band 7">
        <r>  0.0000  0.0000  0.0895  0.0900  0.0000  0.0000  0.0000  0.0000  0.0000 </r>
       </set>
       <set comment="band 8">
        <r>  0.0164  0.0045  0.1047  0.1041  0.0000  0.0000  0.0000  0.0000  0.0000 </r>
       </set>
      </set>
      <set comment="kpoint 37">
       <set comment="band 1">
        <r>  0.3195  0.0642  0.0037  0.0037  0.0000  0.0000  0.0000  0.0000  0.0000 </r>
       </set>
       <set comment="band 2">
        <r>  0.0810  0.0398  0.1245  0.1245  0.0000  0.0000  0.0000  0.0000  0.0000 </r>
       </set>
       <set comment="band 3">
        <r>  0.0000  0.0000  0.2230  0.2230  0.0000  0.0000  0.0000  0.0000  0.0000 </r>
       </set>
       <set comment="band 4">
        <r>  0.1264  0.3179  0.0153  0.0153  0.0000  0.0000  0.0000  0.0000  0.0000 </r>
       </set>
       <set comment="band 5">
        <r>  0.0434  0.0038  0.0052  0.0052  0.0000  0.0000  0.0000  0.0000  0.0000 </r>
       </set>
       <set comment="band 6">
        <r>  0.0448  0.0348  0.0858  0.0858  0.0000  0.0000  0.0000  0.0000  0.0000 </r>
       </set>
       <set comment="band 7">
        <r>  0.0000  0.0000  0.0746  0.0747  0.0000  0.0000  0.0000  0.0000  0.0000 </r>
       </set>
       <set comment="band 8">
        <r>  0.0474  0.0188  0.0747  0.0746  0.0000  0.0000  0.0000  0.0000  0.0000 </r>
       </set>
      </set>
      <set comment="kpoint 38">
       <set comment="band 1">
        <r>  0.3001  0.0788  0.0077  0.0077  0.0000  0.0000  0.0000  0.0000  0.0000 </r>
       </set>
       <set comment="band 2">
        <r>  0.1116  0.0349  0.1115  0.1115  0.0000  0.0000  0.0000  0.0000  0.0000 </r>
       </set>
       <set comment="band 3">
        <r>  0.1184  0.2786  0.0203  0.0203  0.0000  0.0000  0.0000  0.0000  0.0000 </r>
       </set>
       <set comment="band 4">
        <r>  0.0000  0.0000  0.2256  0.2255  0.0000  0.0000  0.0000  0.0000  0.0000 </r>
       </set>
       <set comment="band 5">
        <r>  0.0741  0.0130  0.0000  0.0000  0.0000  0.0000  0.0000  0.0000  0.0000 </r>
       </set>
       <set comment="band 6">
        <r>  0.0189  0.0316  0.1117  0.1117  0.0000  0.0000  0.0000  0.0000  0.0000 </r>
       </set>
       <set comment="band 7">
        <r>  0.0000  0.0000  0.0724  0.0724  0.0000  0.0000  0.0000  0.0000  0.0000 </r>
       </set>
       <set comment="band 8">
        <r>  0.0774  0.0396  0.0431  0.0431  0.0000  0.0000  0.0000  0.0000  0.0000 </r>
       </set>
      </set>
      <set comment="kpoint 39">
       <set comment="band 1">
        <r>  0.2820  0.0921  0.0118  0.0118  0.0000  0.0000  0.0000  0.0000  0.0000 </r>
       </set>
       <set comment="band 2">
        <r>  0.1358  0.0305  0.1023  0.1023  0.0000  0.0000  0.0000  0.0000  0.0000 </r>
       </set>
       <set comment="band 3">
        <r>  0.1166  0.2481  0.0264  0.0264  0.0000  0.0000  0.0000  0.0000  0.0000 </r>
       </set>
       <set comment="band 4">
        <r>  0.0000  0.0000  0.2273  0.2273  0.0000  0.0000  0.0000  0.0000  0.0000 </r>
       </set>
       <set comment="band 5">
        <r>  0.0894  0.0147  0.0033  0.0033  0.0000  0.0000  0.0000  0.0000  0.0000 </r>
       </set>
       <set comment="band 6">
        <r>  0.0013  0.0370  0.1264  0.1265  0.0000  0.0000  0.0000  0.0000  0.0000 </r>
       </set>
       <set comment="band 7">
        <r>  0.0000  0.0000  0.0726  0.0726  0.0000  0.0000  0.0000  0.0000  0.0000 </r>
       </set>
       <set comment="band 8">
        <r>  0.0910  0.0582  0.0102  0.0102  0.0000  0.0000  0.0000  0.0000  0.0000 </r>
       </set>
      </set>
      <set comment="kpoint 40">
       <set comment="band 1">
        <r>  0.2978  0.0957  0.0099  0.0099  0.0000  0.0000  0.0000  0.0000  0.0000 </r>
       </set>
       <set comment="band 2">
        <r>  0.1225  0.0358  0.0997  0.0997  0.0000  0.0000  0.0000  0.0000  0.0000 </r>
       </set>
       <set comment="band 3">
        <r>  0.1173  0.2214  0.0338  0.0338  0.0000  0.0000  0.0000  0.0000  0.0000 </r>
       </set>
       <set comment="band 4">
        <r>  0.0000  0.0000  0.2287  0.2287  0.0000  0.0000  0.0000  0.0000  0.0000 </r>
       </set>
       <set comment="band 5">
        <r>  0.0943  0.0124  0.0101  0.0101  0.0000  0.0000  0.0000  0.0000  0.0000 </r>
       </set>
       <set comment="band 6">
        <r>  0.0000  0.0000  0.0736  0.0737  0.0000  0.0000  0.0000  0.0000  0.0000 </r>
       </set>
       <set comment="band 7">
        <r>  0.0163  0.0774  0.1129  0.1129  0.0000  0.0000  0.0000  0.0000  0.0000 </r>
       </set>
       <set comment="band 8">
        <r>  0.0608  0.0506  0.0080  0.0080  0.0000  0.0000  0.0000  0.0000  0.0000 </r>
       </set>
      </set>
      <set comment="kpoint 41">
       <set comment="band 1">
        <r>  0.3019  0.0014  0.0553  0.0553  0.0000  0.0000  0.0000  0.0000  0.0000 </r>
       </set>
       <set comment="band 2">
        <r>  0.1163  0.1405  0.0495  0.0495  0.0000  0.0000  0.0000  0.0000  0.0000 </r>
       </set>
       <set comment="band 3">
        <r>  0.1199  0.1943  0.0436  0.0436  0.0000  0.0000  0.0000  0.0000  0.0000 </r>
       </set>
       <set comment="band 4">
        <r>  0.0000  0.0000  0.2299  0.2299  0.0000  0.0000  0.0000  0.0000  0.0000 </r>
       </set>
       <set comment="band 5">
        <r>  0.0924  0.0082  0.0189  0.0189  0.0000  0.0000  0.0000  0.0000  0.0000 </r>
       </set>
       <set comment="band 6">
        <r>  0.0000  0.0000  0.0734  0.0735  0.0000  0.0000  0.0000  0.0000  0.0000 </r>
       </set>
       <set comment="band 7">
        <r>  0.0497  0.1422  0.0506  0.0506  0.0000  0.0000  0.0000  0.0000  0.0000 </r>
       </set>
       <set comment="band 8">
        <r>  0.0046  0.0417  0.0531  0.0526  0.0000  0.0000  0.0000  0.0000  0.0000 </r>
       </set>
      </set>
      <set comment="kpoint 42">
       <set comment="band 1">
        <r>  0.2853  0.0025  0.0553  0.0553  0.0000  0.0000  0.0000  0.0000  0.0000 </r>
       </set>
       <set comment="band 2">
        <r>  0.1247  0.1541  0.0433  0.0432  0.0000  0.0000  0.0000  0.0000  0.0000 </r>
       </set>
       <set comment="band 3">
        <r>  0.1240  0.1639  0.0563  0.0563  0.0000  0.0000  0.0000  0.0000  0.0000 </r>
       </set>
       <set comment="band 4">
        <r>  0.0000  0.0000  0.2325  0.2325  0.0000  0.0000  0.0000  0.0000  0.0000 </r>
       </set>
       <set comment="band 5">
        <r>  0.0856  0.0043  0.0285  0.0285  0.0000  0.0000  0.0000  0.0000  0.0000 </r>
       </set>
       <set comment="band 6">
        <r>  0.0000  0.0000  0.0713  0.0713  0.0000  0.0000  0.0000  0.0000  0.0000 </r>
       </set>
       <set comment="band 7">
        <r>  0.0443  0.2013  0.0170  0.0170  0.0000  0.0000  0.0000  0.0000  0.0000 </r>
       </set>
       <set comment="band 8">
        <r>  0.0000  0.0000  0.0372  0.0371  0.0000  0.0000  0.0000  0.0000  0.0000 </r>
       </set>
      </set>
      <set comment="kpoint 43">
       <set comment="band 1">
        <r>  0.3023  0.0008  0.0455  0.0455  0.0000  0.0000  0.0000  0.0000  0.0000 </r>
       </set>
       <set comment="band 2">
        <r>  0.0872  0.1870  0.0402  0.0402  0.0000  0.0000  0.0000  0.0000  0.0000 </r>
       </set>
       <set comment="band 3">
        <r>  0.1358  0.1197  0.0766  0.0766  0.0000  0.0000  0.0000  0.0000  0.0000 </r>
       </set>
       <set comment="band 4">
        <r>  0.0000  0.0000  0.2395  0.2395  0.0000  0.0000  0.0000  0.0000  0.0000 </r>
       </set>
       <set comment="band 5">
        <r>  0.0744  0.0013  0.0379  0.0379  0.0000  0.0000  0.0000  0.0000  0.0000 </r>
       </set>
       <set comment="band 6">
        <r>  0.0000  0.0000  0.0665  0.0666  0.0000  0.0000  0.0000  0.0000  0.0000 </r>
       </set>
       <set comment="band 7">
        <r>  0.0183  0.2675  0.0030  0.0030  0.0000  0.0000  0.0000  0.0000  0.0000 </r>
       </set>
       <set comment="band 8">
        <r>  0.0000  0.0000  0.0427  0.0427  0.0000  0.0000  0.0000  0.0000  0.0000 </r>
       </set>
      </set>
      <set comment="kpoint 44">
       <set comment="band 1">
        <r>  0.3214  0.0000  0.0349  0.0349  0.0000  0.0000  0.0000  0.0000  0.0000 </r>
       </set>
       <set comment="band 2">
        <r>  0.0000  0.2972  0.0000  0.0000  0.0000  0.0000  0.0000  0.0000  0.0000 </r>
       </set>
       <set comment="band 3">
        <r>  0.1888  0.0000  0.1364  0.1364  0.0000  0.0000  0.0000  0.0000  0.0000 </r>
       </set>
       <set comment="band 4">
        <r>  0.0000  0.0000  0.2567  0.2567  0.0000  0.0000  0.0000  0.0000  0.0000 </r>
       </set>
       <set comment="band 5">
        <r>  0.0608  0.0000  0.0470  0.0470  0.0000  0.0000  0.0000  0.0000  0.0000 </r>
       </set>
       <set comment="band 6">
        <r>  0.0000  0.0000  0.0965  0.0965  0.0000  0.0000  0.0000  0.0000  0.0000 </r>
       </set>
       <set comment="band 7">
        <r>  0.0000  0.0000  0.0000  0.0000  0.0000  0.0000  0.0000  0.0000  0.0000 </r>
       </set>
       <set comment="band 8">
        <r>  0.0000  0.3185  0.0000  0.0000  0.0000  0.0000  0.0000  0.0000  0.0000 </r>
       </set>
      </set>
      <set comment="kpoint 45">
       <set comment="band 1">
        <r>  0.3256  0.0656  0.0000  0.0000  0.0000  0.0000  0.0000  0.0000  0.0000 </r>
       </set>
       <set comment="band 2">
        <r>  0.0000  0.0000  0.2230  0.2230  0.0000  0.0000  0.0000  0.0000  0.0000 </r>
       </set>
       <set comment="band 3">
        <r>  0.0000  0.0000  0.2230  0.2230  0.0000  0.0000  0.0000  0.0000  0.0000 </r>
       </set>
       <set comment="band 4">
        <r>  0.1757  0.3569  0.0000  0.0000  0.0000  0.0000  0.0000  0.0000  0.0000 </r>
       </set>
       <set comment="band 5">
        <r>  0.0000  0.0000  0.0000  0.0000  0.0000  0.0000  0.0000  0.0000  0.0000 </r>
       </set>
       <set comment="band 6">
        <r>  0.1312  0.0352  0.0000  0.0000  0.0000  0.0000  0.0000  0.0000  0.0000 </r>
       </set>
       <set comment="band 7">
        <r>  0.0000  0.0000  0.0760  0.1438  0.0000  0.0000  0.0000  0.0000  0.0000 </r>
       </set>
       <set comment="band 8">
        <r>  0.0000  0.0000  0.1438  0.0760  0.0000  0.0000  0.0000  0.0000  0.0000 </r>
       </set>
      </set>
      <set comment="kpoint 46">
       <set comment="band 1">
        <r>  0.3091  0.0813  0.0009  0.0009  0.0000  0.0000  0.0000  0.0000  0.0000 </r>
       </set>
       <set comment="band 2">
        <r>  0.0975  0.0823  0.1245  0.1245  0.0000  0.0000  0.0000  0.0000  0.0000 </r>
       </set>
       <set comment="band 3">
        <r>  0.0954  0.2273  0.0367  0.0367  0.0000  0.0000  0.0000  0.0000  0.0000 </r>
       </set>
       <set comment="band 4">
        <r>  0.0000  0.0000  0.2262  0.2262  0.0000  0.0000  0.0000  0.0000  0.0000 </r>
       </set>
       <set comment="band 5">
        <r>  0.0263  0.0030  0.0235  0.0235  0.0000  0.0000  0.0000  0.0000  0.0000 </r>
       </set>
       <set comment="band 6">
        <r>  0.1275  0.0366  0.0435  0.0435  0.0000  0.0000  0.0000  0.0000  0.0000 </r>
       </set>
       <set comment="band 7">
        <r>  0.0000  0.0000  0.0574  0.0575  0.0000  0.0000  0.0000  0.0000  0.0000 </r>
       </set>
       <set comment="band 8">
        <r>  0.0130  0.0091  0.0893  0.0890  0.0000  0.0000  0.0000  0.0000  0.0000 </r>
       </set>
      </set>
      <set comment="kpoint 47">
       <set comment="band 1">
        <r>  0.2894  0.0977  0.0033  0.0033  0.0000  0.0000  0.0000  0.0000  0.0000 </r>
       </set>
       <set comment="band 2">
        <r>  0.1097  0.0407  0.1202  0.1202  0.0000  0.0000  0.0000  0.0000  0.0000 </r>
       </set>
       <set comment="band 3">
        <r>  0.1168  0.2346  0.0210  0.0210  0.0000  0.0000  0.0000  0.0000  0.0000 </r>
       </set>
       <set comment="band 4">
        <r>  0.0000  0.0000  0.2283  0.2283  0.0000  0.0000  0.0000  0.0000  0.0000 </r>
       </set>
       <set comment="band 5">
        <r>  0.0828  0.0108  0.0029  0.0029  0.0000  0.0000  0.0000  0.0000  0.0000 </r>
       </set>
       <set comment="band 6">
        <r>  0.0697  0.0229  0.0896  0.0896  0.0000  0.0000  0.0000  0.0000  0.0000 </r>
       </set>
       <set comment="band 7">
        <r>  0.0000  0.0000  0.0598  0.0598  0.0000  0.0000  0.0000  0.0000  0.0000 </r>
       </set>
       <set comment="band 8">
        <r>  0.0352  0.0354  0.0613  0.0612  0.0000  0.0000  0.0000  0.0000  0.0000 </r>
       </set>
      </set>
      <set comment="kpoint 48">
       <set comment="band 1">
        <r>  0.2689  0.1144  0.0066  0.0066  0.0000  0.0000  0.0000  0.0000  0.0000 </r>
       </set>
       <set comment="band 2">
        <r>  0.1306  0.0273  0.1111  0.1111  0.0000  0.0000  0.0000  0.0000  0.0000 </r>
       </set>
       <set comment="band 3">
        <r>  0.1294  0.2184  0.0218  0.0218  0.0000  0.0000  0.0000  0.0000  0.0000 </r>
       </set>
       <set comment="band 4">
        <r>  0.0000  0.0000  0.2293  0.2293  0.0000  0.0000  0.0000  0.0000  0.0000 </r>
       </set>
       <set comment="band 5">
        <r>  0.1069  0.0105  0.0002  0.0002  0.0000  0.0000  0.0000  0.0000  0.0000 </r>
       </set>
       <set comment="band 6">
        <r>  0.0352  0.0151  0.1079  0.1079  0.0000  0.0000  0.0000  0.0000  0.0000 </r>
       </set>
       <set comment="band 7">
        <r>  0.0000  0.0000  0.0633  0.0633  0.0000  0.0000  0.0000  0.0000  0.0000 </r>
       </set>
       <set comment="band 8">
        <r>  0.0489  0.0726  0.0335  0.0335  0.0000  0.0000  0.0000  0.0000  0.0000 </r>
       </set>
      </set>
      <set comment="kpoint 49">
       <set comment="band 1">
        <r>  0.2588  0.1281  0.0080  0.0080  0.0000  0.0000  0.0000  0.0000  0.0000 </r>
       </set>
       <set comment="band 2">
        <r>  0.1396  0.0236  0.1040  0.1040  0.0000  0.0000  0.0000  0.0000  0.0000 </r>
       </set>
       <set comment="band 3">
        <r>  0.1402  0.1962  0.0272  0.0272  0.0000  0.0000  0.0000  0.0000  0.0000 </r>
       </set>
       <set comment="band 4">
        <r>  0.0000  0.0000  0.2295  0.2295  0.0000  0.0000  0.0000  0.0000  0.0000 </r>
       </set>
       <set comment="band 5">
        <r>  0.1136  0.0071  0.0042  0.0042  0.0000  0.0000  0.0000  0.0000  0.0000 </r>
       </set>
       <set comment="band 6">
        <r>  0.0127  0.0125  0.1185  0.1185  0.0000  0.0000  0.0000  0.0000  0.0000 </r>
       </set>
       <set comment="band 7">
        <r>  0.0000  0.0000  0.0666  0.0666  0.0000  0.0000  0.0000  0.0000  0.0000 </r>
       </set>
       <set comment="band 8">
        <r>  0.0484  0.1167  0.0104  0.0104  0.0000  0.0000  0.0000  0.0000  0.0000 </r>
       </set>
      </set>
      <set comment="kpoint 50">
       <set comment="band 1">
        <r>  0.3505  0.0070  0.0439  0.0439  0.0000  0.0000  0.0000  0.0000  0.0000 </r>
       </set>
       <set comment="band 2">
        <r>  0.0412  0.1607  0.0617  0.0617  0.0000  0.0000  0.0000  0.0000  0.0000 </r>
       </set>
       <set comment="band 3">
        <r>  0.1523  0.1679  0.0363  0.0363  0.0000  0.0000  0.0000  0.0000  0.0000 </r>
       </set>
       <set comment="band 4">
        <r>  0.0000  0.0000  0.2290  0.2289  0.0000  0.0000  0.0000  0.0000  0.0000 </r>
       </set>
       <set comment="band 5">
        <r>  0.1119  0.0035  0.0112  0.0112  0.0000  0.0000  0.0000  0.0000  0.0000 </r>
       </set>
       <set comment="band 6">
        <r>  0.0001  0.0221  0.1162  0.1224  0.0000  0.0000  0.0000  0.0000  0.0000 </r>
       </set>
       <set comment="band 7">
        <r>  0.0000  0.0000  0.0742  0.0680  0.0000  0.0000  0.0000  0.0000  0.0000 </r>
       </set>
       <set comment="band 8">
        <r>  0.0296  0.1616  0.0002  0.0002  0.0000  0.0000  0.0000  0.0000  0.0000 </r>
       </set>
      </set>
      <set comment="kpoint 51">
       <set comment="band 1">
        <r>  0.2698  0.0004  0.0658  0.0658  0.0000  0.0000  0.0000  0.0000  0.0000 </r>
       </set>
       <set comment="band 2">
        <r>  0.0990  0.2018  0.0286  0.0286  0.0000  0.0000  0.0000  0.0000  0.0000 </r>
       </set>
       <set comment="band 3">
        <r>  0.1750  0.1223  0.0525  0.0525  0.0000  0.0000  0.0000  0.0000  0.0000 </r>
       </set>
       <set comment="band 4">
        <r>  0.0000  0.0000  0.2286  0.2286  0.0000  0.0000  0.0000  0.0000  0.0000 </r>
       </set>
       <set comment="band 5">
        <r>  0.1044  0.0010  0.0196  0.0196  0.0000  0.0000  0.0000  0.0000  0.0000 </r>
       </set>
       <set comment="band 6">
        <r>  0.0000  0.0000  0.0787  0.0787  0.0000  0.0000  0.0000  0.0000  0.0000 </r>
       </set>
       <set comment="band 7">
        <r>  0.0121  0.1696  0.0390  0.0390  0.0000  0.0000  0.0000  0.0000  0.0000 </r>
       </set>
       <set comment="band 8">
        <r>  0.0000  0.0000  0.0274  0.0276  0.0000  0.0000  0.0000  0.0000  0.0000 </r>
       </set>
      </set>
      <set comment="kpoint 52">
       <set comment="band 1">
        <r>  0.2834  0.0000  0.0565  0.0565  0.0000  0.0000  0.0000  0.0000  0.0000 </r>
       </set>
       <set comment="band 2">
        <r>  0.0000  0.3142  0.0000  0.0000  0.0000  0.0000  0.0000  0.0000  0.0000 </r>
       </set>
       <set comment="band 3">
        <r>  0.2545  0.0000  0.0970  0.0970  0.0000  0.0000  0.0000  0.0000  0.0000 </r>
       </set>
       <set comment="band 4">
        <r>  0.0000  0.0000  0.2303  0.2303  0.0000  0.0000  0.0000  0.0000  0.0000 </r>
       </set>
       <set comment="band 5">
        <r>  0.0915  0.0000  0.0289  0.0289  0.0000  0.0000  0.0000  0.0000  0.0000 </r>
       </set>
       <set comment="band 6">
        <r>  0.0000  0.0000  0.1136  0.1136  0.0000  0.0000  0.0000  0.0000  0.0000 </r>
       </set>
       <set comment="band 7">
        <r>  0.0000  0.0000  0.0000  0.0000  0.0000  0.0000  0.0000  0.0000  0.0000 </r>
       </set>
       <set comment="band 8">
        <r>  0.0000  0.2744  0.0000  0.0000  0.0000  0.0000  0.0000  0.0000  0.0000 </r>
       </set>
      </set>
      <set comment="kpoint 53">
       <set comment="band 1">
        <r>  0.2936  0.0991  0.0000  0.0000  0.0000  0.0000  0.0000  0.0000  0.0000 </r>
       </set>
       <set comment="band 2">
        <r>  0.1792  0.2729  0.0000  0.0000  0.0000  0.0000  0.0000  0.0000  0.0000 </r>
       </set>
       <set comment="band 3">
        <r>  0.0000  0.0000  0.2294  0.2294  0.0000  0.0000  0.0000  0.0000  0.0000 </r>
       </set>
       <set comment="band 4">
        <r>  0.0000  0.0000  0.2295  0.2295  0.0000  0.0000  0.0000  0.0000  0.0000 </r>
       </set>
       <set comment="band 5">
        <r>  0.0000  0.0000  0.0000  0.0000  0.0000  0.0000  0.0000  0.0000  0.0000 </r>
       </set>
       <set comment="band 6">
        <r>  0.2099  0.0350  0.0000  0.0000  0.0000  0.0000  0.0000  0.0000  0.0000 </r>
       </set>
       <set comment="band 7">
        <r>  0.0000  0.0000  0.0000  0.0000  0.0000  0.0000  0.0000  0.0000  0.0000 </r>
       </set>
       <set comment="band 8">
        <r>  0.0000  0.0000  0.1655  0.0023  0.0000  0.0000  0.0000  0.0000  0.0000 </r>
       </set>
      </set>
      <set comment="kpoint 54">
       <set comment="band 1">
        <r>  0.2741  0.1180  0.0008  0.0008  0.0000  0.0000  0.0000  0.0000  0.0000 </r>
       </set>
       <set comment="band 2">
        <r>  0.2016  0.2447  0.0002  0.0002  0.0000  0.0000  0.0000  0.0000  0.0000 </r>
       </set>
       <set comment="band 3">
        <r>  0.0152  0.0000  0.1627  0.1627  0.0000  0.0000  0.0000  0.0000  0.0000 </r>
       </set>
       <set comment="band 4">
        <r>  0.0000  0.0000  0.2316  0.2316  0.0000  0.0000  0.0000  0.0000  0.0000 </r>
       </set>
       <set comment="band 5">
        <r>  0.0415  0.0034  0.0224  0.0224  0.0000  0.0000  0.0000  0.0000  0.0000 </r>
       </set>
       <set comment="band 6">
        <r>  0.1660  0.0211  0.0472  0.0472  0.0000  0.0000  0.0000  0.0000  0.0000 </r>
       </set>
       <set comment="band 7">
        <r>  0.0000  0.0000  0.0370  0.0371  0.0000  0.0000  0.0000  0.0000  0.0000 </r>
       </set>
       <set comment="band 8">
        <r>  0.0087  0.0154  0.0623  0.0620  0.0000  0.0000  0.0000  0.0000  0.0000 </r>
       </set>
      </set>
      <set comment="kpoint 55">
       <set comment="band 1">
        <r>  0.2513  0.1383  0.0028  0.0028  0.0000  0.0000  0.0000  0.0000  0.0000 </r>
       </set>
       <set comment="band 2">
        <r>  0.2580  0.2026  0.0072  0.0072  0.0000  0.0000  0.0000  0.0000  0.0000 </r>
       </set>
       <set comment="band 3">
        <r>  0.0045  0.0150  0.1358  0.1358  0.0000  0.0000  0.0000  0.0000  0.0000 </r>
       </set>
       <set comment="band 4">
        <r>  0.0000  0.0000  0.2324  0.2324  0.0000  0.0000  0.0000  0.0000  0.0000 </r>
       </set>
       <set comment="band 5">
        <r>  0.1038  0.0054  0.0026  0.0026  0.0000  0.0000  0.0000  0.0000  0.0000 </r>
       </set>
       <set comment="band 6">
        <r>  0.0866  0.0091  0.0918  0.0918  0.0000  0.0000  0.0000  0.0000  0.0000 </r>
       </set>
       <set comment="band 7">
        <r>  0.0000  0.0000  0.0474  0.0475  0.0000  0.0000  0.0000  0.0000  0.0000 </r>
       </set>
       <set comment="band 8">
        <r>  0.0193  0.0575  0.0347  0.0347  0.0000  0.0000  0.0000  0.0000  0.0000 </r>
       </set>
      </set>
      <set comment="kpoint 56">
       <set comment="band 1">
        <r>  0.2274  0.1601  0.0046  0.0046  0.0000  0.0000  0.0000  0.0000  0.0000 </r>
       </set>
       <set comment="band 2">
        <r>  0.2236  0.0591  0.0770  0.0770  0.0000  0.0000  0.0000  0.0000  0.0000 </r>
       </set>
       <set comment="band 3">
        <r>  0.0792  0.1289  0.0585  0.0585  0.0000  0.0000  0.0000  0.0000  0.0000 </r>
       </set>
       <set comment="band 4">
        <r>  0.0000  0.0000  0.2321  0.2321  0.0000  0.0000  0.0000  0.0000  0.0000 </r>
       </set>
       <set comment="band 5">
        <r>  0.1235  0.0030  0.0003  0.0003  0.0000  0.0000  0.0000  0.0000  0.0000 </r>
       </set>
       <set comment="band 6">
        <r>  0.0455  0.0038  0.1079  0.1079  0.0000  0.0000  0.0000  0.0000  0.0000 </r>
       </set>
       <set comment="band 7">
        <r>  0.0000  0.0000  0.0556  0.0556  0.0000  0.0000  0.0000  0.0000  0.0000 </r>
       </set>
       <set comment="band 8">
        <r>  0.0183  0.1144  0.0131  0.0131  0.0000  0.0000  0.0000  0.0000  0.0000 </r>
       </set>
      </set>
      <set comment="kpoint 57">
       <set comment="band 1">
        <r>  0.2792  0.1543  0.0001  0.0001  0.0000  0.0000  0.0000  0.0000  0.0000 </r>
       </set>
       <set comment="band 2">
        <r>  0.0974  0.0683  0.0946  0.0946  0.0000  0.0000  0.0000  0.0000  0.0000 </r>
       </set>
       <set comment="band 3">
        <r>  0.1654  0.1174  0.0444  0.0444  0.0000  0.0000  0.0000  0.0000  0.0000 </r>
       </set>
       <set comment="band 4">
        <r>  0.0000  0.0000  0.2308  0.2308  0.0000  0.0000  0.0000  0.0000  0.0000 </r>
       </set>
       <set comment="band 5">
        <r>  0.1242  0.0008  0.0044  0.0044  0.0000  0.0000  0.0000  0.0000  0.0000 </r>
       </set>
       <set comment="band 6">
        <r>  0.0196  0.0015  0.1160  0.1160  0.0000  0.0000  0.0000  0.0000  0.0000 </r>
       </set>
       <set comment="band 7">
        <r>  0.0000  0.0000  0.0681  0.0681  0.0000  0.0000  0.0000  0.0000  0.0000 </r>
       </set>
       <set comment="band 8">
        <r>  0.0076  0.1731  0.0019  0.0018  0.0000  0.0000  0.0000  0.0000  0.0000 </r>
       </set>
      </set>
      <set comment="kpoint 58">
       <set comment="band 1">
        <r>  0.2662  0.0000  0.0730  0.0730  0.0000  0.0000  0.0000  0.0000  0.0000 </r>
       </set>
       <set comment="band 2">
        <r>  0.0000  0.3316  0.0000  0.0000  0.0000  0.0000  0.0000  0.0000  0.0000 </r>
       </set>
       <set comment="band 3">
        <r>  0.2801  0.0000  0.0686  0.0686  0.0000  0.0000  0.0000  0.0000  0.0000 </r>
       </set>
       <set comment="band 4">
        <r>  0.0000  0.0000  0.2291  0.2291  0.0000  0.0000  0.0000  0.0000  0.0000 </r>
       </set>
       <set comment="band 5">
        <r>  0.1175  0.0000  0.0113  0.0113  0.0000  0.0000  0.0000  0.0000  0.0000 </r>
       </set>
       <set comment="band 6">
        <r>  0.0027  0.0000  0.1180  0.1180  0.0000  0.0000  0.0000  0.0000  0.0000 </r>
       </set>
       <set comment="band 7">
        <r>  0.0000  0.0000  0.0961  0.0961  0.0000  0.0000  0.0000  0.0000  0.0000 </r>
       </set>
       <set comment="band 8">
        <r>  0.0000  0.0000  0.0000  0.0000  0.0000  0.0000  0.0000  0.0000  0.0000 </r>
       </set>
      </set>
      <set comment="kpoint 59">
       <set comment="band 1">
        <r>  0.2543  0.1410  0.0000  0.0000  0.0000  0.0000  0.0000  0.0000  0.0000 </r>
       </set>
       <set comment="band 2">
        <r>  0.2080  0.2163  0.0000  0.0000  0.0000  0.0000  0.0000  0.0000  0.0000 </r>
       </set>
       <set comment="band 3">
        <r>  0.0000  0.0000  0.2337  0.2337  0.0000  0.0000  0.0000  0.0000  0.0000 </r>
       </set>
       <set comment="band 4">
        <r>  0.0000  0.0000  0.2338  0.2338  0.0000  0.0000  0.0000  0.0000  0.0000 </r>
       </set>
       <set comment="band 5">
        <r>  0.0000  0.0000  0.0000  0.0000  0.0000  0.0000  0.0000  0.0000  0.0000 </r>
       </set>
       <set comment="band 6">
        <r>  0.2543  0.0161  0.0000  0.0000  0.0000  0.0000  0.0000  0.0000  0.0000 </r>
       </set>
       <set comment="band 7">
        <r>  0.0000  0.0000  0.0000  0.0000  0.0000  0.0000  0.0000  0.0000  0.0000 </r>
       </set>
       <set comment="band 8">
        <r>  0.0000  0.0000  0.0894  0.0103  0.0000  0.0000  0.0000  0.0000  0.0000 </r>
       </set>
      </set>
      <set comment="kpoint 60">
       <set comment="band 1">
        <r>  0.2262  0.1669  0.0006  0.0006  0.0000  0.0000  0.0000  0.0000  0.0000 </r>
       </set>
       <set comment="band 2">
        <r>  0.2352  0.1876  0.0003  0.0003  0.0000  0.0000  0.0000  0.0000  0.0000 </r>
       </set>
       <set comment="band 3">
        <r>  0.0269  0.0002  0.1640  0.1640  0.0000  0.0000  0.0000  0.0000  0.0000 </r>
       </set>
       <set comment="band 4">
        <r>  0.0000  0.0000  0.2349  0.2349  0.0000  0.0000  0.0000  0.0000  0.0000 </r>
       </set>
       <set comment="band 5">
        <r>  0.0489  0.0011  0.0226  0.0226  0.0000  0.0000  0.0000  0.0000  0.0000 </r>
       </set>
       <set comment="band 6">
        <r>  0.1871  0.0059  0.0492  0.0492  0.0000  0.0000  0.0000  0.0000  0.0000 </r>
       </set>
       <set comment="band 7">
        <r>  0.0000  0.0000  0.0227  0.0227  0.0000  0.0000  0.0000  0.0000  0.0000 </r>
       </set>
       <set comment="band 8">
        <r>  0.0036  0.0262  0.0262  0.0252  0.0000  0.0000  0.0000  0.0000  0.0000 </r>
       </set>
      </set>
      <set comment="kpoint 61">
       <set comment="band 1">
        <r>  0.1788  0.2078  0.0017  0.0017  0.0000  0.0000  0.0000  0.0000  0.0000 </r>
       </set>
       <set comment="band 2">
        <r>  0.2896  0.1428  0.0014  0.0014  0.0000  0.0000  0.0000  0.0000  0.0000 </r>
       </set>
       <set comment="band 3">
        <r>  0.0463  0.0000  0.1435  0.1435  0.0000  0.0000  0.0000  0.0000  0.0000 </r>
       </set>
       <set comment="band 4">
        <r>  0.0000  0.0000  0.2345  0.2345  0.0000  0.0000  0.0000  0.0000  0.0000 </r>
       </set>
       <set comment="band 5">
        <r>  0.1124  0.0007  0.0024  0.0024  0.0000  0.0000  0.0000  0.0000  0.0000 </r>
       </set>
       <set comment="band 6">
        <r>  0.0944  0.0011  0.0924  0.0924  0.0000  0.0000  0.0000  0.0000  0.0000 </r>
       </set>
       <set comment="band 7">
        <r>  0.0000  0.0000  0.0402  0.0402  0.0000  0.0000  0.0000  0.0000  0.0000 </r>
       </set>
       <set comment="band 8">
        <r>  0.0033  0.0876  0.0060  0.0060  0.0000  0.0000  0.0000  0.0000  0.0000 </r>
       </set>
      </set>
      <set comment="kpoint 62">
       <set comment="band 1">
        <r>  0.0000  0.3454  0.0000  0.0000  0.0000  0.0000  0.0000  0.0000  0.0000 </r>
       </set>
       <set comment="band 2">
        <r>  0.5078  0.0000  0.0013  0.0013  0.0000  0.0000  0.0000  0.0000  0.0000 </r>
       </set>
       <set comment="band 3">
        <r>  0.0243  0.0000  0.1387  0.1387  0.0000  0.0000  0.0000  0.0000  0.0000 </r>
       </set>
       <set comment="band 4">
        <r>  0.0000  0.0000  0.2330  0.2330  0.0000  0.0000  0.0000  0.0000  0.0000 </r>
       </set>
       <set comment="band 5">
        <r>  0.1276  0.0000  0.0003  0.0003  0.0000  0.0000  0.0000  0.0000  0.0000 </r>
       </set>
       <set comment="band 6">
        <r>  0.0488  0.0000  0.1088  0.1088  0.0000  0.0000  0.0000  0.0000  0.0000 </r>
       </set>
       <set comment="band 7">
        <r>  0.0000  0.0000  0.0635  0.0635  0.0000  0.0000  0.0000  0.0000  0.0000 </r>
       </set>
       <set comment="band 8">
        <r>  0.0000  0.0000  0.0000  0.0000  0.0000  0.0000  0.0000  0.0000  0.0000 </r>
       </set>
      </set>
      <set comment="kpoint 63">
       <set comment="band 1">
        <r>  0.1782  0.2112  0.0000  0.0000  0.0000  0.0000  0.0000  0.0000  0.0000 </r>
       </set>
       <set comment="band 2">
        <r>  0.2802  0.1432  0.0000  0.0000  0.0000  0.0000  0.0000  0.0000  0.0000 </r>
       </set>
       <set comment="band 3">
        <r>  0.0000  0.0000  0.2363  0.2363  0.0000  0.0000  0.0000  0.0000  0.0000 </r>
       </set>
       <set comment="band 4">
        <r>  0.0000  0.0000  0.2363  0.2363  0.0000  0.0000  0.0000  0.0000  0.0000 </r>
       </set>
       <set comment="band 5">
        <r>  0.0000  0.0000  0.0000  0.0000  0.0000  0.0000  0.0000  0.0000  0.0000 </r>
       </set>
       <set comment="band 6">
        <r>  0.2753  0.0020  0.0000  0.0000  0.0000  0.0000  0.0000  0.0000  0.0000 </r>
       </set>
       <set comment="band 7">
        <r>  0.0000  0.0000  0.0000  0.0000  0.0000  0.0000  0.0000  0.0000  0.0000 </r>
       </set>
       <set comment="band 8">
        <r>  0.0000  0.0000  0.0039  0.0139  0.0000  0.0000  0.0000  0.0000  0.0000 </r>
       </set>
      </set>
      <set comment="kpoint 64">
       <set comment="band 1">
        <r>  0.0000  0.3531  0.0000  0.0000  0.0000  0.0000  0.0000  0.0000  0.0000 </r>
       </set>
       <set comment="band 2">
        <r>  0.4587  0.0000  0.0011  0.0011  0.0000  0.0000  0.0000  0.0000  0.0000 </r>
       </set>
       <set comment="band 3">
        <r>  0.0292  0.0000  0.1644  0.1644  0.0000  0.0000  0.0000  0.0000  0.0000 </r>
       </set>
       <set comment="band 4">
        <r>  0.0000  0.0000  0.2361  0.2361  0.0000  0.0000  0.0000  0.0000  0.0000 </r>
       </set>
       <set comment="band 5">
        <r>  0.0510  0.0000  0.0228  0.0228  0.0000  0.0000  0.0000  0.0000  0.0000 </r>
       </set>
       <set comment="band 6">
        <r>  0.1940  0.0000  0.0497  0.0497  0.0000  0.0000  0.0000  0.0000  0.0000 </r>
       </set>
       <set comment="band 7">
        <r>  0.0000  0.0000  0.0149  0.0149  0.0000  0.0000  0.0000  0.0000  0.0000 </r>
       </set>
       <set comment="band 8">
        <r>  0.0000  0.0346  0.0000  0.0000  0.0000  0.0000  0.0000  0.0000  0.0000 </r>
       </set>
      </set>
      <set comment="kpoint 65">
       <set comment="band 1">
        <r>  0.3656  0.0170  0.0000  0.0042  0.0000  0.0000  0.0000  0.0000  0.0000 </r>
       </set>
       <set comment="band 2">
        <r>  0.0000  0.0000  0.3107  0.0000  0.0000  0.0000  0.0000  0.0000  0.0000 </r>
       </set>
       <set comment="band 3">
        <r>  0.0659  0.1324  0.0000  0.2628  0.0000  0.0000  0.0000  0.0000  0.0000 </r>
       </set>
       <set comment="band 4">
        <r>  0.0425  0.4421  0.0000  0.1903  0.0000  0.0000  0.0000  0.0000  0.0000 </r>
       </set>
       <set comment="band 5">
        <r>  0.0000  0.0000  0.1035  0.0000  0.0000  0.0000  0.0000  0.0000  0.0000 </r>
       </set>
       <set comment="band 6">
        <r>  0.0023  0.0044  0.0000  0.0214  0.0000  0.0000  0.0000  0.0000  0.0000 </r>
       </set>
       <set comment="band 7">
        <r>  0.0000  0.0000  0.2433  0.0000  0.0000  0.0000  0.0000  0.0000  0.0000 </r>
       </set>
       <set comment="band 8">
        <r>  0.0411  0.0025  0.0000  0.1814  0.0000  0.0000  0.0000  0.0000  0.0000 </r>
       </set>
      </set>
      <set comment="kpoint 66">
       <set comment="band 1">
        <r>  0.3519  0.0259  0.0010  0.0092  0.0000  0.0000  0.0000  0.0000  0.0000 </r>
       </set>
       <set comment="band 2">
        <r>  0.0532  0.0554  0.1598  0.0845  0.0000  0.0000  0.0000  0.0000  0.0000 </r>
       </set>
       <set comment="band 3">
        <r>  0.0508  0.0775  0.1437  0.1428  0.0000  0.0000  0.0000  0.0000  0.0000 </r>
       </set>
       <set comment="band 4">
        <r>  0.0396  0.3723  0.0033  0.1780  0.0000  0.0000  0.0000  0.0000  0.0000 </r>
       </set>
       <set comment="band 5">
        <r>  0.0005  0.0218  0.0853  0.0025  0.0000  0.0000  0.0000  0.0000  0.0000 </r>
       </set>
       <set comment="band 6">
        <r>  0.0009  0.0095  0.0351  0.1034  0.0000  0.0000  0.0000  0.0000  0.0000 </r>
       </set>
       <set comment="band 7">
        <r>  0.0612  0.0045  0.0009  0.0960  0.0000  0.0000  0.0000  0.0000  0.0000 </r>
       </set>
       <set comment="band 8">
        <r>  0.0048  0.0009  0.1922  0.0110  0.0000  0.0000  0.0000  0.0000  0.0000 </r>
       </set>
      </set>
      <set comment="kpoint 67">
       <set comment="band 1">
        <r>  0.3342  0.0361  0.0038  0.0157  0.0000  0.0000  0.0000  0.0000  0.0000 </r>
       </set>
       <set comment="band 2">
        <r>  0.0867  0.0570  0.1329  0.0840  0.0000  0.0000  0.0000  0.0000  0.0000 </r>
       </set>
       <set comment="band 3">
        <r>  0.0533  0.0673  0.1786  0.1167  0.0000  0.0000  0.0000  0.0000  0.0000 </r>
       </set>
       <set comment="band 4">
        <r>  0.0380  0.3416  0.0006  0.1663  0.0000  0.0000  0.0000  0.0000  0.0000 </r>
       </set>
       <set comment="band 5">
        <r>  0.0068  0.0001  0.0446  0.0191  0.0000  0.0000  0.0000  0.0000  0.0000 </r>
       </set>
       <set comment="band 6">
        <r>  0.0254  0.0113  0.0302  0.1976  0.0000  0.0000  0.0000  0.0000  0.0000 </r>
       </set>
       <set comment="band 7">
        <r>  0.0022  0.0290  0.1533  0.0007  0.0000  0.0000  0.0000  0.0000  0.0000 </r>
       </set>
       <set comment="band 8">
        <r>  0.0687  0.0009  0.0305  0.0025  0.0000  0.0000  0.0000  0.0000  0.0000 </r>
       </set>
      </set>
      <set comment="kpoint 68">
       <set comment="band 1">
        <r>  0.3146  0.0470  0.0079  0.0231  0.0000  0.0000  0.0000  0.0000  0.0000 </r>
       </set>
       <set comment="band 2">
        <r>  0.1168  0.0528  0.1181  0.0784  0.0000  0.0000  0.0000  0.0000  0.0000 </r>
       </set>
       <set comment="band 3">
        <r>  0.0576  0.0648  0.2070  0.0968  0.0000  0.0000  0.0000  0.0000  0.0000 </r>
       </set>
       <set comment="band 4">
        <r>  0.0338  0.3016  0.0000  0.1549  0.0000  0.0000  0.0000  0.0000  0.0000 </r>
       </set>
       <set comment="band 5">
        <r>  0.0122  0.0082  0.0299  0.0676  0.0000  0.0000  0.0000  0.0000  0.0000 </r>
       </set>
       <set comment="band 6">
        <r>  0.0439  0.0004  0.0014  0.1228  0.0000  0.0000  0.0000  0.0000  0.0000 </r>
       </set>
       <set comment="band 7">
        <r>  0.0402  0.0459  0.1866  0.0157  0.0000  0.0000  0.0000  0.0000  0.0000 </r>
       </set>
       <set comment="band 8">
        <r>  0.0403  0.0042  0.0063  0.0307  0.0000  0.0000  0.0000  0.0000  0.0000 </r>
       </set>
      </set>
      <set comment="kpoint 69">
       <set comment="band 1">
        <r>  0.2979  0.0571  0.0123  0.0302  0.0000  0.0000  0.0000  0.0000  0.0000 </r>
       </set>
       <set comment="band 2">
        <r>  0.1412  0.0482  0.1073  0.0725  0.0000  0.0000  0.0000  0.0000  0.0000 </r>
       </set>
       <set comment="band 3">
        <r>  0.0646  0.0726  0.2339  0.0727  0.0000  0.0000  0.0000  0.0000  0.0000 </r>
       </set>
       <set comment="band 4">
        <r>  0.0266  0.2542  0.0001  0.1580  0.0000  0.0000  0.0000  0.0000  0.0000 </r>
       </set>
       <set comment="band 5">
        <r>  0.0119  0.0196  0.0234  0.1207  0.0000  0.0000  0.0000  0.0000  0.0000 </r>
       </set>
       <set comment="band 6">
        <r>  0.0492  0.0000  0.0069  0.0718  0.0000  0.0000  0.0000  0.0000  0.0000 </r>
       </set>
       <set comment="band 7">
        <r>  0.0815  0.0615  0.1450  0.0076  0.0000  0.0000  0.0000  0.0000  0.0000 </r>
       </set>
       <set comment="band 8">
        <r>  0.0006  0.0014  0.0476  0.0129  0.0000  0.0000  0.0000  0.0000  0.0000 </r>
       </set>
      </set>
      <set comment="kpoint 70">
       <set comment="band 1">
        <r>  0.3180  0.0567  0.0100  0.0281  0.0000  0.0000  0.0000  0.0000  0.0000 </r>
       </set>
       <set comment="band 2">
        <r>  0.1243  0.0534  0.1047  0.0751  0.0000  0.0000  0.0000  0.0000  0.0000 </r>
       </set>
       <set comment="band 3">
        <r>  0.0823  0.1267  0.2486  0.0238  0.0000  0.0000  0.0000  0.0000  0.0000 </r>
       </set>
       <set comment="band 4">
        <r>  0.0092  0.1661  0.0137  0.1971  0.0000  0.0000  0.0000  0.0000  0.0000 </r>
       </set>
       <set comment="band 5">
        <r>  0.0032  0.0255  0.0233  0.1823  0.0000  0.0000  0.0000  0.0000  0.0000 </r>
       </set>
       <set comment="band 6">
        <r>  0.0608  0.0005  0.0056  0.0157  0.0000  0.0000  0.0000  0.0000  0.0000 </r>
       </set>
       <set comment="band 7">
        <r>  0.1024  0.0852  0.1132  0.0009  0.0000  0.0000  0.0000  0.0000  0.0000 </r>
       </set>
       <set comment="band 8">
        <r>  0.0003  0.0076  0.0203  0.0008  0.0000  0.0000  0.0000  0.0000  0.0000 </r>
       </set>
      </set>
      <set comment="kpoint 71">
       <set comment="band 1">
        <r>  0.3470  0.0374  0.0000  0.0040  0.0000  0.0000  0.0000  0.0000  0.0000 </r>
       </set>
       <set comment="band 2">
        <r>  0.0000  0.0000  0.3092  0.0000  0.0000  0.0000  0.0000  0.0000  0.0000 </r>
       </set>
       <set comment="band 3">
        <r>  0.0905  0.1012  0.0000  0.2776  0.0000  0.0000  0.0000  0.0000  0.0000 </r>
       </set>
       <set comment="band 4">
        <r>  0.0832  0.3738  0.0000  0.1097  0.0000  0.0000  0.0000  0.0000  0.0000 </r>
       </set>
       <set comment="band 5">
        <r>  0.0000  0.0000  0.1220  0.0000  0.0000  0.0000  0.0000  0.0000  0.0000 </r>
       </set>
       <set comment="band 6">
        <r>  0.0351  0.0132  0.0000  0.0638  0.0000  0.0000  0.0000  0.0000  0.0000 </r>
       </set>
       <set comment="band 7">
        <r>  0.0260  0.0007  0.0000  0.1821  0.0000  0.0000  0.0000  0.0000  0.0000 </r>
       </set>
       <set comment="band 8">
        <r>  0.0000  0.0000  0.2282  0.0000  0.0000  0.0000  0.0000  0.0000  0.0000 </r>
       </set>
      </set>
      <set comment="kpoint 72">
       <set comment="band 1">
        <r>  0.3307  0.0496  0.0009  0.0087  0.0000  0.0000  0.0000  0.0000  0.0000 </r>
       </set>
       <set comment="band 2">
        <r>  0.0644  0.0401  0.1667  0.0857  0.0000  0.0000  0.0000  0.0000  0.0000 </r>
       </set>
       <set comment="band 3">
        <r>  0.0723  0.0655  0.1394  0.1478  0.0000  0.0000  0.0000  0.0000  0.0000 </r>
       </set>
       <set comment="band 4">
        <r>  0.0637  0.2988  0.0006  0.0967  0.0000  0.0000  0.0000  0.0000  0.0000 </r>
       </set>
       <set comment="band 5">
        <r>  0.0159  0.0032  0.0847  0.0174  0.0000  0.0000  0.0000  0.0000  0.0000 </r>
       </set>
       <set comment="band 6">
        <r>  0.0280  0.0377  0.0481  0.1257  0.0000  0.0000  0.0000  0.0000  0.0000 </r>
       </set>
       <set comment="band 7">
        <r>  0.0314  0.0003  0.0070  0.1223  0.0000  0.0000  0.0000  0.0000  0.0000 </r>
       </set>
       <set comment="band 8">
        <r>  0.0198  0.0063  0.1708  0.0034  0.0000  0.0000  0.0000  0.0000  0.0000 </r>
       </set>
      </set>
      <set comment="kpoint 73">
       <set comment="band 1">
        <r>  0.3117  0.0627  0.0035  0.0147  0.0000  0.0000  0.0000  0.0000  0.0000 </r>
       </set>
       <set comment="band 2">
        <r>  0.1005  0.0400  0.1383  0.0865  0.0000  0.0000  0.0000  0.0000  0.0000 </r>
       </set>
       <set comment="band 3">
        <r>  0.0802  0.0686  0.1771  0.1080  0.0000  0.0000  0.0000  0.0000  0.0000 </r>
       </set>
       <set comment="band 4">
        <r>  0.0520  0.2466  0.0009  0.1004  0.0000  0.0000  0.0000  0.0000  0.0000 </r>
       </set>
       <set comment="band 5">
        <r>  0.0345  0.0137  0.0508  0.0574  0.0000  0.0000  0.0000  0.0000  0.0000 </r>
       </set>
       <set comment="band 6">
        <r>  0.0039  0.0387  0.0747  0.1711  0.0000  0.0000  0.0000  0.0000  0.0000 </r>
       </set>
       <set comment="band 7">
        <r>  0.0351  0.0001  0.0372  0.0568  0.0000  0.0000  0.0000  0.0000  0.0000 </r>
       </set>
       <set comment="band 8">
        <r>  0.0550  0.0214  0.1021  0.0019  0.0000  0.0000  0.0000  0.0000  0.0000 </r>
       </set>
      </set>
      <set comment="kpoint 74">
       <set comment="band 1">
        <r>  0.2926  0.0755  0.0070  0.0209  0.0000  0.0000  0.0000  0.0000  0.0000 </r>
       </set>
       <set comment="band 2">
        <r>  0.1289  0.0361  0.1226  0.0814  0.0000  0.0000  0.0000  0.0000  0.0000 </r>
       </set>
       <set comment="band 3">
        <r>  0.1076  0.1132  0.1947  0.0514  0.0000  0.0000  0.0000  0.0000  0.0000 </r>
       </set>
       <set comment="band 4">
        <r>  0.0261  0.1671  0.0122  0.1394  0.0000  0.0000  0.0000  0.0000  0.0000 </r>
       </set>
       <set comment="band 5">
        <r>  0.0426  0.0180  0.0344  0.0909  0.0000  0.0000  0.0000  0.0000  0.0000 </r>
       </set>
       <set comment="band 6">
        <r>  0.0210  0.0178  0.0007  0.1779  0.0000  0.0000  0.0000  0.0000  0.0000 </r>
       </set>
       <set comment="band 7">
        <r>  0.0045  0.0302  0.1614  0.0253  0.0000  0.0000  0.0000  0.0000  0.0000 </r>
       </set>
       <set comment="band 8">
        <r>  0.0786  0.0347  0.0367  0.0020  0.0000  0.0000  0.0000  0.0000  0.0000 </r>
       </set>
      </set>
      <set comment="kpoint 75">
       <set comment="band 1">
        <r>  0.2877  0.0842  0.0085  0.0239  0.0000  0.0000  0.0000  0.0000  0.0000 </r>
       </set>
       <set comment="band 2">
        <r>  0.1389  0.0355  0.1133  0.0779  0.0000  0.0000  0.0000  0.0000  0.0000 </r>
       </set>
       <set comment="band 3">
        <r>  0.1312  0.2334  0.1037  0.0034  0.0000  0.0000  0.0000  0.0000  0.0000 </r>
       </set>
       <set comment="band 4">
        <r>  0.0038  0.0175  0.1296  0.1789  0.0000  0.0000  0.0000  0.0000  0.0000 </r>
       </set>
       <set comment="band 5">
        <r>  0.0439  0.0180  0.0242  0.1222  0.0000  0.0000  0.0000  0.0000  0.0000 </r>
       </set>
       <set comment="band 6">
        <r>  0.0338  0.0130  0.0058  0.1164  0.0000  0.0000  0.0000  0.0000  0.0000 </r>
       </set>
       <set comment="band 7">
        <r>  0.0174  0.0756  0.1786  0.0261  0.0000  0.0000  0.0000  0.0000  0.0000 </r>
       </set>
       <set comment="band 8">
        <r>  0.0508  0.0270  0.0014  0.0402  0.0000  0.0000  0.0000  0.0000  0.0000 </r>
       </set>
      </set>
      <set comment="kpoint 76">
       <set comment="band 1">
        <r>  0.3793  0.0004  0.0446  0.0173  0.0000  0.0000  0.0000  0.0000  0.0000 </r>
       </set>
       <set comment="band 2">
        <r>  0.0480  0.1271  0.0708  0.0833  0.0000  0.0000  0.0000  0.0000  0.0000 </r>
       </set>
       <set comment="band 3">
        <r>  0.1126  0.2231  0.0577  0.0366  0.0000  0.0000  0.0000  0.0000  0.0000 </r>
       </set>
       <set comment="band 4">
        <r>  0.0233  0.0001  0.2025  0.1443  0.0000  0.0000  0.0000  0.0000  0.0000 </r>
       </set>
       <set comment="band 5">
        <r>  0.0394  0.0161  0.0174  0.1566  0.0000  0.0000  0.0000  0.0000  0.0000 </r>
       </set>
       <set comment="band 6">
        <r>  0.0403  0.0155  0.0115  0.0768  0.0000  0.0000  0.0000  0.0000  0.0000 </r>
       </set>
       <set comment="band 7">
        <r>  0.0431  0.1212  0.1227  0.0018  0.0000  0.0000  0.0000  0.0000  0.0000 </r>
       </set>
       <set comment="band 8">
        <r>  0.0008  0.0349  0.0210  0.0837  0.0000  0.0000  0.0000  0.0000  0.0000 </r>
       </set>
      </set>
      <set comment="kpoint 77">
       <set comment="band 1">
        <r>  0.2861  0.0054  0.0697  0.0389  0.0000  0.0000  0.0000  0.0000  0.0000 </r>
       </set>
       <set comment="band 2">
        <r>  0.1374  0.1312  0.0392  0.0594  0.0000  0.0000  0.0000  0.0000  0.0000 </r>
       </set>
       <set comment="band 3">
        <r>  0.1060  0.1951  0.0536  0.0593  0.0000  0.0000  0.0000  0.0000  0.0000 </r>
       </set>
       <set comment="band 4">
        <r>  0.0295  0.0001  0.2341  0.1266  0.0000  0.0000  0.0000  0.0000  0.0000 </r>
       </set>
       <set comment="band 5">
        <r>  0.0281  0.0154  0.0148  0.1971  0.0000  0.0000  0.0000  0.0000  0.0000 </r>
       </set>
       <set comment="band 6">
        <r>  0.0480  0.0199  0.0132  0.0352  0.0000  0.0000  0.0000  0.0000  0.0000 </r>
       </set>
       <set comment="band 7">
        <r>  0.0311  0.1645  0.0816  0.0056  0.0000  0.0000  0.0000  0.0000  0.0000 </r>
       </set>
       <set comment="band 8">
        <r>  0.0255  0.0061  0.0019  0.0656  0.0000  0.0000  0.0000  0.0000  0.0000 </r>
       </set>
      </set>
      <set comment="kpoint 78">
       <set comment="band 1">
        <r>  0.2993  0.0032  0.0597  0.0321  0.0000  0.0000  0.0000  0.0000  0.0000 </r>
       </set>
       <set comment="band 2">
        <r>  0.1149  0.1471  0.0412  0.0618  0.0000  0.0000  0.0000  0.0000  0.0000 </r>
       </set>
       <set comment="band 3">
        <r>  0.1047  0.1649  0.0596  0.0792  0.0000  0.0000  0.0000  0.0000  0.0000 </r>
       </set>
       <set comment="band 4">
        <r>  0.0303  0.0001  0.2590  0.1203  0.0000  0.0000  0.0000  0.0000  0.0000 </r>
       </set>
       <set comment="band 5">
        <r>  0.0084  0.0218  0.0179  0.2326  0.0000  0.0000  0.0000  0.0000  0.0000 </r>
       </set>
       <set comment="band 6">
        <r>  0.0580  0.0232  0.0073  0.0000  0.0000  0.0000  0.0000  0.0000  0.0000 </r>
       </set>
       <set comment="band 7">
        <r>  0.0006  0.1607  0.0555  0.0402  0.0000  0.0000  0.0000  0.0000  0.0000 </r>
       </set>
       <set comment="band 8">
        <r>  0.0526  0.0305  0.0036  0.0222  0.0000  0.0000  0.0000  0.0000  0.0000 </r>
       </set>
      </set>
      <set comment="kpoint 79">
       <set comment="band 1">
        <r>  0.3190  0.0009  0.0480  0.0237  0.0000  0.0000  0.0000  0.0000  0.0000 </r>
       </set>
       <set comment="band 2">
        <r>  0.0767  0.1779  0.0397  0.0584  0.0000  0.0000  0.0000  0.0000  0.0000 </r>
       </set>
       <set comment="band 3">
        <r>  0.1093  0.1223  0.0744  0.1065  0.0000  0.0000  0.0000  0.0000  0.0000 </r>
       </set>
       <set comment="band 4">
        <r>  0.0293  0.0000  0.2865  0.1246  0.0000  0.0000  0.0000  0.0000  0.0000 </r>
       </set>
       <set comment="band 5">
        <r>  0.0002  0.0455  0.0194  0.1657  0.0000  0.0000  0.0000  0.0000  0.0000 </r>
       </set>
       <set comment="band 6">
        <r>  0.0357  0.0353  0.0004  0.0926  0.0000  0.0000  0.0000  0.0000  0.0000 </r>
       </set>
       <set comment="band 7">
        <r>  0.0268  0.0642  0.0425  0.0251  0.0000  0.0000  0.0000  0.0000  0.0000 </r>
       </set>
       <set comment="band 8">
        <r>  0.0256  0.1453  0.0031  0.0008  0.0000  0.0000  0.0000  0.0000  0.0000 </r>
       </set>
      </set>
      <set comment="kpoint 80">
       <set comment="band 1">
        <r>  0.3372  0.0000  0.0365  0.0159  0.0000  0.0000  0.0000  0.0000  0.0000 </r>
       </set>
       <set comment="band 2">
        <r>  0.0000  0.2929  0.0000  0.0000  0.0000  0.0000  0.0000  0.0000  0.0000 </r>
       </set>
       <set comment="band 3">
        <r>  0.1478  0.0000  0.1279  0.1909  0.0000  0.0000  0.0000  0.0000  0.0000 </r>
       </set>
       <set comment="band 4">
        <r>  0.0297  0.0000  0.3292  0.1471  0.0000  0.0000  0.0000  0.0000  0.0000 </r>
       </set>
       <set comment="band 5">
        <r>  0.0000  0.1247  0.0000  0.0000  0.0000  0.0000  0.0000  0.0000  0.0000 </r>
       </set>
       <set comment="band 6">
        <r>  0.0017  0.0000  0.0298  0.2156  0.0000  0.0000  0.0000  0.0000  0.0000 </r>
       </set>
       <set comment="band 7">
        <r>  0.0595  0.0000  0.0136  0.0375  0.0000  0.0000  0.0000  0.0000  0.0000 </r>
       </set>
       <set comment="band 8">
        <r>  0.0000  0.2133  0.0000  0.0000  0.0000  0.0000  0.0000  0.0000  0.0000 </r>
       </set>
      </set>
      <set comment="kpoint 81">
       <set comment="band 1">
        <r>  0.3225  0.0649  0.0000  0.0038  0.0000  0.0000  0.0000  0.0000  0.0000 </r>
       </set>
       <set comment="band 2">
        <r>  0.0000  0.0000  0.3136  0.0000  0.0000  0.0000  0.0000  0.0000  0.0000 </r>
       </set>
       <set comment="band 3">
        <r>  0.1359  0.1107  0.0000  0.2575  0.0000  0.0000  0.0000  0.0000  0.0000 </r>
       </set>
       <set comment="band 4">
        <r>  0.0670  0.2412  0.0000  0.0972  0.0000  0.0000  0.0000  0.0000  0.0000 </r>
       </set>
       <set comment="band 5">
        <r>  0.0000  0.0000  0.1326  0.0000  0.0000  0.0000  0.0000  0.0000  0.0000 </r>
       </set>
       <set comment="band 6">
        <r>  0.0986  0.0422  0.0000  0.1004  0.0000  0.0000  0.0000  0.0000  0.0000 </r>
       </set>
       <set comment="band 7">
        <r>  0.0153  0.0028  0.0000  0.1389  0.0000  0.0000  0.0000  0.0000  0.0000 </r>
       </set>
       <set comment="band 8">
        <r>  0.0000  0.0000  0.2063  0.0000  0.0000  0.0000  0.0000  0.0000  0.0000 </r>
       </set>
      </set>
      <set comment="kpoint 82">
       <set comment="band 1">
        <r>  0.3041  0.0801  0.0009  0.0081  0.0000  0.0000  0.0000  0.0000  0.0000 </r>
       </set>
       <set comment="band 2">
        <r>  0.0802  0.0328  0.1691  0.0856  0.0000  0.0000  0.0000  0.0000  0.0000 </r>
       </set>
       <set comment="band 3">
        <r>  0.1284  0.1153  0.1332  0.0938  0.0000  0.0000  0.0000  0.0000  0.0000 </r>
       </set>
       <set comment="band 4">
        <r>  0.0325  0.1622  0.0099  0.1279  0.0000  0.0000  0.0000  0.0000  0.0000 </r>
       </set>
       <set comment="band 5">
        <r>  0.0350  0.0094  0.0884  0.0296  0.0000  0.0000  0.0000  0.0000  0.0000 </r>
       </set>
       <set comment="band 6">
        <r>  0.0588  0.0325  0.0520  0.1316  0.0000  0.0000  0.0000  0.0000  0.0000 </r>
       </set>
       <set comment="band 7">
        <r>  0.0219  0.0044  0.0063  0.1112  0.0000  0.0000  0.0000  0.0000  0.0000 </r>
       </set>
       <set comment="band 8">
        <r>  0.0176  0.0152  0.1484  0.0058  0.0000  0.0000  0.0000  0.0000  0.0000 </r>
       </set>
      </set>
      <set comment="kpoint 83">
       <set comment="band 1">
        <r>  0.2838  0.0953  0.0031  0.0132  0.0000  0.0000  0.0000  0.0000  0.0000 </r>
       </set>
       <set comment="band 2">
        <r>  0.1152  0.0289  0.1409  0.0875  0.0000  0.0000  0.0000  0.0000  0.0000 </r>
       </set>
       <set comment="band 3">
        <r>  0.1598  0.2310  0.0736  0.0001  0.0000  0.0000  0.0000  0.0000  0.0000 </r>
       </set>
       <set comment="band 4">
        <r>  0.0035  0.0176  0.1079  0.1917  0.0000  0.0000  0.0000  0.0000  0.0000 </r>
       </set>
       <set comment="band 5">
        <r>  0.0561  0.0126  0.0542  0.0661  0.0000  0.0000  0.0000  0.0000  0.0000 </r>
       </set>
       <set comment="band 6">
        <r>  0.0245  0.0241  0.0808  0.1461  0.0000  0.0000  0.0000  0.0000  0.0000 </r>
       </set>
       <set comment="band 7">
        <r>  0.0271  0.0056  0.0201  0.0812  0.0000  0.0000  0.0000  0.0000  0.0000 </r>
       </set>
       <set comment="band 8">
        <r>  0.0386  0.0487  0.0969  0.0019  0.0000  0.0000  0.0000  0.0000  0.0000 </r>
       </set>
      </set>
      <set comment="kpoint 84">
       <set comment="band 1">
        <r>  0.2685  0.1091  0.0052  0.0172  0.0000  0.0000  0.0000  0.0000  0.0000 </r>
       </set>
       <set comment="band 2">
        <r>  0.1365  0.0253  0.1257  0.0833  0.0000  0.0000  0.0000  0.0000  0.0000 </r>
       </set>
       <set comment="band 3">
        <r>  0.1418  0.2236  0.0373  0.0175  0.0000  0.0000  0.0000  0.0000  0.0000 </r>
       </set>
       <set comment="band 4">
        <r>  0.0272  0.0000  0.1727  0.1608  0.0000  0.0000  0.0000  0.0000  0.0000 </r>
       </set>
       <set comment="band 5">
        <r>  0.0625  0.0103  0.0359  0.0934  0.0000  0.0000  0.0000  0.0000  0.0000 </r>
       </set>
       <set comment="band 6">
        <r>  0.0003  0.0287  0.0511  0.2021  0.0000  0.0000  0.0000  0.0000  0.0000 </r>
       </set>
       <set comment="band 7">
        <r>  0.0318  0.0012  0.0787  0.0109  0.0000  0.0000  0.0000  0.0000  0.0000 </r>
       </set>
       <set comment="band 8">
        <r>  0.0422  0.0885  0.0556  0.0016  0.0000  0.0000  0.0000  0.0000  0.0000 </r>
       </set>
      </set>
      <set comment="kpoint 85">
       <set comment="band 1">
        <r>  0.3534  0.0854  0.0003  0.0031  0.0000  0.0000  0.0000  0.0000  0.0000 </r>
       </set>
       <set comment="band 2">
        <r>  0.0519  0.0603  0.1216  0.0953  0.0000  0.0000  0.0000  0.0000  0.0000 </r>
       </set>
       <set comment="band 3">
        <r>  0.1387  0.1970  0.0347  0.0351  0.0000  0.0000  0.0000  0.0000  0.0000 </r>
       </set>
       <set comment="band 4">
        <r>  0.0354  0.0003  0.2016  0.1378  0.0000  0.0000  0.0000  0.0000  0.0000 </r>
       </set>
       <set comment="band 5">
        <r>  0.0623  0.0071  0.0240  0.1191  0.0000  0.0000  0.0000  0.0000  0.0000 </r>
       </set>
       <set comment="band 6">
        <r>  0.0186  0.0291  0.0022  0.1365  0.0000  0.0000  0.0000  0.0000  0.0000 </r>
       </set>
       <set comment="band 7">
        <r>  0.0018  0.0136  0.1575  0.0456  0.0000  0.0000  0.0000  0.0000  0.0000 </r>
       </set>
       <set comment="band 8">
        <r>  0.0215  0.1229  0.0172  0.0317  0.0000  0.0000  0.0000  0.0000  0.0000 </r>
       </set>
      </set>
      <set comment="kpoint 86">
       <set comment="band 1">
        <r>  0.2757  0.0012  0.0814  0.0468  0.0000  0.0000  0.0000  0.0000  0.0000 </r>
       </set>
       <set comment="band 2">
        <r>  0.1228  0.1605  0.0315  0.0474  0.0000  0.0000  0.0000  0.0000  0.0000 </r>
       </set>
       <set comment="band 3">
        <r>  0.1428  0.1666  0.0405  0.0523  0.0000  0.0000  0.0000  0.0000  0.0000 </r>
       </set>
       <set comment="band 4">
        <r>  0.0366  0.0002  0.2230  0.1228  0.0000  0.0000  0.0000  0.0000  0.0000 </r>
       </set>
       <set comment="band 5">
        <r>  0.0576  0.0039  0.0157  0.1442  0.0000  0.0000  0.0000  0.0000  0.0000 </r>
       </set>
       <set comment="band 6">
        <r>  0.0235  0.0366  0.0113  0.0930  0.0000  0.0000  0.0000  0.0000  0.0000 </r>
       </set>
       <set comment="band 7">
        <r>  0.0014  0.1407  0.0672  0.0239  0.0000  0.0000  0.0000  0.0000  0.0000 </r>
       </set>
       <set comment="band 8">
        <r>  0.0091  0.0011  0.0691  0.0901  0.0000  0.0000  0.0000  0.0000  0.0000 </r>
       </set>
      </set>
      <set comment="kpoint 87">
       <set comment="band 1">
        <r>  0.2817  0.0007  0.0730  0.0416  0.0000  0.0000  0.0000  0.0000  0.0000 </r>
       </set>
       <set comment="band 2">
        <r>  0.0956  0.1938  0.0272  0.0411  0.0000  0.0000  0.0000  0.0000  0.0000 </r>
       </set>
       <set comment="band 3">
        <r>  0.1582  0.1210  0.0541  0.0761  0.0000  0.0000  0.0000  0.0000  0.0000 </r>
       </set>
       <set comment="band 4">
        <r>  0.0348  0.0001  0.2404  0.1141  0.0000  0.0000  0.0000  0.0000  0.0000 </r>
       </set>
       <set comment="band 5">
        <r>  0.0483  0.0015  0.0108  0.1719  0.0000  0.0000  0.0000  0.0000  0.0000 </r>
       </set>
       <set comment="band 6">
        <r>  0.0211  0.0557  0.0156  0.0566  0.0000  0.0000  0.0000  0.0000  0.0000 </r>
       </set>
       <set comment="band 7">
        <r>  0.0080  0.0798  0.0328  0.0772  0.0000  0.0000  0.0000  0.0000  0.0000 </r>
       </set>
       <set comment="band 8">
        <r>  0.0199  0.1042  0.0227  0.0100  0.0000  0.0000  0.0000  0.0000  0.0000 </r>
       </set>
      </set>
      <set comment="kpoint 88">
       <set comment="band 1">
        <r>  0.3006  0.0000  0.0607  0.0328  0.0000  0.0000  0.0000  0.0000  0.0000 </r>
       </set>
       <set comment="band 2">
        <r>  0.0000  0.3053  0.0000  0.0000  0.0000  0.0000  0.0000  0.0000  0.0000 </r>
       </set>
       <set comment="band 3">
        <r>  0.2233  0.0000  0.0969  0.1394  0.0000  0.0000  0.0000  0.0000  0.0000 </r>
       </set>
       <set comment="band 4">
        <r>  0.0316  0.0000  0.2589  0.1127  0.0000  0.0000  0.0000  0.0000  0.0000 </r>
       </set>
       <set comment="band 5">
        <r>  0.0336  0.0000  0.0102  0.2152  0.0000  0.0000  0.0000  0.0000  0.0000 </r>
       </set>
       <set comment="band 6">
        <r>  0.0000  0.1239  0.0000  0.0000  0.0000  0.0000  0.0000  0.0000  0.0000 </r>
       </set>
       <set comment="band 7">
        <r>  0.0417  0.0000  0.0519  0.0903  0.0000  0.0000  0.0000  0.0000  0.0000 </r>
       </set>
       <set comment="band 8">
        <r>  0.0000  0.1752  0.0000  0.0000  0.0000  0.0000  0.0000  0.0000  0.0000 </r>
       </set>
      </set>
      <set comment="kpoint 89">
       <set comment="band 1">
        <r>  0.2912  0.0982  0.0000  0.0034  0.0000  0.0000  0.0000  0.0000  0.0000 </r>
       </set>
       <set comment="band 2">
        <r>  0.2236  0.2685  0.0000  0.0185  0.0000  0.0000  0.0000  0.0000  0.0000 </r>
       </set>
       <set comment="band 3">
        <r>  0.0000  0.0000  0.3186  0.0000  0.0000  0.0000  0.0000  0.0000  0.0000 </r>
       </set>
       <set comment="band 4">
        <r>  0.0130  0.0073  0.0000  0.3309  0.0000  0.0000  0.0000  0.0000  0.0000 </r>
       </set>
       <set comment="band 5">
        <r>  0.0000  0.0000  0.1393  0.0000  0.0000  0.0000  0.0000  0.0000  0.0000 </r>
       </set>
       <set comment="band 6">
        <r>  0.1476  0.0323  0.0000  0.1133  0.0000  0.0000  0.0000  0.0000  0.0000 </r>
       </set>
       <set comment="band 7">
        <r>  0.0099  0.0057  0.0000  0.1057  0.0000  0.0000  0.0000  0.0000  0.0000 </r>
       </set>
       <set comment="band 8">
        <r>  0.0000  0.0000  0.1629  0.0000  0.0000  0.0000  0.0000  0.0000  0.0000 </r>
       </set>
      </set>
      <set comment="kpoint 90">
       <set comment="band 1">
        <r>  0.2707  0.1164  0.0008  0.0071  0.0000  0.0000  0.0000  0.0000  0.0000 </r>
       </set>
       <set comment="band 2">
        <r>  0.1548  0.0710  0.1340  0.0663  0.0000  0.0000  0.0000  0.0000  0.0000 </r>
       </set>
       <set comment="band 3">
        <r>  0.0967  0.1760  0.0675  0.0214  0.0000  0.0000  0.0000  0.0000  0.0000 </r>
       </set>
       <set comment="band 4">
        <r>  0.0338  0.0000  0.1158  0.2165  0.0000  0.0000  0.0000  0.0000  0.0000 </r>
       </set>
       <set comment="band 5">
        <r>  0.0459  0.0056  0.0924  0.0326  0.0000  0.0000  0.0000  0.0000  0.0000 </r>
       </set>
       <set comment="band 6">
        <r>  0.0823  0.0170  0.0532  0.1355  0.0000  0.0000  0.0000  0.0000  0.0000 </r>
       </set>
       <set comment="band 7">
        <r>  0.0148  0.0102  0.0055  0.0933  0.0000  0.0000  0.0000  0.0000  0.0000 </r>
       </set>
       <set comment="band 8">
        <r>  0.0127  0.0314  0.0976  0.0032  0.0000  0.0000  0.0000  0.0000  0.0000 </r>
       </set>
      </set>
      <set comment="kpoint 91">
       <set comment="band 1">
        <r>  0.2495  0.1345  0.0024  0.0108  0.0000  0.0000  0.0000  0.0000  0.0000 </r>
       </set>
       <set comment="band 2">
        <r>  0.1468  0.0291  0.1343  0.0809  0.0000  0.0000  0.0000  0.0000  0.0000 </r>
       </set>
       <set comment="band 3">
        <r>  0.1358  0.1892  0.0305  0.0257  0.0000  0.0000  0.0000  0.0000  0.0000 </r>
       </set>
       <set comment="band 4">
        <r>  0.0424  0.0004  0.1629  0.1713  0.0000  0.0000  0.0000  0.0000  0.0000 </r>
       </set>
       <set comment="band 5">
        <r>  0.0685  0.0051  0.0562  0.0680  0.0000  0.0000  0.0000  0.0000  0.0000 </r>
       </set>
       <set comment="band 6">
        <r>  0.0396  0.0092  0.0820  0.1394  0.0000  0.0000  0.0000  0.0000  0.0000 </r>
       </set>
       <set comment="band 7">
        <r>  0.0182  0.0158  0.0145  0.0789  0.0000  0.0000  0.0000  0.0000  0.0000 </r>
       </set>
       <set comment="band 8">
        <r>  0.0135  0.0848  0.0542  0.0009  0.0000  0.0000  0.0000  0.0000  0.0000 </r>
       </set>
      </set>
      <set comment="kpoint 92">
       <set comment="band 1">
        <r>  0.2524  0.1474  0.0013  0.0091  0.0000  0.0000  0.0000  0.0000  0.0000 </r>
       </set>
       <set comment="band 2">
        <r>  0.1318  0.0274  0.1252  0.0837  0.0000  0.0000  0.0000  0.0000  0.0000 </r>
       </set>
       <set comment="band 3">
        <r>  0.1564  0.1674  0.0284  0.0350  0.0000  0.0000  0.0000  0.0000  0.0000 </r>
       </set>
       <set comment="band 4">
        <r>  0.0444  0.0003  0.1892  0.1473  0.0000  0.0000  0.0000  0.0000  0.0000 </r>
       </set>
       <set comment="band 5">
        <r>  0.0731  0.0027  0.0369  0.0945  0.0000  0.0000  0.0000  0.0000  0.0000 </r>
       </set>
       <set comment="band 6">
        <r>  0.0132  0.0069  0.0857  0.1597  0.0000  0.0000  0.0000  0.0000  0.0000 </r>
       </set>
       <set comment="band 7">
        <r>  0.0209  0.0229  0.0333  0.0494  0.0000  0.0000  0.0000  0.0000  0.0000 </r>
       </set>
       <set comment="band 8">
        <r>  0.0014  0.1084  0.0338  0.0226  0.0000  0.0000  0.0000  0.0000  0.0000 </r>
       </set>
      </set>
      <set comment="kpoint 93">
       <set comment="band 1">
        <r>  0.2765  0.0001  0.0899  0.0510  0.0000  0.0000  0.0000  0.0000  0.0000 </r>
       </set>
       <set comment="band 2">
        <r>  0.0825  0.2083  0.0247  0.0345  0.0000  0.0000  0.0000  0.0000  0.0000 </r>
       </set>
       <set comment="band 3">
        <r>  0.1859  0.1235  0.0364  0.0518  0.0000  0.0000  0.0000  0.0000  0.0000 </r>
       </set>
       <set comment="band 4">
        <r>  0.0430  0.0001  0.2092  0.1305  0.0000  0.0000  0.0000  0.0000  0.0000 </r>
       </set>
       <set comment="band 5">
        <r>  0.0704  0.0008  0.0241  0.1182  0.0000  0.0000  0.0000  0.0000  0.0000 </r>
       </set>
       <set comment="band 6">
        <r>  0.0030  0.0259  0.0082  0.1911  0.0000  0.0000  0.0000  0.0000  0.0000 </r>
       </set>
       <set comment="band 7">
        <r>  0.0107  0.0231  0.0986  0.0157  0.0000  0.0000  0.0000  0.0000  0.0000 </r>
       </set>
       <set comment="band 8">
        <r>  0.0043  0.0746  0.0581  0.0344  0.0000  0.0000  0.0000  0.0000  0.0000 </r>
       </set>
      </set>
      <set comment="kpoint 94">
       <set comment="band 1">
        <r>  0.2653  0.0000  0.0852  0.0502  0.0000  0.0000  0.0000  0.0000  0.0000 </r>
       </set>
       <set comment="band 2">
        <r>  0.0000  0.3226  0.0000  0.0000  0.0000  0.0000  0.0000  0.0000  0.0000 </r>
       </set>
       <set comment="band 3">
        <r>  0.2779  0.0000  0.0656  0.0972  0.0000  0.0000  0.0000  0.0000  0.0000 </r>
       </set>
       <set comment="band 4">
        <r>  0.0396  0.0000  0.2257  0.1194  0.0000  0.0000  0.0000  0.0000  0.0000 </r>
       </set>
       <set comment="band 5">
        <r>  0.0626  0.0000  0.0155  0.1418  0.0000  0.0000  0.0000  0.0000  0.0000 </r>
       </set>
       <set comment="band 6">
        <r>  0.0000  0.1154  0.0000  0.0000  0.0000  0.0000  0.0000  0.0000  0.0000 </r>
       </set>
       <set comment="band 7">
        <r>  0.0210  0.0000  0.0215  0.1823  0.0000  0.0000  0.0000  0.0000  0.0000 </r>
       </set>
       <set comment="band 8">
        <r>  0.0004  0.0000  0.1614  0.0354  0.0000  0.0000  0.0000  0.0000  0.0000 </r>
       </set>
      </set>
      <set comment="kpoint 95">
       <set comment="band 1">
        <r>  0.2523  0.1394  0.0000  0.0030  0.0000  0.0000  0.0000  0.0000  0.0000 </r>
       </set>
       <set comment="band 2">
        <r>  0.2172  0.2178  0.0000  0.0004  0.0000  0.0000  0.0000  0.0000  0.0000 </r>
       </set>
       <set comment="band 3">
        <r>  0.0000  0.0000  0.3217  0.0000  0.0000  0.0000  0.0000  0.0000  0.0000 </r>
       </set>
       <set comment="band 4">
        <r>  0.0629  0.0008  0.0000  0.3510  0.0000  0.0000  0.0000  0.0000  0.0000 </r>
       </set>
       <set comment="band 5">
        <r>  0.0000  0.0000  0.1453  0.0000  0.0000  0.0000  0.0000  0.0000  0.0000 </r>
       </set>
       <set comment="band 6">
        <r>  0.1778  0.0136  0.0000  0.1187  0.0000  0.0000  0.0000  0.0000  0.0000 </r>
       </set>
       <set comment="band 7">
        <r>  0.0060  0.0083  0.0000  0.0772  0.0000  0.0000  0.0000  0.0000  0.0000 </r>
       </set>
       <set comment="band 8">
        <r>  0.0001  0.0006  0.0935  0.0001  0.0000  0.0000  0.0000  0.0000  0.0000 </r>
       </set>
      </set>
      <set comment="kpoint 96">
       <set comment="band 1">
        <r>  0.2246  0.1638  0.0006  0.0056  0.0000  0.0000  0.0000  0.0000  0.0000 </r>
       </set>
       <set comment="band 2">
        <r>  0.2547  0.1875  0.0001  0.0011  0.0000  0.0000  0.0000  0.0000  0.0000 </r>
       </set>
       <set comment="band 3">
        <r>  0.0289  0.0003  0.1937  0.0973  0.0000  0.0000  0.0000  0.0000  0.0000 </r>
       </set>
       <set comment="band 4">
        <r>  0.0548  0.0004  0.1270  0.2075  0.0000  0.0000  0.0000  0.0000  0.0000 </r>
       </set>
       <set comment="band 5">
        <r>  0.0519  0.0015  0.0951  0.0338  0.0000  0.0000  0.0000  0.0000  0.0000 </r>
       </set>
       <set comment="band 6">
        <r>  0.0961  0.0044  0.0532  0.1372  0.0000  0.0000  0.0000  0.0000  0.0000 </r>
       </set>
       <set comment="band 7">
        <r>  0.0091  0.0168  0.0047  0.0739  0.0000  0.0000  0.0000  0.0000  0.0000 </r>
       </set>
       <set comment="band 8">
        <r>  0.0011  0.0604  0.0161  0.0039  0.0000  0.0000  0.0000  0.0000  0.0000 </r>
       </set>
      </set>
      <set comment="kpoint 97">
       <set comment="band 1">
        <r>  0.1862  0.2005  0.0009  0.0060  0.0000  0.0000  0.0000  0.0000  0.0000 </r>
       </set>
       <set comment="band 2">
        <r>  0.3402  0.1325  0.0084  0.0004  0.0000  0.0000  0.0000  0.0000  0.0000 </r>
       </set>
       <set comment="band 3">
        <r>  0.0029  0.0122  0.1547  0.1150  0.0000  0.0000  0.0000  0.0000  0.0000 </r>
       </set>
       <set comment="band 4">
        <r>  0.0516  0.0001  0.1683  0.1668  0.0000  0.0000  0.0000  0.0000  0.0000 </r>
       </set>
       <set comment="band 5">
        <r>  0.0741  0.0006  0.0576  0.0688  0.0000  0.0000  0.0000  0.0000  0.0000 </r>
       </set>
       <set comment="band 6">
        <r>  0.0470  0.0011  0.0828  0.1379  0.0000  0.0000  0.0000  0.0000  0.0000 </r>
       </set>
       <set comment="band 7">
        <r>  0.0104  0.0272  0.0132  0.0666  0.0000  0.0000  0.0000  0.0000  0.0000 </r>
       </set>
       <set comment="band 8">
        <r>  0.0009  0.0663  0.0131  0.0299  0.0000  0.0000  0.0000  0.0000  0.0000 </r>
       </set>
      </set>
      <set comment="kpoint 98">
       <set comment="band 1">
        <r>  0.3542  0.0000  0.0781  0.0370  0.0000  0.0000  0.0000  0.0000  0.0000 </r>
       </set>
       <set comment="band 2">
        <r>  0.0000  0.3383  0.0000  0.0000  0.0000  0.0000  0.0000  0.0000  0.0000 </r>
       </set>
       <set comment="band 3">
        <r>  0.1867  0.0000  0.0757  0.0923  0.0000  0.0000  0.0000  0.0000  0.0000 </r>
       </set>
       <set comment="band 4">
        <r>  0.0479  0.0000  0.1918  0.1452  0.0000  0.0000  0.0000  0.0000  0.0000 </r>
       </set>
       <set comment="band 5">
        <r>  0.0764  0.0000  0.0371  0.0947  0.0000  0.0000  0.0000  0.0000  0.0000 </r>
       </set>
       <set comment="band 6">
        <r>  0.0179  0.0000  0.0886  0.1503  0.0000  0.0000  0.0000  0.0000  0.0000 </r>
       </set>
       <set comment="band 7">
        <r>  0.0000  0.1009  0.0000  0.0000  0.0000  0.0000  0.0000  0.0000  0.0000 </r>
       </set>
       <set comment="band 8">
        <r>  0.0166  0.0000  0.0482  0.0972  0.0000  0.0000  0.0000  0.0000  0.0000 </r>
       </set>
      </set>
      <set comment="kpoint 99">
       <set comment="band 1">
        <r>  0.1779  0.2096  0.0000  0.0019  0.0000  0.0000  0.0000  0.0000  0.0000 </r>
       </set>
       <set comment="band 2">
        <r>  0.2825  0.1429  0.0000  0.0023  0.0000  0.0000  0.0000  0.0000  0.0000 </r>
       </set>
       <set comment="band 3">
        <r>  0.0000  0.0000  0.3237  0.0000  0.0000  0.0000  0.0000  0.0000  0.0000 </r>
       </set>
       <set comment="band 4">
        <r>  0.0756  0.0002  0.0000  0.3512  0.0000  0.0000  0.0000  0.0000  0.0000 </r>
       </set>
       <set comment="band 5">
        <r>  0.0000  0.0000  0.1480  0.0000  0.0000  0.0000  0.0000  0.0000  0.0000 </r>
       </set>
       <set comment="band 6">
        <r>  0.1916  0.0017  0.0000  0.1216  0.0000  0.0000  0.0000  0.0000  0.0000 </r>
       </set>
       <set comment="band 7">
        <r>  0.0029  0.0079  0.0000  0.0541  0.0000  0.0000  0.0000  0.0000  0.0000 </r>
       </set>
       <set comment="band 8">
        <r>  0.0001  0.0389  0.0000  0.0014  0.0000  0.0000  0.0000  0.0000  0.0000 </r>
       </set>
      </set>
      <set comment="kpoint 100">
       <set comment="band 1">
        <r>  0.0000  0.3491  0.0000  0.0000  0.0000  0.0000  0.0000  0.0000  0.0000 </r>
       </set>
       <set comment="band 2">
        <r>  0.4659  0.0000  0.0006  0.0086  0.0000  0.0000  0.0000  0.0000  0.0000 </r>
       </set>
       <set comment="band 3">
        <r>  0.0414  0.0000  0.1934  0.0969  0.0000  0.0000  0.0000  0.0000  0.0000 </r>
       </set>
       <set comment="band 4">
        <r>  0.0590  0.0000  0.1286  0.2061  0.0000  0.0000  0.0000  0.0000  0.0000 </r>
       </set>
       <set comment="band 5">
        <r>  0.0533  0.0000  0.0959  0.0340  0.0000  0.0000  0.0000  0.0000  0.0000 </r>
       </set>
       <set comment="band 6">
        <r>  0.1003  0.0000  0.0534  0.1384  0.0000  0.0000  0.0000  0.0000  0.0000 </r>
       </set>
       <set comment="band 7">
        <r>  0.0062  0.0000  0.0081  0.0829  0.0000  0.0000  0.0000  0.0000  0.0000 </r>
       </set>
       <set comment="band 8">
        <r>  0.0000  0.0712  0.0000  0.0000  0.0000  0.0000  0.0000  0.0000  0.0000 </r>
       </set>
      </set>
      <set comment="kpoint 101">
       <set comment="band 1">
        <r>  0.3139  0.0633  0.0000  0.0149  0.0000  0.0000  0.0000  0.0000  0.0000 </r>
       </set>
       <set comment="band 2">
        <r>  0.0000  0.0000  0.2996  0.0000  0.0000  0.0000  0.0000  0.0000  0.0000 </r>
       </set>
       <set comment="band 3">
        <r>  0.1846  0.0994  0.0000  0.1931  0.0000  0.0000  0.0000  0.0000  0.0000 </r>
       </set>
       <set comment="band 4">
        <r>  0.0520  0.2504  0.0000  0.0808  0.0000  0.0000  0.0000  0.0000  0.0000 </r>
       </set>
       <set comment="band 5">
        <r>  0.0000  0.0000  0.1427  0.0000  0.0000  0.0000  0.0000  0.0000  0.0000 </r>
       </set>
       <set comment="band 6">
        <r>  0.0390  0.0523  0.0000  0.2312  0.0000  0.0000  0.0000  0.0000  0.0000 </r>
       </set>
       <set comment="band 7">
        <r>  0.0519  0.0003  0.0000  0.0783  0.0000  0.0000  0.0000  0.0000  0.0000 </r>
       </set>
       <set comment="band 8">
        <r>  0.0000  0.0000  0.1844  0.0000  0.0000  0.0000  0.0000  0.0000  0.0000 </r>
       </set>
      </set>
      <set comment="kpoint 102">
       <set comment="band 1">
        <r>  0.2943  0.0773  0.0008  0.0219  0.0000  0.0000  0.0000  0.0000  0.0000 </r>
       </set>
       <set comment="band 2">
        <r>  0.0875  0.0279  0.1838  0.0591  0.0000  0.0000  0.0000  0.0000  0.0000 </r>
       </set>
       <set comment="band 3">
        <r>  0.1376  0.0609  0.1238  0.1026  0.0000  0.0000  0.0000  0.0000  0.0000 </r>
       </set>
       <set comment="band 4">
        <r>  0.0508  0.2240  0.0000  0.0826  0.0000  0.0000  0.0000  0.0000  0.0000 </r>
       </set>
       <set comment="band 5">
        <r>  0.0179  0.0183  0.0761  0.1101  0.0000  0.0000  0.0000  0.0000  0.0000 </r>
       </set>
       <set comment="band 6">
        <r>  0.0005  0.0318  0.0518  0.2102  0.0000  0.0000  0.0000  0.0000  0.0000 </r>
       </set>
       <set comment="band 7">
        <r>  0.0715  0.0006  0.0175  0.0077  0.0000  0.0000  0.0000  0.0000  0.0000 </r>
       </set>
       <set comment="band 8">
        <r>  0.0181  0.0212  0.1298  0.0000  0.0000  0.0000  0.0000  0.0000  0.0000 </r>
       </set>
      </set>
      <set comment="kpoint 103">
       <set comment="band 1">
        <r>  0.2764  0.0906  0.0025  0.0285  0.0000  0.0000  0.0000  0.0000  0.0000 </r>
       </set>
       <set comment="band 2">
        <r>  0.1242  0.0280  0.1515  0.0635  0.0000  0.0000  0.0000  0.0000  0.0000 </r>
       </set>
       <set comment="band 3">
        <r>  0.1387  0.0598  0.1670  0.0646  0.0000  0.0000  0.0000  0.0000  0.0000 </r>
       </set>
       <set comment="band 4">
        <r>  0.0444  0.1932  0.0005  0.0976  0.0000  0.0000  0.0000  0.0000  0.0000 </r>
       </set>
       <set comment="band 5">
        <r>  0.0154  0.0224  0.0525  0.1793  0.0000  0.0000  0.0000  0.0000  0.0000 </r>
       </set>
       <set comment="band 6">
        <r>  0.0437  0.0147  0.0086  0.1037  0.0000  0.0000  0.0000  0.0000  0.0000 </r>
       </set>
       <set comment="band 7">
        <r>  0.0244  0.0124  0.0947  0.0529  0.0000  0.0000  0.0000  0.0000  0.0000 </r>
       </set>
       <set comment="band 8">
        <r>  0.0315  0.0717  0.0699  0.0069  0.0000  0.0000  0.0000  0.0000  0.0000 </r>
       </set>
      </set>
      <set comment="kpoint 104">
       <set comment="band 1">
        <r>  0.2907  0.0945  0.0014  0.0269  0.0000  0.0000  0.0000  0.0000  0.0000 </r>
       </set>
       <set comment="band 2">
        <r>  0.1166  0.0342  0.1380  0.0677  0.0000  0.0000  0.0000  0.0000  0.0000 </r>
       </set>
       <set comment="band 3">
        <r>  0.1678  0.0979  0.1841  0.0183  0.0000  0.0000  0.0000  0.0000  0.0000 </r>
       </set>
       <set comment="band 4">
        <r>  0.0155  0.1279  0.0141  0.1361  0.0000  0.0000  0.0000  0.0000  0.0000 </r>
       </set>
       <set comment="band 5">
        <r>  0.0034  0.0279  0.0394  0.2463  0.0000  0.0000  0.0000  0.0000  0.0000 </r>
       </set>
       <set comment="band 6">
        <r>  0.0711  0.0098  0.0048  0.0167  0.0000  0.0000  0.0000  0.0000  0.0000 </r>
       </set>
       <set comment="band 7">
        <r>  0.0011  0.0214  0.1318  0.0592  0.0000  0.0000  0.0000  0.0000  0.0000 </r>
       </set>
       <set comment="band 8">
        <r>  0.0108  0.1197  0.0199  0.0484  0.0000  0.0000  0.0000  0.0000  0.0000 </r>
       </set>
      </set>
      <set comment="kpoint 105">
       <set comment="band 1">
        <r>  0.2849  0.0962  0.0000  0.0135  0.0000  0.0000  0.0000  0.0000  0.0000 </r>
       </set>
       <set comment="band 2">
        <r>  0.0000  0.0000  0.3064  0.0000  0.0000  0.0000  0.0000  0.0000  0.0000 </r>
       </set>
       <set comment="band 3">
        <r>  0.2496  0.1076  0.0000  0.1605  0.0000  0.0000  0.0000  0.0000  0.0000 </r>
       </set>
       <set comment="band 4">
        <r>  0.0384  0.1699  0.0000  0.1006  0.0000  0.0000  0.0000  0.0000  0.0000 </r>
       </set>
       <set comment="band 5">
        <r>  0.0000  0.0000  0.1496  0.0000  0.0000  0.0000  0.0000  0.0000  0.0000 </r>
       </set>
       <set comment="band 6">
        <r>  0.0766  0.0342  0.0000  0.2256  0.0000  0.0000  0.0000  0.0000  0.0000 </r>
       </set>
       <set comment="band 7">
        <r>  0.0374  0.0091  0.0000  0.0887  0.0000  0.0000  0.0000  0.0000  0.0000 </r>
       </set>
       <set comment="band 8">
        <r>  0.0000  0.0000  0.1493  0.0000  0.0000  0.0000  0.0000  0.0000  0.0000 </r>
       </set>
      </set>
      <set comment="kpoint 106">
       <set comment="band 1">
        <r>  0.2645  0.1125  0.0006  0.0192  0.0000  0.0000  0.0000  0.0000  0.0000 </r>
       </set>
       <set comment="band 2">
        <r>  0.1033  0.0219  0.1847  0.0579  0.0000  0.0000  0.0000  0.0000  0.0000 </r>
       </set>
       <set comment="band 3">
        <r>  0.2086  0.1056  0.1181  0.0471  0.0000  0.0000  0.0000  0.0000  0.0000 </r>
       </set>
       <set comment="band 4">
        <r>  0.0160  0.1202  0.0110  0.1308  0.0000  0.0000  0.0000  0.0000  0.0000 </r>
       </set>
       <set comment="band 5">
        <r>  0.0293  0.0083  0.0863  0.0902  0.0000  0.0000  0.0000  0.0000  0.0000 </r>
       </set>
       <set comment="band 6">
        <r>  0.0240  0.0200  0.0570  0.1946  0.0000  0.0000  0.0000  0.0000  0.0000 </r>
       </set>
       <set comment="band 7">
        <r>  0.0517  0.0128  0.0053  0.0490  0.0000  0.0000  0.0000  0.0000  0.0000 </r>
       </set>
       <set comment="band 8">
        <r>  0.0071  0.0803  0.0561  0.0060  0.0000  0.0000  0.0000  0.0000  0.0000 </r>
       </set>
      </set>
      <set comment="kpoint 107">
       <set comment="band 1">
        <r>  0.2544  0.1264  0.0011  0.0219  0.0000  0.0000  0.0000  0.0000  0.0000 </r>
       </set>
       <set comment="band 2">
        <r>  0.1277  0.0218  0.1535  0.0648  0.0000  0.0000  0.0000  0.0000  0.0000 </r>
       </set>
       <set comment="band 3">
        <r>  0.2050  0.1852  0.0692  0.0039  0.0000  0.0000  0.0000  0.0000  0.0000 </r>
       </set>
       <set comment="band 4">
        <r>  0.0166  0.0140  0.1028  0.1535  0.0000  0.0000  0.0000  0.0000  0.0000 </r>
       </set>
       <set comment="band 5">
        <r>  0.0341  0.0077  0.0599  0.1436  0.0000  0.0000  0.0000  0.0000  0.0000 </r>
       </set>
       <set comment="band 6">
        <r>  0.0045  0.0313  0.0274  0.1951  0.0000  0.0000  0.0000  0.0000  0.0000 </r>
       </set>
       <set comment="band 7">
        <r>  0.0521  0.0042  0.0607  0.0088  0.0000  0.0000  0.0000  0.0000  0.0000 </r>
       </set>
       <set comment="band 8">
        <r>  0.0002  0.1100  0.0229  0.0326  0.0000  0.0000  0.0000  0.0000  0.0000 </r>
       </set>
      </set>
      <set comment="kpoint 108">
       <set comment="band 1">
        <r>  0.3361  0.0067  0.0846  0.0171  0.0000  0.0000  0.0000  0.0000  0.0000 </r>
       </set>
       <set comment="band 2">
        <r>  0.0444  0.1583  0.0543  0.0694  0.0000  0.0000  0.0000  0.0000  0.0000 </r>
       </set>
       <set comment="band 3">
        <r>  0.1760  0.1691  0.0403  0.0374  0.0000  0.0000  0.0000  0.0000  0.0000 </r>
       </set>
       <set comment="band 4">
        <r>  0.0508  0.0004  0.1620  0.1157  0.0000  0.0000  0.0000  0.0000  0.0000 </r>
       </set>
       <set comment="band 5">
        <r>  0.0290  0.0058  0.0461  0.1868  0.0000  0.0000  0.0000  0.0000  0.0000 </r>
       </set>
       <set comment="band 6">
        <r>  0.0347  0.0462  0.0005  0.0844  0.0000  0.0000  0.0000  0.0000  0.0000 </r>
       </set>
       <set comment="band 7">
        <r>  0.0015  0.0199  0.0493  0.1218  0.0000  0.0000  0.0000  0.0000  0.0000 </r>
       </set>
       <set comment="band 8">
        <r>  0.0164  0.0752  0.0744  0.0064  0.0000  0.0000  0.0000  0.0000  0.0000 </r>
       </set>
      </set>
      <set comment="kpoint 109">
       <set comment="band 1">
        <r>  0.2600  0.0004  0.1054  0.0356  0.0000  0.0000  0.0000  0.0000  0.0000 </r>
       </set>
       <set comment="band 2">
        <r>  0.1009  0.1984  0.0190  0.0420  0.0000  0.0000  0.0000  0.0000  0.0000 </r>
       </set>
       <set comment="band 3">
        <r>  0.1836  0.1238  0.0421  0.0690  0.0000  0.0000  0.0000  0.0000  0.0000 </r>
       </set>
       <set comment="band 4">
        <r>  0.0582  0.0000  0.1900  0.0942  0.0000  0.0000  0.0000  0.0000  0.0000 </r>
       </set>
       <set comment="band 5">
        <r>  0.0173  0.0043  0.0390  0.2388  0.0000  0.0000  0.0000  0.0000  0.0000 </r>
       </set>
       <set comment="band 6">
        <r>  0.0341  0.0745  0.0001  0.0223  0.0000  0.0000  0.0000  0.0000  0.0000 </r>
       </set>
       <set comment="band 7">
        <r>  0.0309  0.0553  0.0025  0.0970  0.0000  0.0000  0.0000  0.0000  0.0000 </r>
       </set>
       <set comment="band 8">
        <r>  0.0004  0.0109  0.1325  0.0307  0.0000  0.0000  0.0000  0.0000  0.0000 </r>
       </set>
      </set>
      <set comment="kpoint 110">
       <set comment="band 1">
        <r>  0.2751  0.0000  0.0922  0.0295  0.0000  0.0000  0.0000  0.0000  0.0000 </r>
       </set>
       <set comment="band 2">
        <r>  0.0000  0.3127  0.0000  0.0000  0.0000  0.0000  0.0000  0.0000  0.0000 </r>
       </set>
       <set comment="band 3">
        <r>  0.2591  0.0000  0.0713  0.1355  0.0000  0.0000  0.0000  0.0000  0.0000 </r>
       </set>
       <set comment="band 4">
        <r>  0.0564  0.0000  0.2086  0.0834  0.0000  0.0000  0.0000  0.0000  0.0000 </r>
       </set>
       <set comment="band 5">
        <r>  0.0019  0.0000  0.0415  0.3157  0.0000  0.0000  0.0000  0.0000  0.0000 </r>
       </set>
       <set comment="band 6">
        <r>  0.0000  0.1377  0.0000  0.0000  0.0000  0.0000  0.0000  0.0000  0.0000 </r>
       </set>
       <set comment="band 7">
        <r>  0.0881  0.0000  0.0038  0.0293  0.0000  0.0000  0.0000  0.0000  0.0000 </r>
       </set>
       <set comment="band 8">
        <r>  0.0000  0.1368  0.0000  0.0000  0.0000  0.0000  0.0000  0.0000  0.0000 </r>
       </set>
      </set>
      <set comment="kpoint 111">
       <set comment="band 1">
        <r>  0.2483  0.1362  0.0000  0.0115  0.0000  0.0000  0.0000  0.0000  0.0000 </r>
       </set>
       <set comment="band 2">
        <r>  0.2871  0.2139  0.0000  0.0024  0.0000  0.0000  0.0000  0.0000  0.0000 </r>
       </set>
       <set comment="band 3">
        <r>  0.0000  0.0000  0.3108  0.0000  0.0000  0.0000  0.0000  0.0000  0.0000 </r>
       </set>
       <set comment="band 4">
        <r>  0.0515  0.0049  0.0000  0.2582  0.0000  0.0000  0.0000  0.0000  0.0000 </r>
       </set>
       <set comment="band 5">
        <r>  0.0000  0.0000  0.1545  0.0000  0.0000  0.0000  0.0000  0.0000  0.0000 </r>
       </set>
       <set comment="band 6">
        <r>  0.1015  0.0134  0.0000  0.2245  0.0000  0.0000  0.0000  0.0000  0.0000 </r>
       </set>
       <set comment="band 7">
        <r>  0.0256  0.0218  0.0000  0.0804  0.0000  0.0000  0.0000  0.0000  0.0000 </r>
       </set>
       <set comment="band 8">
        <r>  0.0003  0.0725  0.0000  0.0124  0.0000  0.0000  0.0000  0.0000  0.0000 </r>
       </set>
      </set>
      <set comment="kpoint 112">
       <set comment="band 1">
        <r>  0.2252  0.1579  0.0003  0.0145  0.0000  0.0000  0.0000  0.0000  0.0000 </r>
       </set>
       <set comment="band 2">
        <r>  0.1926  0.0513  0.1434  0.0364  0.0000  0.0000  0.0000  0.0000  0.0000 </r>
       </set>
       <set comment="band 3">
        <r>  0.1208  0.1364  0.0736  0.0341  0.0000  0.0000  0.0000  0.0000  0.0000 </r>
       </set>
       <set comment="band 4">
        <r>  0.0665  0.0003  0.1014  0.1672  0.0000  0.0000  0.0000  0.0000  0.0000 </r>
       </set>
       <set comment="band 5">
        <r>  0.0347  0.0019  0.0904  0.0832  0.0000  0.0000  0.0000  0.0000  0.0000 </r>
       </set>
       <set comment="band 6">
        <r>  0.0412  0.0052  0.0565  0.1862  0.0000  0.0000  0.0000  0.0000  0.0000 </r>
       </set>
       <set comment="band 7">
        <r>  0.0309  0.0366  0.0029  0.0552  0.0000  0.0000  0.0000  0.0000  0.0000 </r>
       </set>
       <set comment="band 8">
        <r>  0.0044  0.0731  0.0046  0.0424  0.0000  0.0000  0.0000  0.0000  0.0000 </r>
       </set>
      </set>
      <set comment="kpoint 113">
       <set comment="band 1">
        <r>  0.2722  0.1538  0.0052  0.0030  0.0000  0.0000  0.0000  0.0000  0.0000 </r>
       </set>
       <set comment="band 2">
        <r>  0.0884  0.0638  0.1374  0.0623  0.0000  0.0000  0.0000  0.0000  0.0000 </r>
       </set>
       <set comment="band 3">
        <r>  0.1825  0.1195  0.0379  0.0508  0.0000  0.0000  0.0000  0.0000  0.0000 </r>
       </set>
       <set comment="band 4">
        <r>  0.0703  0.0000  0.1493  0.1255  0.0000  0.0000  0.0000  0.0000  0.0000 </r>
       </set>
       <set comment="band 5">
        <r>  0.0408  0.0008  0.0613  0.1312  0.0000  0.0000  0.0000  0.0000  0.0000 </r>
       </set>
       <set comment="band 6">
        <r>  0.0068  0.0041  0.0640  0.2001  0.0000  0.0000  0.0000  0.0000  0.0000 </r>
       </set>
       <set comment="band 7">
        <r>  0.0271  0.0651  0.0133  0.0108  0.0000  0.0000  0.0000  0.0000  0.0000 </r>
       </set>
       <set comment="band 8">
        <r>  0.0257  0.0493  0.0171  0.0543  0.0000  0.0000  0.0000  0.0000  0.0000 </r>
       </set>
      </set>
      <set comment="kpoint 114">
       <set comment="band 1">
        <r>  0.2536  0.0000  0.1182  0.0391  0.0000  0.0000  0.0000  0.0000  0.0000 </r>
       </set>
       <set comment="band 2">
        <r>  0.0000  0.3286  0.0000  0.0000  0.0000  0.0000  0.0000  0.0000  0.0000 </r>
       </set>
       <set comment="band 3">
        <r>  0.2920  0.0000  0.0498  0.0941  0.0000  0.0000  0.0000  0.0000  0.0000 </r>
       </set>
       <set comment="band 4">
        <r>  0.0669  0.0000  0.1748  0.1044  0.0000  0.0000  0.0000  0.0000  0.0000 </r>
       </set>
       <set comment="band 5">
        <r>  0.0354  0.0000  0.0461  0.1711  0.0000  0.0000  0.0000  0.0000  0.0000 </r>
       </set>
       <set comment="band 6">
        <r>  0.0000  0.1247  0.0000  0.0000  0.0000  0.0000  0.0000  0.0000  0.0000 </r>
       </set>
       <set comment="band 7">
        <r>  0.0191  0.0000  0.0068  0.2305  0.0000  0.0000  0.0000  0.0000  0.0000 </r>
       </set>
       <set comment="band 8">
        <r>  0.0356  0.0000  0.1084  0.0034  0.0000  0.0000  0.0000  0.0000  0.0000 </r>
       </set>
      </set>
      <set comment="kpoint 115">
       <set comment="band 1">
        <r>  0.1789  0.2045  0.0000  0.0073  0.0000  0.0000  0.0000  0.0000  0.0000 </r>
       </set>
       <set comment="band 2">
        <r>  0.2959  0.1428  0.0000  0.0070  0.0000  0.0000  0.0000  0.0000  0.0000 </r>
       </set>
       <set comment="band 3">
        <r>  0.0000  0.0000  0.3139  0.0000  0.0000  0.0000  0.0000  0.0000  0.0000 </r>
       </set>
       <set comment="band 4">
        <r>  0.1200  0.0000  0.0000  0.2574  0.0000  0.0000  0.0000  0.0000  0.0000 </r>
       </set>
       <set comment="band 5">
        <r>  0.0000  0.0000  0.1549  0.0000  0.0000  0.0000  0.0000  0.0000  0.0000 </r>
       </set>
       <set comment="band 6">
        <r>  0.1127  0.0016  0.0000  0.2240  0.0000  0.0000  0.0000  0.0000  0.0000 </r>
       </set>
       <set comment="band 7">
        <r>  0.0138  0.0388  0.0000  0.0607  0.0000  0.0000  0.0000  0.0000  0.0000 </r>
       </set>
       <set comment="band 8">
        <r>  0.0053  0.0511  0.0000  0.0453  0.0000  0.0000  0.0000  0.0000  0.0000 </r>
       </set>
      </set>
      <set comment="kpoint 116">
       <set comment="band 1">
        <r>  0.0000  0.3420  0.0000  0.0000  0.0000  0.0000  0.0000  0.0000  0.0000 </r>
       </set>
       <set comment="band 2">
        <r>  0.5064  0.0000  0.0009  0.0136  0.0000  0.0000  0.0000  0.0000  0.0000 </r>
       </set>
       <set comment="band 3">
        <r>  0.0160  0.0000  0.2094  0.0801  0.0000  0.0000  0.0000  0.0000  0.0000 </r>
       </set>
       <set comment="band 4">
        <r>  0.0874  0.0000  0.1097  0.1582  0.0000  0.0000  0.0000  0.0000  0.0000 </r>
       </set>
       <set comment="band 5">
        <r>  0.0361  0.0000  0.0919  0.0814  0.0000  0.0000  0.0000  0.0000  0.0000 </r>
       </set>
       <set comment="band 6">
        <r>  0.0466  0.0000  0.0565  0.1833  0.0000  0.0000  0.0000  0.0000  0.0000 </r>
       </set>
       <set comment="band 7">
        <r>  0.0000  0.1016  0.0000  0.0000  0.0000  0.0000  0.0000  0.0000  0.0000 </r>
       </set>
       <set comment="band 8">
        <r>  0.0332  0.0000  0.0054  0.1097  0.0000  0.0000  0.0000  0.0000  0.0000 </r>
       </set>
      </set>
      <set comment="kpoint 117">
       <set comment="band 1">
        <r>  0.2447  0.1298  0.0000  0.0244  0.0000  0.0000  0.0000  0.0000  0.0000 </r>
       </set>
       <set comment="band 2">
        <r>  0.0000  0.0000  0.3188  0.0000  0.0000  0.0000  0.0000  0.0000  0.0000 </r>
       </set>
       <set comment="band 3">
        <r>  0.3278  0.0770  0.0000  0.1003  0.0000  0.0000  0.0000  0.0000  0.0000 </r>
       </set>
       <set comment="band 4">
        <r>  0.0381  0.1417  0.0000  0.1142  0.0000  0.0000  0.0000  0.0000  0.0000 </r>
       </set>
       <set comment="band 5">
        <r>  0.0000  0.0000  0.1420  0.0000  0.0000  0.0000  0.0000  0.0000  0.0000 </r>
       </set>
       <set comment="band 6">
        <r>  0.0195  0.0260  0.0000  0.3478  0.0000  0.0000  0.0000  0.0000  0.0000 </r>
       </set>
       <set comment="band 7">
        <r>  0.0735  0.0190  0.0000  0.0053  0.0000  0.0000  0.0000  0.0000  0.0000 </r>
       </set>
       <set comment="band 8">
        <r>  0.0046  0.0970  0.0000  0.0382  0.0000  0.0000  0.0000  0.0000  0.0000 </r>
       </set>
      </set>
      <set comment="kpoint 118">
       <set comment="band 1">
        <r>  0.2465  0.1433  0.0001  0.0231  0.0000  0.0000  0.0000  0.0000  0.0000 </r>
       </set>
       <set comment="band 2">
        <r>  0.0968  0.0207  0.1981  0.0431  0.0000  0.0000  0.0000  0.0000  0.0000 </r>
       </set>
       <set comment="band 3">
        <r>  0.2607  0.0772  0.1179  0.0199  0.0000  0.0000  0.0000  0.0000  0.0000 </r>
       </set>
       <set comment="band 4">
        <r>  0.0158  0.0963  0.0113  0.1460  0.0000  0.0000  0.0000  0.0000  0.0000 </r>
       </set>
       <set comment="band 5">
        <r>  0.0025  0.0203  0.0389  0.2654  0.0000  0.0000  0.0000  0.0000  0.0000 </r>
       </set>
       <set comment="band 6">
        <r>  0.0247  0.0281  0.0547  0.0396  0.0000  0.0000  0.0000  0.0000  0.0000 </r>
       </set>
       <set comment="band 7">
        <r>  0.0359  0.0154  0.0390  0.0802  0.0000  0.0000  0.0000  0.0000  0.0000 </r>
       </set>
       <set comment="band 8">
        <r>  0.0340  0.0765  0.0061  0.0288  0.0000  0.0000  0.0000  0.0000  0.0000 </r>
       </set>
      </set>
      <set comment="kpoint 119">
       <set comment="band 1">
        <r>  0.1910  0.1936  0.0000  0.0143  0.0000  0.0000  0.0000  0.0000  0.0000 </r>
       </set>
       <set comment="band 2">
        <r>  0.3702  0.1403  0.0000  0.0011  0.0000  0.0000  0.0000  0.0000  0.0000 </r>
       </set>
       <set comment="band 3">
        <r>  0.0000  0.0000  0.3212  0.0000  0.0000  0.0000  0.0000  0.0000  0.0000 </r>
       </set>
       <set comment="band 4">
        <r>  0.0599  0.0051  0.0000  0.2209  0.0000  0.0000  0.0000  0.0000  0.0000 </r>
       </set>
       <set comment="band 5">
        <r>  0.0000  0.0000  0.1451  0.0000  0.0000  0.0000  0.0000  0.0000  0.0000 </r>
       </set>
       <set comment="band 6">
        <r>  0.0446  0.0029  0.0000  0.3259  0.0000  0.0000  0.0000  0.0000  0.0000 </r>
       </set>
       <set comment="band 7">
        <r>  0.0289  0.0700  0.0000  0.0187  0.0000  0.0000  0.0000  0.0000  0.0000 </r>
       </set>
       <set comment="band 8">
        <r>  0.0336  0.0466  0.0000  0.0617  0.0000  0.0000  0.0000  0.0000  0.0000 </r>
       </set>
      </set>
      <set comment="kpoint 120">
       <set comment="band 1">
        <r>  0.2985  0.0000  0.1468  0.0113  0.0000  0.0000  0.0000  0.0000  0.0000 </r>
       </set>
       <set comment="band 2">
        <r>  0.0000  0.3323  0.0000  0.0000  0.0000  0.0000  0.0000  0.0000  0.0000 </r>
       </set>
       <set comment="band 3">
        <r>  0.2759  0.0000  0.0951  0.0634  0.0000  0.0000  0.0000  0.0000  0.0000 </r>
       </set>
       <set comment="band 4">
        <r>  0.0510  0.0000  0.0867  0.1558  0.0000  0.0000  0.0000  0.0000  0.0000 </r>
       </set>
       <set comment="band 5">
        <r>  0.0142  0.0000  0.0625  0.2015  0.0000  0.0000  0.0000  0.0000  0.0000 </r>
       </set>
       <set comment="band 6">
        <r>  0.0000  0.0000  0.0630  0.2043  0.0000  0.0000  0.0000  0.0000  0.0000 </r>
       </set>
       <set comment="band 7">
        <r>  0.0000  0.1260  0.0000  0.0000  0.0000  0.0000  0.0000  0.0000  0.0000 </r>
       </set>
       <set comment="band 8">
        <r>  0.0893  0.0000  0.0140  0.0135  0.0000  0.0000  0.0000  0.0000  0.0000 </r>
       </set>
      </set>
     </set>
    </set>
   </array>
  </projected>
 </calculation>
 <structure name="finalpos" >
  <crystal>
   <varray name="basis" >
    <v>       1.95000000       1.95000000       0.00000000 </v>
    <v>       0.00000000       1.95000000       1.95000000 </v>
    <v>       1.95000000       0.00000000       1.95000000 </v>
   </varray>
   <i name="volume">     14.82975000 </i>
   <varray name="rec_basis" >
    <v>       0.25641026       0.25641026      -0.25641026 </v>
    <v>      -0.25641026       0.25641026       0.25641026 </v>
    <v>       0.25641026      -0.25641026       0.25641026 </v>
   </varray>
  </crystal>
  <varray name="positions" >
   <v>       0.00000000       0.00000000       0.00000000 </v>
  </varray>
 </structure>
</modeling>
